 Entering Gaussian System, Link 0=g16
 Initial command:
 /mnt/data/applications/G16/g16/l1.exe "/scratch/Gau-5520.inp" -scrdir="/scratch/"
 Entering Link 1 = /mnt/data/applications/G16/g16/l1.exe PID=      5521.
  
 Copyright (c) 1988,1990,1992,1993,1995,1998,2003,2009,2016,
            Gaussian, Inc.  All Rights Reserved.
  
 This is part of the Gaussian(R) 16 program.  It is based on
 the Gaussian(R) 09 system (copyright 2009, Gaussian, Inc.),
 the Gaussian(R) 03 system (copyright 2003, Gaussian, Inc.),
 the Gaussian(R) 98 system (copyright 1998, Gaussian, Inc.),
 the Gaussian(R) 94 system (copyright 1995, Gaussian, Inc.),
 the Gaussian 92(TM) system (copyright 1992, Gaussian, Inc.),
 the Gaussian 90(TM) system (copyright 1990, Gaussian, Inc.),
 the Gaussian 88(TM) system (copyright 1988, Gaussian, Inc.),
 the Gaussian 86(TM) system (copyright 1986, Carnegie Mellon
 University), and the Gaussian 82(TM) system (copyright 1983,
 Carnegie Mellon University). Gaussian is a federally registered
 trademark of Gaussian, Inc.
  
 This software contains proprietary and confidential information,
 including trade secrets, belonging to Gaussian, Inc.
  
 This software is provided under written license and may be
 used, copied, transmitted, or stored only in accord with that
 written license.
  
 The following legend is applicable only to US Government
 contracts under FAR:
  
                    RESTRICTED RIGHTS LEGEND
  
 Use, reproduction and disclosure by the US Government is
 subject to restrictions as set forth in subparagraphs (a)
 and (c) of the Commercial Computer Software - Restricted
 Rights clause in FAR 52.227-19.
  
 Gaussian, Inc.
 340 Quinnipiac St., Bldg. 40, Wallingford CT 06492
  
  
 ---------------------------------------------------------------
 Warning -- This program may not be used in any manner that
 competes with the business of Gaussian, Inc. or will provide
 assistance to any competitor of Gaussian, Inc.  The licensee
 of this program is prohibited from giving any competitor of
 Gaussian, Inc. access to this program.  By using this program,
 the user acknowledges that Gaussian, Inc. is engaged in the
 business of creating and licensing software in the field of
 computational chemistry and represents and warrants to the
 licensee that it is not a competitor of Gaussian, Inc. and that
 it will not use this program in any manner prohibited above.
 ---------------------------------------------------------------
  

 Cite this work as:
 Gaussian 16, Revision A.03,
 M. J. Frisch, G. W. Trucks, H. B. Schlegel, G. E. Scuseria, 
 M. A. Robb, J. R. Cheeseman, G. Scalmani, V. Barone, 
 G. A. Petersson, H. Nakatsuji, X. Li, M. Caricato, A. V. Marenich, 
 J. Bloino, B. G. Janesko, R. Gomperts, B. Mennucci, H. P. Hratchian, 
 J. V. Ortiz, A. F. Izmaylov, J. L. Sonnenberg, D. Williams-Young, 
 F. Ding, F. Lipparini, F. Egidi, J. Goings, B. Peng, A. Petrone, 
 T. Henderson, D. Ranasinghe, V. G. Zakrzewski, J. Gao, N. Rega, 
 G. Zheng, W. Liang, M. Hada, M. Ehara, K. Toyota, R. Fukuda, 
 J. Hasegawa, M. Ishida, T. Nakajima, Y. Honda, O. Kitao, H. Nakai, 
 T. Vreven, K. Throssell, J. A. Montgomery, Jr., J. E. Peralta, 
 F. Ogliaro, M. J. Bearpark, J. J. Heyd, E. N. Brothers, K. N. Kudin, 
 V. N. Staroverov, T. A. Keith, R. Kobayashi, J. Normand, 
 K. Raghavachari, A. P. Rendell, J. C. Burant, S. S. Iyengar, 
 J. Tomasi, M. Cossi, J. M. Millam, M. Klene, C. Adamo, R. Cammi, 
 J. W. Ochterski, R. L. Martin, K. Morokuma, O. Farkas, 
 J. B. Foresman, and D. J. Fox, Gaussian, Inc., Wallingford CT, 2016.
 
 ******************************************
 Gaussian 16:  AM64L-G16RevA.03 25-Dec-2016
                 4-Oct-2022 
 ******************************************
 %nprocshared=12
 Will use up to   12 processors via shared memory.
 %mem=22GB
 %chk=I8.chk
 ----------------------------------------------------------------------
 #p opt=(maxstep=5) freq pseudo=read WB97XD gen scrf(smd,solvent=toluen
 e)
 ----------------------------------------------------------------------
 1/8=5,18=20,19=15,26=3,38=1/1,3;
 2/9=110,12=2,17=6,18=5,40=1/2;
 3/5=7,11=2,16=1,17=8,25=1,30=1,70=32201,71=1,72=13,74=-58/1,2,3;
 4//1;
 5/5=2,38=5,53=13/2;
 6/7=2,8=2,9=2,10=2,28=1/1;
 7//1,2,3,16;
 1/8=5,18=20,19=15,26=3/3(2);
 2/9=110/2;
 99//99;
 2/9=110/2;
 3/5=7,6=1,11=2,16=1,17=8,25=1,30=1,70=32205,71=1,72=13,74=-58,82=7/1,2,3;
 4/5=5,16=3,69=1/1;
 5/5=2,38=5,53=13/2;
 7//1,2,3,16;
 1/8=5,18=20,19=15,26=3/3(-5);
 2/9=110/2;
 6/7=2,8=2,9=2,10=2,19=2,28=1/1;
 99/9=1/99;
 Leave Link    1 at Tue Oct  4 17:29:03 2022, MaxMem=  2952790016 cpu:               0.6 elap:               0.1
 (Enter /mnt/data/applications/G16/g16/l101.exe)
 -------------------------
 Auto-generated job for I8
 -------------------------
 Symbolic Z-matrix:
 Charge =  0 Multiplicity = 1
 H                     0.1336   -0.41977  -1.78201 
 H                     0.91627  -1.99354  -0.62717 
 Rh                   -0.00858  -0.76164  -0.22835 
 C                     1.76662   0.33982  -0.1262 
 O                     1.80626   1.46069   0.32564 
 C                     3.0426   -0.31507  -0.62977 
 C                     4.28104   0.56035  -0.56078 
 H                     2.83884  -0.65201  -1.64939 
 H                     3.16694  -1.23402  -0.04847 
 H                     5.14916   0.01729  -0.93958 
 H                     4.15966   1.46536  -1.15788 
 H                     4.49321   0.86882   0.46372 
 C                     0.2021   -1.17229   1.66601 
 O                     0.38978  -1.41255   2.75671 
 P                    -1.2773    1.2631   -0.00058 
 C                    -3.06716   1.06527  -0.26056 
 C                    -0.84062   2.58175  -1.16568 
 C                    -1.18244   2.06161   1.62656 
 H                    -1.58527   1.38799   2.38486 
 H                    -1.74762   2.99568   1.64341 
 H                    -0.13631   2.26398   1.85443 
 H                    -3.46563   0.34511   0.45596 
 H                    -3.24949   0.68597  -1.26735 
 H                    -3.59218   2.01483  -0.13913 
 H                    -0.99228   2.22411  -2.18454 
 H                     0.20995   2.83687  -1.03638 
 H                    -1.45483   3.46872  -0.99768 
 C                    -1.53503  -1.89629  -0.6994 
 O                    -2.35867  -2.58551  -1.05605 
 
 ITRead=  0  0  0  0  0  0  0  0  0  0  0  0  0  0  0  0  0  0  0  0
 ITRead=  0  0  0  0  0  0  0  0  0
 MicOpt= -1 -1 -1 -1 -1 -1 -1 -1 -1 -1 -1 -1 -1 -1 -1 -1 -1 -1 -1 -1
 MicOpt= -1 -1 -1 -1 -1 -1 -1 -1 -1
 NAtoms=     29 NQM=       29 NQMF=       0 NMMI=      0 NMMIF=      0
                NMic=       0 NMicF=      0.
                    Isotopes and Nuclear Properties:
 (Nuclear quadrupole moments (NQMom) in fm**2, nuclear magnetic moments (NMagM)
  in nuclear magnetons)

  Atom         1           2           3           4           5           6           7           8           9          10
 IAtWgt=           1           1         103          12          16          12          12           1           1           1
 AtmWgt=   1.0078250   1.0078250 102.9048000  12.0000000  15.9949146  12.0000000  12.0000000   1.0078250   1.0078250   1.0078250
 NucSpn=           1           1           1           0           0           0           0           1           1           1
 AtZEff=  -0.0000000  -0.0000000  -0.0000000  -0.0000000  -0.0000000  -0.0000000  -0.0000000  -0.0000000  -0.0000000  -0.0000000
 NQMom=    0.0000000   0.0000000   0.0000000   0.0000000   0.0000000   0.0000000   0.0000000   0.0000000   0.0000000   0.0000000
 NMagM=    2.7928460   2.7928460  -0.0884000   0.0000000   0.0000000   0.0000000   0.0000000   2.7928460   2.7928460   2.7928460
 AtZNuc=   1.0000000   1.0000000  45.0000000   6.0000000   8.0000000   6.0000000   6.0000000   1.0000000   1.0000000   1.0000000

  Atom        11          12          13          14          15          16          17          18          19          20
 IAtWgt=           1           1          12          16          31          12          12          12           1           1
 AtmWgt=   1.0078250   1.0078250  12.0000000  15.9949146  30.9737634  12.0000000  12.0000000  12.0000000   1.0078250   1.0078250
 NucSpn=           1           1           0           0           1           0           0           0           1           1
 AtZEff=  -0.0000000  -0.0000000  -0.0000000  -0.0000000  -0.0000000  -0.0000000  -0.0000000  -0.0000000  -0.0000000  -0.0000000
 NQMom=    0.0000000   0.0000000   0.0000000   0.0000000   0.0000000   0.0000000   0.0000000   0.0000000   0.0000000   0.0000000
 NMagM=    2.7928460   2.7928460   0.0000000   0.0000000   1.1316000   0.0000000   0.0000000   0.0000000   2.7928460   2.7928460
 AtZNuc=   1.0000000   1.0000000   6.0000000   8.0000000  15.0000000   6.0000000   6.0000000   6.0000000   1.0000000   1.0000000

  Atom        21          22          23          24          25          26          27          28          29
 IAtWgt=           1           1           1           1           1           1           1          12          16
 AtmWgt=   1.0078250   1.0078250   1.0078250   1.0078250   1.0078250   1.0078250   1.0078250  12.0000000  15.9949146
 NucSpn=           1           1           1           1           1           1           1           0           0
 AtZEff=  -0.0000000  -0.0000000  -0.0000000  -0.0000000  -0.0000000  -0.0000000  -0.0000000  -0.0000000  -0.0000000
 NQMom=    0.0000000   0.0000000   0.0000000   0.0000000   0.0000000   0.0000000   0.0000000   0.0000000   0.0000000
 NMagM=    2.7928460   2.7928460   2.7928460   2.7928460   2.7928460   2.7928460   2.7928460   0.0000000   0.0000000
 AtZNuc=   1.0000000   1.0000000   1.0000000   1.0000000   1.0000000   1.0000000   1.0000000   6.0000000   8.0000000
 Leave Link  101 at Tue Oct  4 17:29:03 2022, MaxMem=  2952790016 cpu:               4.7 elap:               0.4
 (Enter /mnt/data/applications/G16/g16/l103.exe)

 GradGradGradGradGradGradGradGradGradGradGradGradGradGradGradGradGradGrad
 Berny optimization.
 Initialization pass.
                           ----------------------------
                           !    Initial Parameters    !
                           ! (Angstroms and Degrees)  !
 --------------------------                            --------------------------
 ! Name  Definition              Value          Derivative Info.                !
 --------------------------------------------------------------------------------
 ! R1    R(1,3)                  1.5972         estimate D2E/DX2                !
 ! R2    R(2,3)                  1.5912         estimate D2E/DX2                !
 ! R3    R(3,4)                  2.0916         estimate D2E/DX2                !
 ! R4    R(3,13)                 1.9498         estimate D2E/DX2                !
 ! R5    R(3,15)                 2.4002         estimate D2E/DX2                !
 ! R6    R(3,28)                 1.9594         estimate D2E/DX2                !
 ! R7    R(4,5)                  1.2092         estimate D2E/DX2                !
 ! R8    R(4,6)                  1.5201         estimate D2E/DX2                !
 ! R9    R(6,7)                  1.5182         estimate D2E/DX2                !
 ! R10   R(6,8)                  1.093          estimate D2E/DX2                !
 ! R11   R(6,9)                  1.0945         estimate D2E/DX2                !
 ! R12   R(7,10)                 1.0918         estimate D2E/DX2                !
 ! R13   R(7,11)                 1.091          estimate D2E/DX2                !
 ! R14   R(7,12)                 1.0908         estimate D2E/DX2                !
 ! R15   R(13,14)                1.1325         estimate D2E/DX2                !
 ! R16   R(15,16)                1.8194         estimate D2E/DX2                !
 ! R17   R(15,17)                1.813          estimate D2E/DX2                !
 ! R18   R(15,18)                1.815          estimate D2E/DX2                !
 ! R19   R(16,22)                1.0912         estimate D2E/DX2                !
 ! R20   R(16,23)                1.0912         estimate D2E/DX2                !
 ! R21   R(16,24)                1.0918         estimate D2E/DX2                !
 ! R22   R(17,25)                1.0904         estimate D2E/DX2                !
 ! R23   R(17,26)                1.0888         estimate D2E/DX2                !
 ! R24   R(17,27)                1.0919         estimate D2E/DX2                !
 ! R25   R(18,19)                1.0913         estimate D2E/DX2                !
 ! R26   R(18,20)                1.0919         estimate D2E/DX2                !
 ! R27   R(18,21)                1.0896         estimate D2E/DX2                !
 ! R28   R(28,29)                1.1316         estimate D2E/DX2                !
 ! A1    A(1,3,2)               82.5396         estimate D2E/DX2                !
 ! A2    A(1,3,4)               81.9077         estimate D2E/DX2                !
 ! A3    A(1,3,15)              87.6387         estimate D2E/DX2                !
 ! A4    A(1,3,28)              87.6757         estimate D2E/DX2                !
 ! A5    A(2,3,4)               85.793          estimate D2E/DX2                !
 ! A6    A(2,3,13)              91.0118         estimate D2E/DX2                !
 ! A7    A(2,3,28)              86.8027         estimate D2E/DX2                !
 ! A8    A(4,3,13)              88.3815         estimate D2E/DX2                !
 ! A9    A(4,3,15)              89.986          estimate D2E/DX2                !
 ! A10   A(13,3,15)             98.1976         estimate D2E/DX2                !
 ! A11   A(13,3,28)            101.2909         estimate D2E/DX2                !
 ! A12   A(15,3,28)             95.7112         estimate D2E/DX2                !
 ! A13   A(3,4,5)              122.2912         estimate D2E/DX2                !
 ! A14   A(3,4,6)              117.9936         estimate D2E/DX2                !
 ! A15   A(5,4,6)              119.7122         estimate D2E/DX2                !
 ! A16   A(4,6,7)              114.9149         estimate D2E/DX2                !
 ! A17   A(4,6,8)              106.5808         estimate D2E/DX2                !
 ! A18   A(4,6,9)              106.3297         estimate D2E/DX2                !
 ! A19   A(7,6,8)              111.8525         estimate D2E/DX2                !
 ! A20   A(7,6,9)              111.5518         estimate D2E/DX2                !
 ! A21   A(8,6,9)              104.9399         estimate D2E/DX2                !
 ! A22   A(6,7,10)             110.2448         estimate D2E/DX2                !
 ! A23   A(6,7,11)             111.2656         estimate D2E/DX2                !
 ! A24   A(6,7,12)             111.3721         estimate D2E/DX2                !
 ! A25   A(10,7,11)            108.1299         estimate D2E/DX2                !
 ! A26   A(10,7,12)            108.1726         estimate D2E/DX2                !
 ! A27   A(11,7,12)            107.5239         estimate D2E/DX2                !
 ! A28   A(3,15,16)            114.5013         estimate D2E/DX2                !
 ! A29   A(3,15,17)            115.1668         estimate D2E/DX2                !
 ! A30   A(3,15,18)            115.377          estimate D2E/DX2                !
 ! A31   A(16,15,17)           102.9557         estimate D2E/DX2                !
 ! A32   A(16,15,18)           103.141          estimate D2E/DX2                !
 ! A33   A(17,15,18)           104.0959         estimate D2E/DX2                !
 ! A34   A(15,16,22)           109.7032         estimate D2E/DX2                !
 ! A35   A(15,16,23)           109.5121         estimate D2E/DX2                !
 ! A36   A(15,16,24)           111.2604         estimate D2E/DX2                !
 ! A37   A(22,16,23)           108.3849         estimate D2E/DX2                !
 ! A38   A(22,16,24)           108.9859         estimate D2E/DX2                !
 ! A39   A(23,16,24)           108.94           estimate D2E/DX2                !
 ! A40   A(15,17,25)           109.1727         estimate D2E/DX2                !
 ! A41   A(15,17,26)           109.057          estimate D2E/DX2                !
 ! A42   A(15,17,27)           110.8837         estimate D2E/DX2                !
 ! A43   A(25,17,26)           108.7847         estimate D2E/DX2                !
 ! A44   A(25,17,27)           109.388          estimate D2E/DX2                !
 ! A45   A(26,17,27)           109.5211         estimate D2E/DX2                !
 ! A46   A(15,18,19)           109.3947         estimate D2E/DX2                !
 ! A47   A(15,18,20)           111.2942         estimate D2E/DX2                !
 ! A48   A(15,18,21)           108.6251         estimate D2E/DX2                !
 ! A49   A(19,18,20)           109.0406         estimate D2E/DX2                !
 ! A50   A(19,18,21)           108.887          estimate D2E/DX2                !
 ! A51   A(20,18,21)           109.5629         estimate D2E/DX2                !
 ! A52   L(1,3,13,2,-1)        173.5514         estimate D2E/DX2                !
 ! A53   L(2,3,15,1,-1)        170.1783         estimate D2E/DX2                !
 ! A54   L(4,3,28,1,-1)        169.5834         estimate D2E/DX2                !
 ! A55   L(3,13,14,12,-1)      176.9598         estimate D2E/DX2                !
 ! A56   L(3,28,29,16,-1)      183.4912         estimate D2E/DX2                !
 ! A57   L(1,3,13,2,-2)        170.6756         estimate D2E/DX2                !
 ! A58   L(2,3,15,1,-2)        182.8948         estimate D2E/DX2                !
 ! A59   L(4,3,28,1,-2)        173.861          estimate D2E/DX2                !
 ! A60   L(3,13,14,12,-2)      181.4157         estimate D2E/DX2                !
 ! A61   L(3,28,29,16,-2)      175.6858         estimate D2E/DX2                !
 ! D1    D(1,3,4,5)            106.476          estimate D2E/DX2                !
 ! D2    D(1,3,4,6)            -74.1547         estimate D2E/DX2                !
 ! D3    D(2,3,4,5)           -170.4763         estimate D2E/DX2                !
 ! D4    D(2,3,4,6)              8.893          estimate D2E/DX2                !
 ! D5    D(13,3,4,5)           -79.3423         estimate D2E/DX2                !
 ! D6    D(13,3,4,6)           100.027          estimate D2E/DX2                !
 ! D7    D(15,3,4,5)            18.859          estimate D2E/DX2                !
 ! D8    D(15,3,4,6)          -161.7717         estimate D2E/DX2                !
 ! D9    D(1,3,15,16)           89.3028         estimate D2E/DX2                !
 ! D10   D(1,3,15,17)          -29.799          estimate D2E/DX2                !
 ! D11   D(1,3,15,18)         -151.1782         estimate D2E/DX2                !
 ! D12   D(4,3,15,16)          171.2042         estimate D2E/DX2                !
 ! D13   D(4,3,15,17)           52.1024         estimate D2E/DX2                !
 ! D14   D(4,3,15,18)          -69.2768         estimate D2E/DX2                !
 ! D15   D(13,3,15,16)        -100.433          estimate D2E/DX2                !
 ! D16   D(13,3,15,17)         140.4651         estimate D2E/DX2                !
 ! D17   D(13,3,15,18)          19.086          estimate D2E/DX2                !
 ! D18   D(28,3,15,16)           1.8773         estimate D2E/DX2                !
 ! D19   D(28,3,15,17)        -117.2246         estimate D2E/DX2                !
 ! D20   D(28,3,15,18)         121.3963         estimate D2E/DX2                !
 ! D21   D(3,4,6,7)            178.289          estimate D2E/DX2                !
 ! D22   D(3,4,6,8)             53.7807         estimate D2E/DX2                !
 ! D23   D(3,4,6,9)            -57.7828         estimate D2E/DX2                !
 ! D24   D(5,4,6,7)             -2.3249         estimate D2E/DX2                !
 ! D25   D(5,4,6,8)           -126.8332         estimate D2E/DX2                !
 ! D26   D(5,4,6,9)            121.6033         estimate D2E/DX2                !
 ! D27   D(4,6,7,10)          -179.9891         estimate D2E/DX2                !
 ! D28   D(4,6,7,11)           -60.0264         estimate D2E/DX2                !
 ! D29   D(4,6,7,12)            59.9252         estimate D2E/DX2                !
 ! D30   D(8,6,7,10)           -58.3012         estimate D2E/DX2                !
 ! D31   D(8,6,7,11)            61.6614         estimate D2E/DX2                !
 ! D32   D(8,6,7,12)          -178.387          estimate D2E/DX2                !
 ! D33   D(9,6,7,10)            58.8947         estimate D2E/DX2                !
 ! D34   D(9,6,7,11)           178.8573         estimate D2E/DX2                !
 ! D35   D(9,6,7,12)           -61.191          estimate D2E/DX2                !
 ! D36   D(3,15,16,22)          59.0012         estimate D2E/DX2                !
 ! D37   D(3,15,16,23)         -59.8362         estimate D2E/DX2                !
 ! D38   D(3,15,16,24)         179.6746         estimate D2E/DX2                !
 ! D39   D(17,15,16,22)       -175.2387         estimate D2E/DX2                !
 ! D40   D(17,15,16,23)         65.9238         estimate D2E/DX2                !
 ! D41   D(17,15,16,24)        -54.5654         estimate D2E/DX2                !
 ! D42   D(18,15,16,22)        -67.1593         estimate D2E/DX2                !
 ! D43   D(18,15,16,23)        174.0033         estimate D2E/DX2                !
 ! D44   D(18,15,16,24)         53.5141         estimate D2E/DX2                !
 ! D45   D(3,15,17,25)          59.6861         estimate D2E/DX2                !
 ! D46   D(3,15,17,26)         -59.0516         estimate D2E/DX2                !
 ! D47   D(3,15,17,27)        -179.7279         estimate D2E/DX2                !
 ! D48   D(16,15,17,25)        -65.6428         estimate D2E/DX2                !
 ! D49   D(16,15,17,26)        175.6194         estimate D2E/DX2                !
 ! D50   D(16,15,17,27)         54.9431         estimate D2E/DX2                !
 ! D51   D(18,15,17,25)       -172.9982         estimate D2E/DX2                !
 ! D52   D(18,15,17,26)         68.264          estimate D2E/DX2                !
 ! D53   D(18,15,17,27)        -52.4122         estimate D2E/DX2                !
 ! D54   D(3,15,18,19)         -61.8589         estimate D2E/DX2                !
 ! D55   D(3,15,18,20)         177.582          estimate D2E/DX2                !
 ! D56   D(3,15,18,21)          56.8782         estimate D2E/DX2                !
 ! D57   D(16,15,18,19)         63.7385         estimate D2E/DX2                !
 ! D58   D(16,15,18,20)        -56.8205         estimate D2E/DX2                !
 ! D59   D(16,15,18,21)       -177.5243         estimate D2E/DX2                !
 ! D60   D(17,15,18,19)        170.9559         estimate D2E/DX2                !
 ! D61   D(17,15,18,20)         50.3968         estimate D2E/DX2                !
 ! D62   D(17,15,18,21)        -70.3069         estimate D2E/DX2                !
 --------------------------------------------------------------------------------
 Trust Radius=5.00D-02 FncErr=1.00D-07 GrdErr=1.00D-06 EigMax=2.50D+02 EigMin=1.00D-04
 Number of steps in this run=    161 maximum allowed number of steps=    174.
 GradGradGradGradGradGradGradGradGradGradGradGradGradGradGradGradGradGrad

 Leave Link  103 at Tue Oct  4 17:29:03 2022, MaxMem=  2952790016 cpu:               0.1 elap:               0.0
 (Enter /mnt/data/applications/G16/g16/l202.exe)
                          Input orientation:                          
 ---------------------------------------------------------------------
 Center     Atomic      Atomic             Coordinates (Angstroms)
 Number     Number       Type             X           Y           Z
 ---------------------------------------------------------------------
      1          1           0        0.133604   -0.419768   -1.782010
      2          1           0        0.916273   -1.993544   -0.627169
      3         45           0       -0.008581   -0.761640   -0.228345
      4          6           0        1.766615    0.339823   -0.126199
      5          8           0        1.806258    1.460686    0.325637
      6          6           0        3.042596   -0.315069   -0.629768
      7          6           0        4.281040    0.560353   -0.560775
      8          1           0        2.838840   -0.652012   -1.649387
      9          1           0        3.166943   -1.234023   -0.048472
     10          1           0        5.149158    0.017288   -0.939583
     11          1           0        4.159662    1.465355   -1.157878
     12          1           0        4.493206    0.868818    0.463723
     13          6           0        0.202101   -1.172288    1.666008
     14          8           0        0.389775   -1.412551    2.756713
     15         15           0       -1.277295    1.263098   -0.000584
     16          6           0       -3.067156    1.065275   -0.260563
     17          6           0       -0.840621    2.581745   -1.165680
     18          6           0       -1.182442    2.061606    1.626555
     19          1           0       -1.585267    1.387993    2.384857
     20          1           0       -1.747620    2.995682    1.643413
     21          1           0       -0.136306    2.263983    1.854430
     22          1           0       -3.465626    0.345113    0.455961
     23          1           0       -3.249488    0.685970   -1.267346
     24          1           0       -3.592184    2.014834   -0.139130
     25          1           0       -0.992279    2.224109   -2.184536
     26          1           0        0.209954    2.836871   -1.036381
     27          1           0       -1.454830    3.468719   -0.997682
     28          6           0       -1.535034   -1.896288   -0.699403
     29          8           0       -2.358667   -2.585512   -1.056046
 ---------------------------------------------------------------------
                    Distance matrix (angstroms):
                    1          2          3          4          5
     1  H    0.000000
     2  H    2.103093   0.000000
     3  Rh   1.597175   1.591227   0.000000
     4  C    2.446510   2.533506   2.091644   0.000000
     5  O    3.282690   3.692102   2.922203   1.209157   0.000000
     6  C    3.130632   2.708973   3.109702   1.520063   2.365298
     7  C    4.433202   4.224743   4.501003   2.561215   2.778646
     8  H    2.718424   2.557519   3.184209   2.110333   3.070902
     9  H    3.587382   2.444847   3.215502   2.108068   3.041854
    10  H    5.104555   4.696633   5.264490   3.493883   3.854758
    11  H    4.489139   4.771290   4.816408   2.838637   2.781969
    12  H    5.070493   4.709311   4.837710   2.839391   2.754826
    13  C    3.529845   2.538339   1.949767   2.818899   3.361914
    14  O    4.653090   3.473530   3.081062   3.643856   4.021448
    15  P    2.827747   3.976187   2.400224   3.183332   3.107050
    16  C    3.842528   5.035720   3.562799   4.889752   4.924444
    17  C    3.215285   4.930511   3.570590   3.592272   3.238328
    18  C    4.416731   5.091966   3.576216   3.838440   3.314486
    19  H    4.856470   5.173470   3.733053   4.317311   3.968389
    20  H    5.190166   6.094608   4.543699   4.747100   4.089351
    21  H    4.527590   5.039126   3.675413   3.353564   2.599240
    22  H    4.306740   5.083653   3.693824   5.264531   5.390199
    23  H    3.596227   4.994315   3.698456   5.155902   5.357084
    24  H    4.744243   6.052393   4.534201   5.614495   5.446675
    25  H    2.901676   4.884318   3.702572   3.924128   3.836091
    26  H    3.341779   4.898903   3.694585   3.080077   2.509415
    27  H    4.273011   5.966215   4.536458   4.574624   4.051921
    28  C    2.477196   2.454299   1.959434   4.028603   4.846051
    29  O    3.380663   3.355532   3.087799   5.141999   5.968866
                    6          7          8          9         10
     6  C    0.000000
     7  C    1.518179   0.000000
     8  H    1.093010   2.175970   0.000000
     9  H    1.094460   2.173350   1.734738   0.000000
    10  H    2.155006   1.091808   2.507858   2.507795   0.000000
    11  H    2.167175   1.091006   2.543501   3.082680   1.767386
    12  H    2.168313   1.090762   3.084653   2.538357   1.767666
    13  C    3.751510   4.959672   4.267895   3.425426   5.716430
    14  O    4.439615   5.480878   5.098044   3.951404   6.193446
    15  P    4.641976   5.630520   4.829986   5.097956   6.613098
    16  C    6.274610   7.371639   6.305450   6.647988   8.310665
    17  C    4.874229   5.539255   4.922356   5.645247   6.519587
    18  C    5.347011   6.073533   5.853736   5.708243   7.131161
    19  H    5.779749   6.616290   6.325304   5.948072   7.634344
    20  H    6.250967   6.865422   6.721891   6.701180   7.944070
    21  H    4.788337   5.314933   5.443460   5.173832   6.386727
    22  H    6.631109   7.816068   6.721089   6.836600   8.733242
    23  H    6.403039   7.564646   6.245309   6.807541   8.431596
    24  H    7.049076   8.017540   7.123975   7.499939   9.002332
    25  H    5.014474   5.763035   4.820366   5.815546   6.643585
    26  H    4.257220   4.688547   4.411250   5.127565   5.688159
    27  H    5.888909   6.445905   5.986714   6.661649   7.451739
    28  C    4.843532   6.315142   4.645586   4.792796   6.956859
    29  O    5.874544   7.363930   5.577146   5.777032   7.947048
                   11         12         13         14         15
    11  H    0.000000
    12  H    1.759744   0.000000
    13  C    5.531165   4.901549   0.000000
    14  O    6.149668   5.224997   1.132513   0.000000
    15  P    5.562440   5.802561   3.301098   4.188187   0.000000
    16  C    7.293294   7.597517   4.405270   5.214782   1.819430
    17  C    5.123399   5.834277   4.816481   5.731792   1.812998
    18  C    6.053648   5.915057   3.518037   3.977297   1.814991
    19  H    6.749901   6.395947   3.204133   3.447044   2.408480
    20  H    6.714545   6.697994   4.601510   5.023984   2.434292
    21  H    5.307273   5.031196   3.458031   3.822012   2.396811
    22  H    7.874290   7.976048   4.149571   4.821510   2.416593
    23  H    7.450834   7.935953   4.896035   5.817308   2.413982
    24  H    7.837786   8.188426   5.273791   5.999073   2.437830
    25  H    5.307752   6.240243   5.271503   6.288983   2.403003
    26  H    4.182823   4.946695   4.834907   5.698902   2.400322
    27  H    5.963359   6.653895   5.601751   6.428440   2.427033
    28  C    6.628756   6.733376   3.022744   3.985427   3.245997
    29  O    7.675188   7.822420   3.995537   4.844265   4.134630
                   16         17         18         19         20
    16  C    0.000000
    17  C    2.841897   0.000000
    18  C    2.847110   2.860763   0.000000
    19  H    3.049326   3.819143   1.091350   0.000000
    20  H    3.015422   2.980771   1.091883   1.777853   0.000000
    21  H    3.807884   3.117386   1.089626   1.774317   1.782202
    22  H    1.091246   3.810891   3.087000   2.888596   3.374478
    23  H    1.091205   3.067073   3.813098   4.074439   4.007854
    24  H    1.091816   2.991035   2.987756   3.284989   2.746259
    25  H    3.057725   1.090400   3.819291   4.682956   3.977318
    26  H    3.805246   1.088814   3.103390   4.126371   3.322441
    27  H    2.986550   1.091879   2.990114   3.973412   2.699050
    28  C    3.363158   4.555481   4.604273   4.505739   5.428200
    29  O    3.803025   5.386746   5.493228   5.312881   6.229782
                   21         22         23         24         25
    21  H    0.000000
    22  H    4.089272   0.000000
    23  H    4.682682   1.769940   0.000000
    24  H    3.997430   1.777110   1.776567   0.000000
    25  H    4.128865   4.076800   2.881337   3.314663   0.000000
    26  H    2.967303   4.684638   4.080130   3.992124   1.771751
    27  H    3.365180   3.989147   3.322229   2.723816   1.780907
    28  C    5.078027   3.175835   3.151185   4.454509   4.413374
    29  O    6.076789   3.478518   3.397176   4.850307   5.125716
                   26         27         28         29
    26  H    0.000000
    27  H    1.781077   0.000000
    28  C    5.055822   5.373891   0.000000
    29  O    6.000036   6.121604   1.131634   0.000000
 Stoichiometry    C8H16O3PRh
 Framework group  C1[X(C8H16O3PRh)]
 Deg. of freedom    81
 Full point group                 C1      NOp   1
 Largest Abelian subgroup         C1      NOp   1
 Largest concise Abelian subgroup C1      NOp   1
                         Standard orientation:                         
 ---------------------------------------------------------------------
 Center     Atomic      Atomic             Coordinates (Angstroms)
 Number     Number       Type             X           Y           Z
 ---------------------------------------------------------------------
      1          1           0        0.133604   -0.419768   -1.782010
      2          1           0        0.916273   -1.993544   -0.627169
      3         45           0       -0.008581   -0.761640   -0.228345
      4          6           0        1.766615    0.339823   -0.126199
      5          8           0        1.806258    1.460686    0.325637
      6          6           0        3.042596   -0.315069   -0.629768
      7          6           0        4.281040    0.560353   -0.560775
      8          1           0        2.838840   -0.652012   -1.649387
      9          1           0        3.166943   -1.234023   -0.048472
     10          1           0        5.149158    0.017288   -0.939583
     11          1           0        4.159662    1.465355   -1.157878
     12          1           0        4.493206    0.868818    0.463723
     13          6           0        0.202101   -1.172288    1.666008
     14          8           0        0.389775   -1.412551    2.756713
     15         15           0       -1.277295    1.263098   -0.000584
     16          6           0       -3.067156    1.065275   -0.260563
     17          6           0       -0.840621    2.581745   -1.165680
     18          6           0       -1.182442    2.061606    1.626555
     19          1           0       -1.585267    1.387993    2.384857
     20          1           0       -1.747620    2.995682    1.643413
     21          1           0       -0.136306    2.263983    1.854430
     22          1           0       -3.465626    0.345113    0.455961
     23          1           0       -3.249488    0.685970   -1.267346
     24          1           0       -3.592184    2.014834   -0.139130
     25          1           0       -0.992279    2.224109   -2.184536
     26          1           0        0.209954    2.836871   -1.036381
     27          1           0       -1.454830    3.468719   -0.997682
     28          6           0       -1.535034   -1.896288   -0.699403
     29          8           0       -2.358667   -2.585512   -1.056046
 ---------------------------------------------------------------------
 Rotational constants (GHZ):           0.6187737           0.4466296           0.3600648
 Leave Link  202 at Tue Oct  4 17:29:03 2022, MaxMem=  2952790016 cpu:               0.1 elap:               0.0
 (Enter /mnt/data/applications/G16/g16/l301.exe)
 General basis read from cards:  (5D, 7F)
 Centers:       3
 SDD
 ****
 Centers:       5     14     29      4      6      7     13     16     17     18
 Centers:      28      1      2      8      9     10     11     12     19     20
 Centers:      21     22     23     24     25     26     27     15
 def2tzvp
 ****
 ======================================================================================================
                                       Pseudopotential Parameters
 ======================================================================================================
  Center     Atomic      Valence      Angular      Power
  Number     Number     Electrons     Momentum     of R      Exponent        Coefficient   SO-Coeffient
 ======================================================================================================
    1          1
                                   No pseudopotential on this center.
    2          1
                                   No pseudopotential on this center.
    3         45           17
                                      G and up 
                                                     2        1.0000000        0.00000000    0.00000000
                                      S - G
                                                     2       11.7200000      225.34775400    0.00000000
                                                     2        5.8200000       32.82318900    0.00000000
                                      P - G
                                                     2       10.4200000      158.70941200    0.00000000
                                                     2        5.4500000       26.44410000    0.00000000
                                      D - G
                                                     2        8.8200000       62.75862600    0.00000000
                                                     2        3.8700000       10.97871900    0.00000000
                                      F - G
                                                     2       12.3100000      -30.09345600    0.00000000
                                                     2        6.1600000       -5.21848200    0.00000000
    4          6
                                   No pseudopotential on this center.
    5          8
                                   No pseudopotential on this center.
    6          6
                                   No pseudopotential on this center.
    7          6
                                   No pseudopotential on this center.
    8          1
                                   No pseudopotential on this center.
    9          1
                                   No pseudopotential on this center.
   10          1
                                   No pseudopotential on this center.
   11          1
                                   No pseudopotential on this center.
   12          1
                                   No pseudopotential on this center.
   13          6
                                   No pseudopotential on this center.
   14          8
                                   No pseudopotential on this center.
   15         15
                                   No pseudopotential on this center.
   16          6
                                   No pseudopotential on this center.
   17          6
                                   No pseudopotential on this center.
   18          6
                                   No pseudopotential on this center.
   19          1
                                   No pseudopotential on this center.
   20          1
                                   No pseudopotential on this center.
   21          1
                                   No pseudopotential on this center.
   22          1
                                   No pseudopotential on this center.
   23          1
                                   No pseudopotential on this center.
   24          1
                                   No pseudopotential on this center.
   25          1
                                   No pseudopotential on this center.
   26          1
                                   No pseudopotential on this center.
   27          1
                                   No pseudopotential on this center.
   28          6
                                   No pseudopotential on this center.
   29          8
                                   No pseudopotential on this center.
 ======================================================================================================
 Ernie: Thresh=  0.10000D-02 Tol=  0.10000D-05 Strict=F.
 There are   573 symmetry adapted cartesian basis functions of A   symmetry.
 There are   510 symmetry adapted basis functions of A   symmetry.
   510 basis functions,   823 primitive gaussians,   573 cartesian basis functions
    60 alpha electrons       60 beta electrons
       nuclear repulsion energy      1115.8679595067 Hartrees.
 IExCor= 4639 DFT=T Ex+Corr=wB97XD ExCW=0 ScaHFX=  1.000000
 ScaDFX=  1.000000  1.000000  1.000000  1.000000 ScalE2=  1.000000  1.000000
 IRadAn=      5 IRanWt=     -1 IRanGd=            0 ICorTp=0 IEmpDi=121
 HFx  wShort=  0.000000 wLong=  0.200000 cFull=  0.222036 cShort=  0.000000 cLong=  0.777964
 DFx  wShort=  0.000000 wLong=  0.200000 cFull=  0.000000 cShort=  0.000000 cLong=  1.000000
 NAtoms=   29 NActive=   29 NUniq=   29 SFac= 1.00D+00 NAtFMM=   60 NAOKFM=F Big=F
 Integral buffers will be    131072 words long.
 Raffenetti 2 integral format.
 Two-electron integral symmetry is turned on.
 R6Disp:  Grimme-D2 Dispersion energy=       -0.0243071443 Hartrees.
 Nuclear repulsion after empirical dispersion term =     1115.8436523624 Hartrees.
 ------------------------------------------------------------------------------
 Polarizable Continuum Model (PCM)
 =================================
 Model                : PCM.
 Atomic radii         : SMD-Coulomb.
 Polarization charges : Total charges.
 Charge compensation  : None.
 Solution method      : On-the-fly selection.
 Cavity type          : VdW (van der Waals Surface) (Alpha=1.000).
 Cavity algorithm     : GePol (No added spheres)
                        Default sphere list used, NSphG=   29.
                        Lebedev-Laikov grids with approx.  5.0 points / Ang**2.
                        Smoothing algorithm: York/Karplus (Gamma=1.0000).
                        Polarization charges: spherical gaussians, with
                                              point-specific exponents (IZeta= 3).
                        Self-potential: point-specific (ISelfS= 7).
                        Self-field    : sphere-specific E.n sum rule (ISelfD= 2).
 1st derivatives      : Analytical E(r).r(x)/FMM algorithm (CHGder, D1EAlg=3).
                        Cavity 1st derivative terms included.
 Solvent              : Toluene, Eps=   2.374100 Eps(inf)=   2.238315
 ------------------------------------------------------------------------------
 GePol: Number of generator spheres                  =      29
 GePol: Total number of spheres                      =      29
 GePol: Number of exposed spheres                    =      29 (100.00%)
 GePol: Number of points                             =    2550
 GePol: Average weight of points                     =       0.12
 GePol: Minimum weight of points                     =   0.17D-09
 GePol: Maximum weight of points                     =    0.20615
 GePol: Number of points with low weight             =     141
 GePol: Fraction of low-weight points (<1% of avg)   =       5.53%
 GePol: Cavity surface area                          =    306.497 Ang**2
 GePol: Cavity volume                                =    292.662 Ang**3
 ------------------------------------------------------------------------------
 Atomic radii for non-electrostatic terms: SMD-CDS.
 ------------------------------------------------------------------------------
 PCM non-electrostatic energy =        -0.0005908349 Hartrees.
 Nuclear repulsion after PCM non-electrostatic terms =     1115.8430615275 Hartrees.
 Leave Link  301 at Tue Oct  4 17:29:04 2022, MaxMem=  2952790016 cpu:               1.8 elap:               0.2
 (Enter /mnt/data/applications/G16/g16/l302.exe)
 NPDir=0 NMtPBC=     1 NCelOv=     1 NCel=       1 NClECP=     1 NCelD=      1
         NCelK=      1 NCelE2=     1 NClLst=     1 CellRange=     0.0.
 One-electron integrals computed using PRISM.
 One-electron integral symmetry used in STVInt
   1 Symmetry operations used in ECPInt.
 ECPInt:  NShTT=   22578 NPrTT=   66767 LenC2=   20933 LenP2D=   46146.
 LDataN:  DoStor=T MaxTD1= 7 Len=  274
 NBasis=   510 RedAO= T EigKep=  1.36D-04  NBF=   510
 NBsUse=   510 1.00D-06 EigRej= -1.00D+00 NBFU=   510
 Precomputing XC quadrature grid using
 IXCGrd= 4 IRadAn=           5 IRanWt=          -1 IRanGd=           0 AccXCQ= 0.00D+00.
 Defaulting to unpruned grid for atomic number  45.
 Generated NRdTot=       0 NPtTot=           0 NUsed=           0 NTot=          32
 NSgBfM=   570   570   570   570   570 MxSgAt=    29 MxSgA2=    29.
 Leave Link  302 at Tue Oct  4 17:29:05 2022, MaxMem=  2952790016 cpu:              19.8 elap:               1.7
 (Enter /mnt/data/applications/G16/g16/l303.exe)
 DipDrv:  MaxL=1.
 Leave Link  303 at Tue Oct  4 17:29:05 2022, MaxMem=  2952790016 cpu:               1.2 elap:               0.1
 (Enter /mnt/data/applications/G16/g16/l401.exe)
 ExpMin= 1.60D-02 ExpMax= 5.24D+04 ExpMxC= 1.79D+03 IAcc=3 IRadAn=         5 AccDes= 0.00D+00
 Harris functional with IExCor= 4639 and IRadAn=       5 diagonalized for initial guess.
 HarFok:  IExCor= 4639 AccDes= 0.00D+00 IRadAn=         5 IDoV= 1 UseB2=F ITyADJ=14
 ICtDFT=  3500011 ScaDFX=  1.000000  1.000000  1.000000  1.000000
 Defaulting to unpruned grid for atomic number  45.
 FoFCou: FMM=F IPFlag=           0 FMFlag=      100000 FMFlg1=           0
         NFxFlg=           0 DoJE=T BraDBF=F KetDBF=T FulRan=T
         wScrn=  0.000000 ICntrl=       500 IOpCl=  0 I1Cent=   200000004 NGrid=           0
         NMat0=    1 NMatS0=      1 NMatT0=    0 NMatD0=    1 NMtDS0=    0 NMtDT0=    0
 Petite list used in FoFCou.
 Harris En= -959.597128185732    
 JPrj=0 DoOrth=F DoCkMO=F.
 Leave Link  401 at Tue Oct  4 17:29:14 2022, MaxMem=  2952790016 cpu:             104.8 elap:               8.8
 (Enter /mnt/data/applications/G16/g16/l502.exe)
 Integral symmetry usage will be decided dynamically.
 Closed shell SCF:
 Using DIIS extrapolation, IDIIS=  1040.
 NGot=  2952790016 LenX=  2952121135 LenY=  2951792233
 Requested convergence on RMS density matrix=1.00D-08 within 128 cycles.
 Requested convergence on MAX density matrix=1.00D-06.
 Requested convergence on             energy=1.00D-06.
 No special actions if energy rises.
 Fock matrices will be formed incrementally for  20 cycles.

 Cycle   1  Pass 1  IDiag  1:
 FoFJK:  IHMeth= 1 ICntrl=       0 DoSepK=T KAlg= 0 I1Cent=           0 FoldK=F
 IRaf=         1 NMat=       1 IRICut=       1 DoRegI=T DoRafI=F ISym2E= 0 IDoP0=0 IntGTp=1.
 FoFCou: FMM=F IPFlag=           0 FMFlag=      100000 FMFlg1=           0
         NFxFlg=           0 DoJE=T BraDBF=F KetDBF=F FulRan=T
         wScrn=  0.000000 ICntrl=       500 IOpCl=  0 I1Cent=           0 NGrid=           0
         NMat0=    1 NMatS0=      1 NMatT0=    0 NMatD0=    1 NMtDS0=    0 NMtDT0=    0
 Symmetry not used in FoFCou.
 Defaulting to unpruned grid for atomic number  45.
 Defaulting to unpruned grid for atomic number  45.
 Defaulting to unpruned grid for atomic number  45.
 Defaulting to unpruned grid for atomic number  45.
 Defaulting to unpruned grid for atomic number  45.
 Defaulting to unpruned grid for atomic number  45.
 Defaulting to unpruned grid for atomic number  45.
 Defaulting to unpruned grid for atomic number  45.
 Defaulting to unpruned grid for atomic number  45.
 Defaulting to unpruned grid for atomic number  45.
 Defaulting to unpruned grid for atomic number  45.
 Defaulting to unpruned grid for atomic number  45.
 Inv3:  Mode=1 IEnd=    19507500.
 Iteration    1 A*A^-1 deviation from unit magnitude is 3.33D-15 for    347.
 Iteration    1 A*A^-1 deviation from orthogonality  is 2.28D-15 for   1526    245.
 Iteration    1 A^-1*A deviation from unit magnitude is 3.11D-15 for    347.
 Iteration    1 A^-1*A deviation from orthogonality  is 1.37D-15 for   2064   1020.
 E= -990.399819476276    
 DIIS: error= 7.46D-02 at cycle   1 NSaved=   1.
 NSaved= 1 IEnMin= 1 EnMin= -990.399819476276     IErMin= 1 ErrMin= 7.46D-02
 ErrMax= 7.46D-02  0.00D+00 EMaxC= 1.00D-01 BMatC= 3.62D+00 BMatP= 3.62D+00
 IDIUse=3 WtCom= 2.54D-01 WtEn= 7.46D-01
 Coeff-Com:  0.100D+01
 Coeff-En:   0.100D+01
 Coeff:      0.100D+01
 Gap=     0.822 Goal=   None    Shift=    0.000
 GapD=    0.822 DampG=2.000 DampE=0.250 DampFc=0.5000 IDamp=-1.
 Damping current iteration by 5.00D-01
 RMSDP=7.78D-03 MaxDP=8.47D-01              OVMax= 6.16D-01

 Cycle   2  Pass 1  IDiag  1:
 RMSU=  3.89D-03    CP:  1.00D+00
 E= -991.014125318089     Delta-E=       -0.614305841813 Rises=F Damp=T
 DIIS: error= 2.87D-02 at cycle   2 NSaved=   2.
 NSaved= 2 IEnMin= 2 EnMin= -991.014125318089     IErMin= 2 ErrMin= 2.87D-02
 ErrMax= 2.87D-02  0.00D+00 EMaxC= 1.00D-01 BMatC= 5.80D-01 BMatP= 3.62D+00
 IDIUse=3 WtCom= 7.13D-01 WtEn= 2.87D-01
 Coeff-Com:  0.128D+00 0.872D+00
 Coeff-En:   0.340D+00 0.660D+00
 Coeff:      0.189D+00 0.811D+00
 Gap=     0.463 Goal=   None    Shift=    0.000
 RMSDP=3.15D-03 MaxDP=3.23D-01 DE=-6.14D-01 OVMax= 5.70D-01

 Cycle   3  Pass 1  IDiag  1:
 RMSU=  1.76D-03    CP:  9.76D-01  3.30D-01
 E= -992.096150820610     Delta-E=       -1.082025502521 Rises=F Damp=F
 DIIS: error= 1.45D-02 at cycle   3 NSaved=   3.
 NSaved= 3 IEnMin= 3 EnMin= -992.096150820610     IErMin= 3 ErrMin= 1.45D-02
 ErrMax= 1.45D-02  0.00D+00 EMaxC= 1.00D-01 BMatC= 1.83D-01 BMatP= 5.80D-01
 IDIUse=3 WtCom= 8.55D-01 WtEn= 1.45D-01
 Coeff-Com: -0.350D-01 0.334D+00 0.701D+00
 Coeff-En:   0.000D+00 0.000D+00 0.100D+01
 Coeff:     -0.299D-01 0.286D+00 0.744D+00
 Gap=     0.341 Goal=   None    Shift=    0.000
 RMSDP=8.15D-04 MaxDP=9.27D-02 DE=-1.08D+00 OVMax= 1.33D-01

 Cycle   4  Pass 1  IDiag  1:
 RMSU=  7.67D-04    CP:  9.79D-01  4.00D-01  9.81D-01
 E= -992.145650048647     Delta-E=       -0.049499228038 Rises=F Damp=F
 DIIS: error= 9.92D-03 at cycle   4 NSaved=   4.
 NSaved= 4 IEnMin= 4 EnMin= -992.145650048647     IErMin= 4 ErrMin= 9.92D-03
 ErrMax= 9.92D-03  0.00D+00 EMaxC= 1.00D-01 BMatC= 1.16D-01 BMatP= 1.83D-01
 IDIUse=3 WtCom= 9.01D-01 WtEn= 9.92D-02
 Coeff-Com: -0.100D-01 0.623D-01 0.459D+00 0.489D+00
 Coeff-En:   0.000D+00 0.000D+00 0.403D+00 0.597D+00
 Coeff:     -0.905D-02 0.561D-01 0.453D+00 0.500D+00
 Gap=     0.328 Goal=   None    Shift=    0.000
 RMSDP=3.84D-04 MaxDP=3.11D-02 DE=-4.95D-02 OVMax= 5.38D-02

 Cycle   5  Pass 1  IDiag  1:
 RMSU=  2.11D-04    CP:  9.74D-01  3.68D-01  1.05D+00  6.59D-01
 E= -992.222193886950     Delta-E=       -0.076543838302 Rises=F Damp=F
 DIIS: error= 1.56D-03 at cycle   5 NSaved=   5.
 NSaved= 5 IEnMin= 5 EnMin= -992.222193886950     IErMin= 5 ErrMin= 1.56D-03
 ErrMax= 1.56D-03  0.00D+00 EMaxC= 1.00D-01 BMatC= 3.21D-03 BMatP= 1.16D-01
 IDIUse=3 WtCom= 9.84D-01 WtEn= 1.56D-02
 Coeff-Com:  0.856D-02-0.225D-01 0.102D+00 0.197D+00 0.715D+00
 Coeff-En:   0.000D+00 0.000D+00 0.000D+00 0.000D+00 0.100D+01
 Coeff:      0.842D-02-0.222D-01 0.100D+00 0.194D+00 0.719D+00
 Gap=     0.328 Goal=   None    Shift=    0.000
 RMSDP=1.01D-04 MaxDP=7.03D-03 DE=-7.65D-02 OVMax= 1.20D-02

 Cycle   6  Pass 1  IDiag  1:
 RMSU=  8.33D-05    CP:  9.73D-01  3.58D-01  1.07D+00  6.93D-01  1.10D+00
 E= -992.224593463763     Delta-E=       -0.002399576813 Rises=F Damp=F
 DIIS: error= 3.91D-04 at cycle   6 NSaved=   6.
 NSaved= 6 IEnMin= 6 EnMin= -992.224593463763     IErMin= 6 ErrMin= 3.91D-04
 ErrMax= 3.91D-04  0.00D+00 EMaxC= 1.00D-01 BMatC= 2.67D-04 BMatP= 3.21D-03
 IDIUse=3 WtCom= 9.96D-01 WtEn= 3.91D-03
 Coeff-Com:  0.594D-02-0.159D-01-0.119D-01 0.512D-02 0.218D+00 0.799D+00
 Coeff-En:   0.000D+00 0.000D+00 0.000D+00 0.000D+00 0.000D+00 0.100D+01
 Coeff:      0.592D-02-0.159D-01-0.118D-01 0.510D-02 0.217D+00 0.799D+00
 Gap=     0.325 Goal=   None    Shift=    0.000
 RMSDP=4.42D-05 MaxDP=3.27D-03 DE=-2.40D-03 OVMax= 4.03D-03

 Cycle   7  Pass 1  IDiag  1:
 RMSU=  3.21D-05    CP:  9.73D-01  3.54D-01  1.07D+00  7.08D-01  1.21D+00
                    CP:  1.05D+00
 E= -992.224863903829     Delta-E=       -0.000270440066 Rises=F Damp=F
 DIIS: error= 2.17D-04 at cycle   7 NSaved=   7.
 NSaved= 7 IEnMin= 7 EnMin= -992.224863903829     IErMin= 7 ErrMin= 2.17D-04
 ErrMax= 2.17D-04  0.00D+00 EMaxC= 1.00D-01 BMatC= 6.04D-05 BMatP= 2.67D-04
 IDIUse=3 WtCom= 9.98D-01 WtEn= 2.17D-03
 Coeff-Com:  0.160D-02-0.369D-02-0.167D-01-0.270D-01-0.721D-02 0.383D+00
 Coeff-Com:  0.670D+00
 Coeff-En:   0.000D+00 0.000D+00 0.000D+00 0.000D+00 0.000D+00 0.000D+00
 Coeff-En:   0.100D+01
 Coeff:      0.160D-02-0.368D-02-0.166D-01-0.269D-01-0.719D-02 0.382D+00
 Coeff:      0.671D+00
 Gap=     0.326 Goal=   None    Shift=    0.000
 RMSDP=2.03D-05 MaxDP=1.21D-03 DE=-2.70D-04 OVMax= 3.23D-03

 Cycle   8  Pass 1  IDiag  1:
 RMSU=  1.26D-05    CP:  9.73D-01  3.54D-01  1.07D+00  7.08D-01  1.26D+00
                    CP:  1.17D+00  9.78D-01
 E= -992.224924826746     Delta-E=       -0.000060922916 Rises=F Damp=F
 DIIS: error= 8.09D-05 at cycle   8 NSaved=   8.
 NSaved= 8 IEnMin= 8 EnMin= -992.224924826746     IErMin= 8 ErrMin= 8.09D-05
 ErrMax= 8.09D-05  0.00D+00 EMaxC= 1.00D-01 BMatC= 8.16D-06 BMatP= 6.04D-05
 IDIUse=1 WtCom= 1.00D+00 WtEn= 0.00D+00
 Coeff-Com: -0.263D-03 0.882D-03-0.470D-02-0.129D-01-0.377D-01 0.280D-01
 Coeff-Com:  0.300D+00 0.726D+00
 Coeff:     -0.263D-03 0.882D-03-0.470D-02-0.129D-01-0.377D-01 0.280D-01
 Coeff:      0.300D+00 0.726D+00
 Gap=     0.326 Goal=   None    Shift=    0.000
 RMSDP=9.00D-06 MaxDP=7.78D-04 DE=-6.09D-05 OVMax= 1.56D-03

 Cycle   9  Pass 1  IDiag  1:
 RMSU=  5.52D-06    CP:  9.73D-01  3.54D-01  1.07D+00  7.09D-01  1.28D+00
                    CP:  1.22D+00  1.09D+00  1.24D+00
 E= -992.224935838932     Delta-E=       -0.000011012186 Rises=F Damp=F
 DIIS: error= 2.65D-05 at cycle   9 NSaved=   9.
 NSaved= 9 IEnMin= 9 EnMin= -992.224935838932     IErMin= 9 ErrMin= 2.65D-05
 ErrMax= 2.65D-05  0.00D+00 EMaxC= 1.00D-01 BMatC= 9.59D-07 BMatP= 8.16D-06
 IDIUse=1 WtCom= 1.00D+00 WtEn= 0.00D+00
 Coeff-Com: -0.488D-03 0.108D-02 0.124D-02 0.522D-03-0.862D-02-0.674D-01
 Coeff-Com: -0.191D-01 0.235D+00 0.858D+00
 Coeff:     -0.488D-03 0.108D-02 0.124D-02 0.522D-03-0.862D-02-0.674D-01
 Coeff:     -0.191D-01 0.235D+00 0.858D+00
 Gap=     0.326 Goal=   None    Shift=    0.000
 RMSDP=4.86D-06 MaxDP=2.57D-04 DE=-1.10D-05 OVMax= 5.87D-04

 Cycle  10  Pass 1  IDiag  1:
 RMSU=  2.15D-06    CP:  9.73D-01  3.54D-01  1.07D+00  7.09D-01  1.28D+00
                    CP:  1.23D+00  1.19D+00  1.43D+00  1.13D+00
 E= -992.224937624604     Delta-E=       -0.000001785672 Rises=F Damp=F
 DIIS: error= 1.54D-05 at cycle  10 NSaved=  10.
 NSaved=10 IEnMin=10 EnMin= -992.224937624604     IErMin=10 ErrMin= 1.54D-05
 ErrMax= 1.54D-05  0.00D+00 EMaxC= 1.00D-01 BMatC= 1.41D-07 BMatP= 9.59D-07
 IDIUse=1 WtCom= 1.00D+00 WtEn= 0.00D+00
 Coeff-Com: -0.187D-03 0.378D-03 0.341D-03 0.818D-03 0.593D-03-0.212D-01
 Coeff-Com: -0.251D-01 0.168D-01 0.214D+00 0.814D+00
 Coeff:     -0.187D-03 0.378D-03 0.341D-03 0.818D-03 0.593D-03-0.212D-01
 Coeff:     -0.251D-01 0.168D-01 0.214D+00 0.814D+00
 Gap=     0.326 Goal=   None    Shift=    0.000
 RMSDP=1.35D-06 MaxDP=8.87D-05 DE=-1.79D-06 OVMax= 2.39D-04

 Cycle  11  Pass 1  IDiag  1:
 RMSU=  7.39D-07    CP:  9.73D-01  3.54D-01  1.07D+00  7.10D-01  1.28D+00
                    CP:  1.23D+00  1.20D+00  1.49D+00  1.26D+00  1.02D+00
 E= -992.224937817074     Delta-E=       -0.000000192470 Rises=F Damp=F
 DIIS: error= 5.18D-06 at cycle  11 NSaved=  11.
 NSaved=11 IEnMin=11 EnMin= -992.224937817074     IErMin=11 ErrMin= 5.18D-06
 ErrMax= 5.18D-06  0.00D+00 EMaxC= 1.00D-01 BMatC= 2.17D-08 BMatP= 1.41D-07
 IDIUse=1 WtCom= 1.00D+00 WtEn= 0.00D+00
 Coeff-Com:  0.341D-05-0.282D-04-0.249D-03 0.293D-04 0.141D-02 0.556D-02
 Coeff-Com: -0.320D-02-0.295D-01-0.103D+00 0.211D+00 0.918D+00
 Coeff:      0.341D-05-0.282D-04-0.249D-03 0.293D-04 0.141D-02 0.556D-02
 Coeff:     -0.320D-02-0.295D-01-0.103D+00 0.211D+00 0.918D+00
 Gap=     0.326 Goal=   None    Shift=    0.000
 RMSDP=7.36D-07 MaxDP=4.09D-05 DE=-1.92D-07 OVMax= 1.06D-04

 Cycle  12  Pass 1  IDiag  1:
 RMSU=  2.70D-07    CP:  9.73D-01  3.54D-01  1.07D+00  7.10D-01  1.28D+00
                    CP:  1.23D+00  1.21D+00  1.51D+00  1.32D+00  1.21D+00
                    CP:  1.18D+00
 E= -992.224937852063     Delta-E=       -0.000000034989 Rises=F Damp=F
 DIIS: error= 9.55D-07 at cycle  12 NSaved=  12.
 NSaved=12 IEnMin=12 EnMin= -992.224937852063     IErMin=12 ErrMin= 9.55D-07
 ErrMax= 9.55D-07  0.00D+00 EMaxC= 1.00D-01 BMatC= 1.07D-09 BMatP= 2.17D-08
 IDIUse=1 WtCom= 1.00D+00 WtEn= 0.00D+00
 Coeff-Com:  0.148D-04-0.375D-04-0.977D-04-0.684D-04 0.314D-03 0.335D-02
 Coeff-Com:  0.124D-02-0.859D-02-0.491D-01-0.381D-02 0.266D+00 0.791D+00
 Coeff:      0.148D-04-0.375D-04-0.977D-04-0.684D-04 0.314D-03 0.335D-02
 Coeff:      0.124D-02-0.859D-02-0.491D-01-0.381D-02 0.266D+00 0.791D+00
 Gap=     0.326 Goal=   None    Shift=    0.000
 RMSDP=1.59D-07 MaxDP=8.07D-06 DE=-3.50D-08 OVMax= 3.75D-05

 Cycle  13  Pass 1  IDiag  1:
 RMSU=  7.07D-08    CP:  9.73D-01  3.54D-01  1.07D+00  7.10D-01  1.28D+00
                    CP:  1.23D+00  1.21D+00  1.51D+00  1.33D+00  1.24D+00
                    CP:  1.30D+00  1.15D+00
 E= -992.224937854559     Delta-E=       -0.000000002497 Rises=F Damp=F
 DIIS: error= 5.79D-07 at cycle  13 NSaved=  13.
 NSaved=13 IEnMin=13 EnMin= -992.224937854559     IErMin=13 ErrMin= 5.79D-07
 ErrMax= 5.79D-07  0.00D+00 EMaxC= 1.00D-01 BMatC= 3.59D-10 BMatP= 1.07D-09
 IDIUse=1 WtCom= 1.00D+00 WtEn= 0.00D+00
 Coeff-Com:  0.684D-05-0.129D-04 0.257D-05-0.362D-04-0.970D-04 0.553D-03
 Coeff-Com:  0.104D-02 0.109D-02-0.517D-02-0.351D-01-0.322D-01 0.334D+00
 Coeff-Com:  0.736D+00
 Coeff:      0.684D-05-0.129D-04 0.257D-05-0.362D-04-0.970D-04 0.553D-03
 Coeff:      0.104D-02 0.109D-02-0.517D-02-0.351D-01-0.322D-01 0.334D+00
 Coeff:      0.736D+00
 Gap=     0.326 Goal=   None    Shift=    0.000
 RMSDP=7.25D-08 MaxDP=3.23D-06 DE=-2.50D-09 OVMax= 1.86D-05

 Cycle  14  Pass 1  IDiag  1:
 RMSU=  3.37D-08    CP:  9.73D-01  3.54D-01  1.07D+00  7.10D-01  1.28D+00
                    CP:  1.23D+00  1.21D+00  1.51D+00  1.33D+00  1.25D+00
                    CP:  1.35D+00  1.27D+00  1.32D+00
 E= -992.224937855279     Delta-E=       -0.000000000719 Rises=F Damp=F
 DIIS: error= 3.35D-07 at cycle  14 NSaved=  14.
 NSaved=14 IEnMin=14 EnMin= -992.224937855279     IErMin=14 ErrMin= 3.35D-07
 ErrMax= 3.35D-07  0.00D+00 EMaxC= 1.00D-01 BMatC= 9.54D-11 BMatP= 3.59D-10
 IDIUse=1 WtCom= 1.00D+00 WtEn= 0.00D+00
 Coeff-Com: -0.114D-06 0.320D-05 0.298D-04 0.195D-06-0.140D-03-0.654D-03
 Coeff-Com:  0.262D-03 0.307D-02 0.110D-01-0.171D-01-0.928D-01-0.484D-01
 Coeff-Com:  0.392D+00 0.753D+00
 Coeff:     -0.114D-06 0.320D-05 0.298D-04 0.195D-06-0.140D-03-0.654D-03
 Coeff:      0.262D-03 0.307D-02 0.110D-01-0.171D-01-0.928D-01-0.484D-01
 Coeff:      0.392D+00 0.753D+00
 Gap=     0.326 Goal=   None    Shift=    0.000
 RMSDP=4.27D-08 MaxDP=2.57D-06 DE=-7.19D-10 OVMax= 1.19D-05

 Cycle  15  Pass 1  IDiag  1:
 RMSU=  1.54D-08    CP:  9.73D-01  3.54D-01  1.07D+00  7.10D-01  1.28D+00
                    CP:  1.23D+00  1.21D+00  1.51D+00  1.34D+00  1.26D+00
                    CP:  1.38D+00  1.35D+00  1.62D+00  1.26D+00
 E= -992.224937855437     Delta-E=       -0.000000000158 Rises=F Damp=F
 DIIS: error= 6.97D-08 at cycle  15 NSaved=  15.
 NSaved=15 IEnMin=15 EnMin= -992.224937855437     IErMin=15 ErrMin= 6.97D-08
 ErrMax= 6.97D-08  0.00D+00 EMaxC= 1.00D-01 BMatC= 7.61D-12 BMatP= 9.54D-11
 IDIUse=1 WtCom= 1.00D+00 WtEn= 0.00D+00
 Coeff-Com: -0.829D-06 0.155D-05 0.414D-06 0.578D-05 0.639D-05-0.750D-04
 Coeff-Com: -0.472D-04 0.195D-05 0.131D-02 0.223D-02-0.411D-02-0.460D-01
 Coeff-Com: -0.601D-01 0.696D-01 0.104D+01
 Coeff:     -0.829D-06 0.155D-05 0.414D-06 0.578D-05 0.639D-05-0.750D-04
 Coeff:     -0.472D-04 0.195D-05 0.131D-02 0.223D-02-0.411D-02-0.460D-01
 Coeff:     -0.601D-01 0.696D-01 0.104D+01
 Gap=     0.326 Goal=   None    Shift=    0.000
 RMSDP=1.72D-08 MaxDP=7.87D-07 DE=-1.58D-10 OVMax= 5.59D-06

 Cycle  16  Pass 1  IDiag  1:
 RMSU=  6.38D-09    CP:  9.73D-01  3.54D-01  1.07D+00  7.10D-01  1.28D+00
                    CP:  1.23D+00  1.21D+00  1.51D+00  1.34D+00  1.26D+00
                    CP:  1.38D+00  1.38D+00  1.75D+00  1.50D+00  1.46D+00
 E= -992.224937855483     Delta-E=       -0.000000000045 Rises=F Damp=F
 DIIS: error= 3.33D-08 at cycle  16 NSaved=  16.
 NSaved=16 IEnMin=16 EnMin= -992.224937855483     IErMin=16 ErrMin= 3.33D-08
 ErrMax= 3.33D-08  0.00D+00 EMaxC= 1.00D-01 BMatC= 9.57D-13 BMatP= 7.61D-12
 IDIUse=1 WtCom= 1.00D+00 WtEn= 0.00D+00
 Coeff-Com: -0.226D-06 0.517D-07-0.468D-05 0.386D-06 0.187D-04 0.795D-04
 Coeff-Com: -0.379D-04-0.423D-03-0.133D-02 0.262D-02 0.131D-01-0.173D-02
 Coeff-Com: -0.666D-01-0.965D-01 0.176D+00 0.975D+00
 Coeff:     -0.226D-06 0.517D-07-0.468D-05 0.386D-06 0.187D-04 0.795D-04
 Coeff:     -0.379D-04-0.423D-03-0.133D-02 0.262D-02 0.131D-01-0.173D-02
 Coeff:     -0.666D-01-0.965D-01 0.176D+00 0.975D+00
 Gap=     0.326 Goal=   None    Shift=    0.000
 RMSDP=7.10D-09 MaxDP=3.52D-07 DE=-4.55D-11 OVMax= 2.36D-06

 Error on total polarization charges =  0.02904
 SCF Done:  E(RwB97XD) =  -992.224937855     A.U. after   16 cycles
            NFock= 16  Conv=0.71D-08     -V/T= 2.0800
 KE= 9.187376991374D+02 PE=-4.538452391986D+03 EE= 1.511646693466D+03
 SMD-CDS (non-electrostatic) energy       (kcal/mol) =      -0.37
 (included in total energy above)
 Leave Link  502 at Tue Oct  4 17:47:13 2022, MaxMem=  2952790016 cpu:           12874.7 elap:            1079.2
 (Enter /mnt/data/applications/G16/g16/l601.exe)
 Copying SCF densities to generalized density rwf, IOpCl= 0 IROHF=0.

 **********************************************************************

            Population analysis using the SCF density.

 **********************************************************************

 Orbital symmetries:
       Occupied  (A) (A) (A) (A) (A) (A) (A) (A) (A) (A) (A) (A)
                 (A) (A) (A) (A) (A) (A) (A) (A) (A) (A) (A) (A)
                 (A) (A) (A) (A) (A) (A) (A) (A) (A) (A) (A) (A)
                 (A) (A) (A) (A) (A) (A) (A) (A) (A) (A) (A) (A)
                 (A) (A) (A) (A) (A) (A) (A) (A) (A) (A) (A) (A)
       Virtual   (A) (A) (A) (A) (A) (A) (A) (A) (A) (A) (A) (A)
                 (A) (A) (A) (A) (A) (A) (A) (A) (A) (A) (A) (A)
                 (A) (A) (A) (A) (A) (A) (A) (A) (A) (A) (A) (A)
                 (A) (A) (A) (A) (A) (A) (A) (A) (A) (A) (A) (A)
                 (A) (A) (A) (A) (A) (A) (A) (A) (A) (A) (A) (A)
                 (A) (A) (A) (A) (A) (A) (A) (A) (A) (A) (A) (A)
                 (A) (A) (A) (A) (A) (A) (A) (A) (A) (A) (A) (A)
                 (A) (A) (A) (A) (A) (A) (A) (A) (A) (A) (A) (A)
                 (A) (A) (A) (A) (A) (A) (A) (A) (A) (A) (A) (A)
                 (A) (A) (A) (A) (A) (A) (A) (A) (A) (A) (A) (A)
                 (A) (A) (A) (A) (A) (A) (A) (A) (A) (A) (A) (A)
                 (A) (A) (A) (A) (A) (A) (A) (A) (A) (A) (A) (A)
                 (A) (A) (A) (A) (A) (A) (A) (A) (A) (A) (A) (A)
                 (A) (A) (A) (A) (A) (A) (A) (A) (A) (A) (A) (A)
                 (A) (A) (A) (A) (A) (A) (A) (A) (A) (A) (A) (A)
                 (A) (A) (A) (A) (A) (A) (A) (A) (A) (A) (A) (A)
                 (A) (A) (A) (A) (A) (A) (A) (A) (A) (A) (A) (A)
                 (A) (A) (A) (A) (A) (A) (A) (A) (A) (A) (A) (A)
                 (A) (A) (A) (A) (A) (A) (A) (A) (A) (A) (A) (A)
                 (A) (A) (A) (A) (A) (A) (A) (A) (A) (A) (A) (A)
                 (A) (A) (A) (A) (A) (A) (A) (A) (A) (A) (A) (A)
                 (A) (A) (A) (A) (A) (A) (A) (A) (A) (A) (A) (A)
                 (A) (A) (A) (A) (A) (A) (A) (A) (A) (A) (A) (A)
                 (A) (A) (A) (A) (A) (A) (A) (A) (A) (A) (A) (A)
                 (A) (A) (A) (A) (A) (A) (A) (A) (A) (A) (A) (A)
                 (A) (A) (A) (A) (A) (A) (A) (A) (A) (A) (A) (A)
                 (A) (A) (A) (A) (A) (A) (A) (A) (A) (A) (A) (A)
                 (A) (A) (A) (A) (A) (A) (A) (A) (A) (A) (A) (A)
                 (A) (A) (A) (A) (A) (A) (A) (A) (A) (A) (A) (A)
                 (A) (A) (A) (A) (A) (A) (A) (A) (A) (A) (A) (A)
                 (A) (A) (A) (A) (A) (A) (A) (A) (A) (A) (A) (A)
                 (A) (A) (A) (A) (A) (A) (A) (A) (A) (A) (A) (A)
                 (A) (A) (A) (A) (A) (A) (A) (A) (A) (A) (A) (A)
                 (A) (A) (A) (A) (A) (A) (A) (A) (A) (A) (A) (A)
                 (A) (A) (A) (A) (A) (A) (A) (A) (A) (A) (A) (A)
                 (A) (A) (A) (A) (A) (A) (A) (A) (A) (A) (A) (A)
                 (A) (A) (A) (A) (A) (A) (A) (A) (A) (A) (A) (A)
                 (A) (A) (A) (A) (A) (A)
 The electronic state is 1-A.
 Alpha  occ. eigenvalues --  -77.24307 -19.34163 -19.34019 -19.22523 -10.42013
 Alpha  occ. eigenvalues --  -10.41889 -10.35525 -10.28751 -10.28232 -10.28034
 Alpha  occ. eigenvalues --  -10.26985 -10.25786  -6.68718  -4.83413  -4.83381
 Alpha  occ. eigenvalues --   -4.83103  -3.38032  -2.12879  -2.12396  -2.11925
 Alpha  occ. eigenvalues --   -1.25804  -1.25632  -1.13108  -0.88180  -0.85965
 Alpha  occ. eigenvalues --   -0.80111  -0.79806  -0.73509  -0.67908  -0.66989
 Alpha  occ. eigenvalues --   -0.64206  -0.60343  -0.57643  -0.56934  -0.56660
 Alpha  occ. eigenvalues --   -0.56420  -0.56369  -0.56024  -0.53858  -0.53395
 Alpha  occ. eigenvalues --   -0.52889  -0.52596  -0.52272  -0.49804  -0.49492
 Alpha  occ. eigenvalues --   -0.49031  -0.47871  -0.45674  -0.45292  -0.44281
 Alpha  occ. eigenvalues --   -0.42895  -0.42704  -0.42099  -0.41222  -0.39037
 Alpha  occ. eigenvalues --   -0.37509  -0.36869  -0.36552  -0.32646  -0.28325
 Alpha virt. eigenvalues --    0.04243   0.04625   0.05015   0.06497   0.06613
 Alpha virt. eigenvalues --    0.06825   0.07335   0.07764   0.09108   0.09314
 Alpha virt. eigenvalues --    0.09651   0.13138   0.13331   0.14145   0.15442
 Alpha virt. eigenvalues --    0.16340   0.16621   0.17559   0.18053   0.18523
 Alpha virt. eigenvalues --    0.18575   0.19616   0.19866   0.20388   0.20754
 Alpha virt. eigenvalues --    0.21416   0.22060   0.22324   0.22980   0.23790
 Alpha virt. eigenvalues --    0.24220   0.25239   0.25855   0.25917   0.26350
 Alpha virt. eigenvalues --    0.27097   0.27462   0.27767   0.28601   0.29829
 Alpha virt. eigenvalues --    0.30006   0.31615   0.33187   0.33267   0.34211
 Alpha virt. eigenvalues --    0.35359   0.35783   0.36441   0.37684   0.38882
 Alpha virt. eigenvalues --    0.40556   0.41334   0.41832   0.42596   0.43180
 Alpha virt. eigenvalues --    0.44068   0.44947   0.45715   0.46734   0.46882
 Alpha virt. eigenvalues --    0.48507   0.48957   0.49270   0.49482   0.49626
 Alpha virt. eigenvalues --    0.50516   0.51125   0.51242   0.51566   0.52295
 Alpha virt. eigenvalues --    0.52769   0.53071   0.53336   0.54494   0.55008
 Alpha virt. eigenvalues --    0.55149   0.55824   0.56191   0.57163   0.57573
 Alpha virt. eigenvalues --    0.57673   0.57958   0.58743   0.58954   0.60036
 Alpha virt. eigenvalues --    0.60197   0.61249   0.62504   0.63511   0.63894
 Alpha virt. eigenvalues --    0.65358   0.66319   0.66841   0.67904   0.68418
 Alpha virt. eigenvalues --    0.69275   0.69810   0.71512   0.72118   0.72783
 Alpha virt. eigenvalues --    0.73800   0.74163   0.75599   0.77148   0.77479
 Alpha virt. eigenvalues --    0.78914   0.79427   0.80428   0.80625   0.81923
 Alpha virt. eigenvalues --    0.83297   0.84794   0.85386   0.85872   0.87376
 Alpha virt. eigenvalues --    0.88577   0.90458   0.91757   0.92074   0.92369
 Alpha virt. eigenvalues --    0.93779   0.94490   0.95512   0.97202   0.98036
 Alpha virt. eigenvalues --    0.98292   0.99278   1.01687   1.02890   1.03514
 Alpha virt. eigenvalues --    1.04989   1.06728   1.07642   1.09816   1.11032
 Alpha virt. eigenvalues --    1.11707   1.12303   1.12844   1.13642   1.14680
 Alpha virt. eigenvalues --    1.14868   1.16444   1.17065   1.17483   1.19565
 Alpha virt. eigenvalues --    1.19729   1.20875   1.22567   1.24959   1.25816
 Alpha virt. eigenvalues --    1.27082   1.28310   1.30316   1.31970   1.34700
 Alpha virt. eigenvalues --    1.37338   1.41862   1.48757   1.49499   1.50671
 Alpha virt. eigenvalues --    1.51288   1.52804   1.53824   1.54744   1.55650
 Alpha virt. eigenvalues --    1.56869   1.57562   1.58796   1.58994   1.59606
 Alpha virt. eigenvalues --    1.59920   1.60761   1.61013   1.61956   1.62401
 Alpha virt. eigenvalues --    1.62722   1.63154   1.63334   1.63655   1.64330
 Alpha virt. eigenvalues --    1.64550   1.65064   1.66200   1.66779   1.67276
 Alpha virt. eigenvalues --    1.67994   1.68511   1.69289   1.69877   1.70718
 Alpha virt. eigenvalues --    1.70981   1.72265   1.72548   1.72771   1.74001
 Alpha virt. eigenvalues --    1.75948   1.76269   1.76355   1.77921   1.78938
 Alpha virt. eigenvalues --    1.80062   1.82767   1.83669   1.84837   1.88796
 Alpha virt. eigenvalues --    1.90030   1.94321   1.94974   1.96945   1.98188
 Alpha virt. eigenvalues --    1.98994   1.99755   2.00016   2.01844   2.03400
 Alpha virt. eigenvalues --    2.05671   2.05859   2.08420   2.10254   2.11230
 Alpha virt. eigenvalues --    2.11672   2.13018   2.14306   2.15244   2.15433
 Alpha virt. eigenvalues --    2.15852   2.16379   2.18331   2.18438   2.20986
 Alpha virt. eigenvalues --    2.21603   2.22412   2.24277   2.26708   2.28840
 Alpha virt. eigenvalues --    2.30008   2.32101   2.33956   2.34932   2.35653
 Alpha virt. eigenvalues --    2.37414   2.38914   2.40587   2.41587   2.41916
 Alpha virt. eigenvalues --    2.42302   2.43183   2.44175   2.44499   2.46408
 Alpha virt. eigenvalues --    2.48740   2.50156   2.50559   2.52075   2.52644
 Alpha virt. eigenvalues --    2.54381   2.55671   2.57165   2.58949   2.59746
 Alpha virt. eigenvalues --    2.62359   2.63677   2.64335   2.65461   2.66266
 Alpha virt. eigenvalues --    2.66938   2.67107   2.68371   2.69541   2.70804
 Alpha virt. eigenvalues --    2.72131   2.73461   2.74107   2.74550   2.75021
 Alpha virt. eigenvalues --    2.75446   2.76138   2.77973   2.79914   2.82204
 Alpha virt. eigenvalues --    2.84816   2.86408   2.86917   2.87163   2.89371
 Alpha virt. eigenvalues --    2.89585   2.91291   2.92958   2.93204   2.94212
 Alpha virt. eigenvalues --    2.94964   2.97569   2.98084   2.98359   2.99848
 Alpha virt. eigenvalues --    3.01158   3.02307   3.03972   3.04286   3.06210
 Alpha virt. eigenvalues --    3.07107   3.07789   3.10808   3.11460   3.12657
 Alpha virt. eigenvalues --    3.14201   3.15098   3.16139   3.16703   3.17716
 Alpha virt. eigenvalues --    3.18151   3.18757   3.19723   3.20997   3.22644
 Alpha virt. eigenvalues --    3.23891   3.24389   3.25157   3.25661   3.26662
 Alpha virt. eigenvalues --    3.29063   3.30094   3.30988   3.31467   3.33011
 Alpha virt. eigenvalues --    3.34286   3.35966   3.36780   3.37704   3.38546
 Alpha virt. eigenvalues --    3.38753   3.41170   3.42072   3.43008   3.43534
 Alpha virt. eigenvalues --    3.44016   3.44612   3.45875   3.47421   3.48416
 Alpha virt. eigenvalues --    3.50464   3.53392   3.54440   3.55936   3.57014
 Alpha virt. eigenvalues --    3.58940   3.61043   3.62874   3.63625   3.64403
 Alpha virt. eigenvalues --    3.65776   3.67162   3.69360   3.69881   3.70399
 Alpha virt. eigenvalues --    3.71219   3.71865   3.72974   3.73454   3.74289
 Alpha virt. eigenvalues --    3.76106   3.77427   3.77939   3.80247   3.81955
 Alpha virt. eigenvalues --    3.85279   3.87330   3.90807   3.98203   4.00670
 Alpha virt. eigenvalues --    4.01854   4.02405   4.09434   4.14638   4.20343
 Alpha virt. eigenvalues --    4.30481   4.32884   4.34766   4.34898   4.36249
 Alpha virt. eigenvalues --    4.36553   4.40213   4.40515   4.41753   4.43950
 Alpha virt. eigenvalues --    4.49758   4.50733   4.51203   4.53615   4.54924
 Alpha virt. eigenvalues --    4.62538   4.67409   4.70641   4.94059   4.97549
 Alpha virt. eigenvalues --    5.17595   5.17598   5.17731   5.17756   5.29282
 Alpha virt. eigenvalues --    5.30752   5.57082   5.57554   5.58337   5.60441
 Alpha virt. eigenvalues --    5.64312   5.69526   6.21698   6.29544   6.30661
 Alpha virt. eigenvalues --    6.32629   6.33011   6.33537   6.33988   6.34233
 Alpha virt. eigenvalues --    6.34863   6.42737   6.44266   6.50958   6.58527
 Alpha virt. eigenvalues --    6.63280   6.65493   6.80039   6.80573   6.81154
 Alpha virt. eigenvalues --    6.81947   6.93738   7.12471   7.16465   7.16911
 Alpha virt. eigenvalues --    7.20757   7.82722   7.90281   7.94414  15.70385
 Alpha virt. eigenvalues --   22.41536  22.42298  22.43678  22.46848  22.59800
 Alpha virt. eigenvalues --   22.69519  22.83373  23.16835  38.37074  38.41384
 Alpha virt. eigenvalues --   38.57205  43.91461  43.96639  44.08713  49.77454
          Condensed to atoms (all electrons):
               1          2          3          4          5          6
     1  H    0.641983   0.017460   0.353589   0.003257  -0.002832  -0.005883
     2  H    0.017460   0.618839   0.343489  -0.005523   0.000205  -0.002309
     3  Rh   0.353589   0.343489  16.011793   0.218565  -0.041787  -0.085183
     4  C    0.003257  -0.005523   0.218565   5.023219   0.471912   0.243195
     5  O   -0.002832   0.000205  -0.041787   0.471912   8.036751  -0.093974
     6  C   -0.005883  -0.002309  -0.085183   0.243195  -0.093974   5.208405
     7  C    0.001034   0.001238   0.020865  -0.025780   0.020357   0.241038
     8  H   -0.003327  -0.004015  -0.005576  -0.036490   0.000926   0.421337
     9  H   -0.000215  -0.004857  -0.007258  -0.022759   0.000575   0.403553
    10  H   -0.000012  -0.000054  -0.000629   0.011135   0.001073  -0.052501
    11  H   -0.000033  -0.000015  -0.000219  -0.007097   0.001596  -0.031045
    12  H   -0.000016  -0.000016   0.001055  -0.008667   0.001714  -0.026768
    13  C   -0.014263  -0.007730   0.138459   0.007764  -0.008642  -0.005593
    14  O    0.000196  -0.001278  -0.002471  -0.003834   0.000558   0.000639
    15  P   -0.003663  -0.010981   0.270288  -0.030909   0.017899  -0.000252
    16  C   -0.001567   0.000060  -0.025699   0.000434   0.001359   0.000241
    17  C   -0.001515   0.000254  -0.024534  -0.002118  -0.011387  -0.000033
    18  C    0.001050   0.000391  -0.020287   0.001631  -0.015597  -0.000587
    19  H   -0.000055  -0.000024  -0.006844  -0.000027   0.000364   0.000014
    20  H   -0.000008  -0.000007   0.005718  -0.000174   0.000179   0.000009
    21  H    0.000021  -0.000020  -0.003963  -0.004261   0.013145   0.000841
    22  H    0.000024  -0.000021  -0.001061  -0.000016  -0.000012  -0.000002
    23  H   -0.000298   0.000008  -0.005309   0.000063  -0.000019  -0.000007
    24  H   -0.000028  -0.000008   0.005595  -0.000094  -0.000012  -0.000002
    25  H    0.000153  -0.000005  -0.006528  -0.000299   0.000437   0.000181
    26  H   -0.001129  -0.000026  -0.006643   0.000713   0.007931  -0.000029
    27  H    0.000021  -0.000005   0.007401  -0.000113  -0.000036  -0.000041
    28  C   -0.008273   0.003773   0.142666  -0.018212   0.000842   0.001823
    29  O   -0.000912  -0.001542  -0.008958   0.000271  -0.000002  -0.000026
               7          8          9         10         11         12
     1  H    0.001034  -0.003327  -0.000215  -0.000012  -0.000033  -0.000016
     2  H    0.001238  -0.004015  -0.004857  -0.000054  -0.000015  -0.000016
     3  Rh   0.020865  -0.005576  -0.007258  -0.000629  -0.000219   0.001055
     4  C   -0.025780  -0.036490  -0.022759   0.011135  -0.007097  -0.008667
     5  O    0.020357   0.000926   0.000575   0.001073   0.001596   0.001714
     6  C    0.241038   0.421337   0.403553  -0.052501  -0.031045  -0.026768
     7  C    4.906345  -0.029915  -0.028931   0.422719   0.414441   0.410666
     8  H   -0.029915   0.538973  -0.030746  -0.003557  -0.005932   0.006114
     9  H   -0.028931  -0.030746   0.550025  -0.003183   0.006425  -0.005609
    10  H    0.422719  -0.003557  -0.003183   0.552906  -0.025203  -0.025609
    11  H    0.414441  -0.005932   0.006425  -0.025203   0.552553  -0.024962
    12  H    0.410666   0.006114  -0.005609  -0.025609  -0.024962   0.551486
    13  C   -0.000101   0.000634   0.000680  -0.000000   0.000035   0.000017
    14  O   -0.000074   0.000001  -0.000073  -0.000000  -0.000001  -0.000010
    15  P   -0.000441   0.000285   0.000433   0.000005  -0.000000  -0.000011
    16  C   -0.000009  -0.000005  -0.000003  -0.000000  -0.000000  -0.000000
    17  C   -0.000068   0.000090  -0.000034  -0.000002  -0.000035   0.000017
    18  C    0.000080  -0.000003  -0.000002   0.000000   0.000006   0.000000
    19  H   -0.000003  -0.000001   0.000001  -0.000000   0.000000  -0.000000
    20  H   -0.000001   0.000000   0.000000   0.000000   0.000000   0.000000
    21  H   -0.000112  -0.000009  -0.000021  -0.000000  -0.000011  -0.000018
    22  H   -0.000000   0.000000   0.000000   0.000000   0.000000   0.000000
    23  H    0.000000   0.000001   0.000000  -0.000000   0.000000   0.000000
    24  H    0.000000   0.000000   0.000000   0.000000   0.000000   0.000000
    25  H   -0.000011  -0.000003  -0.000002  -0.000000  -0.000002  -0.000001
    26  H    0.000037  -0.000085   0.000023   0.000002   0.000076  -0.000016
    27  H    0.000003  -0.000000   0.000001   0.000000   0.000001   0.000000
    28  C   -0.000114   0.000023   0.000174  -0.000000  -0.000001  -0.000002
    29  O    0.000000   0.000000  -0.000001  -0.000000  -0.000000   0.000000
              13         14         15         16         17         18
     1  H   -0.014263   0.000196  -0.003663  -0.001567  -0.001515   0.001050
     2  H   -0.007730  -0.001278  -0.010981   0.000060   0.000254   0.000391
     3  Rh   0.138459  -0.002471   0.270288  -0.025699  -0.024534  -0.020287
     4  C    0.007764  -0.003834  -0.030909   0.000434  -0.002118   0.001631
     5  O   -0.008642   0.000558   0.017899   0.001359  -0.011387  -0.015597
     6  C   -0.005593   0.000639  -0.000252   0.000241  -0.000033  -0.000587
     7  C   -0.000101  -0.000074  -0.000441  -0.000009  -0.000068   0.000080
     8  H    0.000634   0.000001   0.000285  -0.000005   0.000090  -0.000003
     9  H    0.000680  -0.000073   0.000433  -0.000003  -0.000034  -0.000002
    10  H   -0.000000  -0.000000   0.000005  -0.000000  -0.000002   0.000000
    11  H    0.000035  -0.000001  -0.000000  -0.000000  -0.000035   0.000006
    12  H    0.000017  -0.000010  -0.000011  -0.000000   0.000017   0.000000
    13  C    5.280022   0.556432   0.010128  -0.000791   0.000199  -0.004009
    14  O    0.556432   7.535783  -0.002589   0.000059  -0.000008   0.001048
    15  P    0.010128  -0.002589  13.731587   0.326919   0.330637   0.320560
    16  C   -0.000791   0.000059   0.326919   5.036767  -0.034375  -0.033540
    17  C    0.000199  -0.000008   0.330637  -0.034375   5.024876  -0.035766
    18  C   -0.004009   0.001048   0.320560  -0.033540  -0.035766   5.035024
    19  H    0.001448   0.000215  -0.021289  -0.000532   0.004419   0.393444
    20  H    0.000234  -0.000019  -0.026576  -0.004349  -0.004399   0.394107
    21  H   -0.001168  -0.000064  -0.022996   0.004541  -0.000736   0.398808
    22  H   -0.000574  -0.000019  -0.022816   0.398815   0.004092  -0.001345
    23  H    0.000121  -0.000002  -0.022056   0.400487  -0.001704   0.003967
    24  H    0.000053  -0.000003  -0.027739   0.395803  -0.004346  -0.004827
    25  H   -0.000082   0.000000  -0.021412  -0.000108   0.394890   0.004184
    26  H    0.000297  -0.000006  -0.020739   0.004123   0.399907  -0.000912
    27  H    0.000015  -0.000000  -0.027893  -0.005697   0.397217  -0.005147
    28  C    0.012273  -0.001695  -0.022300   0.002456   0.000687  -0.000025
    29  O   -0.001182   0.000074  -0.001507   0.000854   0.000024   0.000023
              19         20         21         22         23         24
     1  H   -0.000055  -0.000008   0.000021   0.000024  -0.000298  -0.000028
     2  H   -0.000024  -0.000007  -0.000020  -0.000021   0.000008  -0.000008
     3  Rh  -0.006844   0.005718  -0.003963  -0.001061  -0.005309   0.005595
     4  C   -0.000027  -0.000174  -0.004261  -0.000016   0.000063  -0.000094
     5  O    0.000364   0.000179   0.013145  -0.000012  -0.000019  -0.000012
     6  C    0.000014   0.000009   0.000841  -0.000002  -0.000007  -0.000002
     7  C   -0.000003  -0.000001  -0.000112  -0.000000   0.000000   0.000000
     8  H   -0.000001   0.000000  -0.000009   0.000000   0.000001   0.000000
     9  H    0.000001   0.000000  -0.000021   0.000000   0.000000   0.000000
    10  H   -0.000000   0.000000  -0.000000   0.000000  -0.000000   0.000000
    11  H    0.000000   0.000000  -0.000011   0.000000   0.000000   0.000000
    12  H   -0.000000   0.000000  -0.000018   0.000000   0.000000   0.000000
    13  C    0.001448   0.000234  -0.001168  -0.000574   0.000121   0.000053
    14  O    0.000215  -0.000019  -0.000064  -0.000019  -0.000002  -0.000003
    15  P   -0.021289  -0.026576  -0.022996  -0.022816  -0.022056  -0.027739
    16  C   -0.000532  -0.004349   0.004541   0.398815   0.400487   0.395803
    17  C    0.004419  -0.004399  -0.000736   0.004092  -0.001704  -0.004346
    18  C    0.393444   0.394107   0.398808  -0.001345   0.003967  -0.004827
    19  H    0.509360  -0.020949  -0.013178   0.000839  -0.000127  -0.000316
    20  H   -0.020949   0.518409  -0.017426  -0.000101  -0.000147   0.003679
    21  H   -0.013178  -0.017426   0.464518  -0.000144  -0.000073  -0.000147
    22  H    0.000839  -0.000101  -0.000144   0.496609  -0.016721  -0.018937
    23  H   -0.000127  -0.000147  -0.000073  -0.016721   0.492914  -0.018361
    24  H   -0.000316   0.003679  -0.000147  -0.018937  -0.018361   0.512220
    25  H   -0.000100  -0.000075  -0.000022  -0.000109   0.000906  -0.000230
    26  H   -0.000082  -0.000112   0.000681  -0.000075  -0.000098  -0.000093
    27  H   -0.000106   0.003392  -0.000325  -0.000086  -0.000264   0.003662
    28  C   -0.000029  -0.000007   0.000140  -0.000648  -0.000530   0.000318
    29  O   -0.000012  -0.000001  -0.000001  -0.000127   0.000008  -0.000010
              25         26         27         28         29
     1  H    0.000153  -0.001129   0.000021  -0.008273  -0.000912
     2  H   -0.000005  -0.000026  -0.000005   0.003773  -0.001542
     3  Rh  -0.006528  -0.006643   0.007401   0.142666  -0.008958
     4  C   -0.000299   0.000713  -0.000113  -0.018212   0.000271
     5  O    0.000437   0.007931  -0.000036   0.000842  -0.000002
     6  C    0.000181  -0.000029  -0.000041   0.001823  -0.000026
     7  C   -0.000011   0.000037   0.000003  -0.000114   0.000000
     8  H   -0.000003  -0.000085  -0.000000   0.000023   0.000000
     9  H   -0.000002   0.000023   0.000001   0.000174  -0.000001
    10  H   -0.000000   0.000002   0.000000  -0.000000  -0.000000
    11  H   -0.000002   0.000076   0.000001  -0.000001  -0.000000
    12  H   -0.000001  -0.000016   0.000000  -0.000002   0.000000
    13  C   -0.000082   0.000297   0.000015   0.012273  -0.001182
    14  O    0.000000  -0.000006  -0.000000  -0.001695   0.000074
    15  P   -0.021412  -0.020739  -0.027893  -0.022300  -0.001507
    16  C   -0.000108   0.004123  -0.005697   0.002456   0.000854
    17  C    0.394890   0.399907   0.397217   0.000687   0.000024
    18  C    0.004184  -0.000912  -0.005147  -0.000025   0.000023
    19  H   -0.000100  -0.000082  -0.000106  -0.000029  -0.000012
    20  H   -0.000075  -0.000112   0.003392  -0.000007  -0.000001
    21  H   -0.000022   0.000681  -0.000325   0.000140  -0.000001
    22  H   -0.000109  -0.000075  -0.000086  -0.000648  -0.000127
    23  H    0.000906  -0.000098  -0.000264  -0.000530   0.000008
    24  H   -0.000230  -0.000093   0.003662   0.000318  -0.000010
    25  H    0.500300  -0.012271  -0.021877   0.000073  -0.000015
    26  H   -0.012271   0.470715  -0.019082  -0.000029  -0.000001
    27  H   -0.021877  -0.019082   0.521529  -0.000005  -0.000001
    28  C    0.000073  -0.000029  -0.000005   5.277106   0.556886
    29  O   -0.000015  -0.000001  -0.000001   0.556886   7.535854
 Mulliken charges:
               1
     1  H    0.025239
     2  H    0.052715
     3  Rh  -0.266533
     4  C    0.184214
     5  O   -0.403523
     6  C   -0.217041
     7  C   -0.353264
     8  H    0.151278
     9  H    0.141802
    10  H    0.122910
    11  H    0.119423
    12  H    0.120634
    13  C    0.035324
    14  O   -0.082859
    15  P    0.277426
    16  C   -0.466239
    17  C   -0.436246
    18  C   -0.432276
    19  H    0.153569
    20  H    0.148626
    21  H    0.181997
    22  H    0.162436
    23  H    0.167239
    24  H    0.153822
    25  H    0.162029
    26  H    0.176924
    27  H    0.147436
    28  C    0.052633
    29  O   -0.079696
 Sum of Mulliken charges =  -0.00000
 Mulliken charges with hydrogens summed into heavy atoms:
               1
     3  Rh  -0.188579
     4  C    0.184214
     5  O   -0.403523
     6  C    0.076040
     7  C    0.009703
    13  C    0.035324
    14  O   -0.082859
    15  P    0.277426
    16  C    0.017258
    17  C    0.050143
    18  C    0.051916
    28  C    0.052633
    29  O   -0.079696
 Electronic spatial extent (au):  <R**2>=           3513.8000
 Charge=              0.0000 electrons
 Dipole moment (field-independent basis, Debye):
    X=             -3.8708    Y=              2.0960    Z=              0.2926  Tot=              4.4116
 Quadrupole moment (field-independent basis, Debye-Ang):
   XX=            -98.0134   YY=           -103.0609   ZZ=           -103.6904
   XY=             -9.5010   XZ=             -2.5644   YZ=             -2.4048
 Traceless Quadrupole moment (field-independent basis, Debye-Ang):
   XX=              3.5748   YY=             -1.4726   ZZ=             -2.1021
   XY=             -9.5010   XZ=             -2.5644   YZ=             -2.4048
 Octapole moment (field-independent basis, Debye-Ang**2):
  XXX=            -18.4597  YYY=            -19.9987  ZZZ=             -9.3238  XYY=            -16.9892
  XXY=            -10.0012  XXZ=             -0.7952  XZZ=             -6.9872  YZZ=             -3.2484
  YYZ=              1.5273  XYZ=              0.9490
 Hexadecapole moment (field-independent basis, Debye-Ang**3):
 XXXX=          -2457.9845 YYYY=          -1420.9476 ZZZZ=           -816.5271 XXXY=            -49.0306
 XXXZ=              0.1490 YYYX=            -31.2068 YYYZ=             -9.7534 ZZZX=             12.7423
 ZZZY=             16.0710 XXYY=           -663.3809 XXZZ=           -529.7238 YYZZ=           -377.8697
 XXYZ=            -11.4680 YYXZ=             -8.5148 ZZXY=              6.9834
 N-N= 1.115843061527D+03 E-N=-4.538452390185D+03  KE= 9.187376991374D+02
 No NMR shielding tensors so no spin-rotation constants.
 Leave Link  601 at Tue Oct  4 17:47:14 2022, MaxMem=  2952790016 cpu:               6.8 elap:               0.7
 (Enter /mnt/data/applications/G16/g16/l701.exe)
 ... and contract with generalized density number  0.
 Compute integral first derivatives.
 R6Disp: Adding Grimme-D2 dispersion energy 1st derivatives to the gradient.
   1 Symmetry operations used in ECPInt.
 ECPInt:  NShTT=   22578 NPrTT=   66767 LenC2=   20933 LenP2D=   46146.
 LDataN:  DoStor=T MaxTD1= 8 Len=  415
 D1PCM: PCM CHGder 1st derivatives, ID1Alg=3 FixD1E=F DoIter=F DoCFld=F I1PDM=0.
 GePol: Maximum number of non-zero 1st derivatives   =     420
 Leave Link  701 at Tue Oct  4 17:47:26 2022, MaxMem=  2952790016 cpu:             137.8 elap:              11.5
 (Enter /mnt/data/applications/G16/g16/l702.exe)
 L702 exits ... SP integral derivatives will be done elsewhere.
 Leave Link  702 at Tue Oct  4 17:47:26 2022, MaxMem=  2952790016 cpu:               0.2 elap:               0.0
 (Enter /mnt/data/applications/G16/g16/l703.exe)
 Integral derivatives from FoFJK, PRISM(SPDF).
 Compute integral first derivatives, UseDBF=F ICtDFT=           0.
 Calling FoFJK, ICntrl=      2127 FMM=F ISym2X=0 I1Cent= 0 IOpClX= 0 NMat=1 NMatS=1 NMatT=0.
 FoFJK:  IHMeth= 1 ICntrl=    2127 DoSepK=T KAlg= 0 I1Cent=           0 FoldK=F
 IRaf=         1 NMat=       1 IRICut=       1 DoRegI=T DoRafI=F ISym2E= 0 IDoP0=0 IntGTp=1.
 FoFCou: FMM=F IPFlag=           0 FMFlag=      100000 FMFlg1=         800
         NFxFlg=           0 DoJE=F BraDBF=F KetDBF=F FulRan=T
         wScrn=  0.000000 ICntrl=      2527 IOpCl=  0 I1Cent=           0 NGrid=           0
         NMat0=    1 NMatS0=      1 NMatT0=    0 NMatD0=    1 NMtDS0=    0 NMtDT0=    0
 Symmetry not used in FoFCou.
 Defaulting to unpruned grid for atomic number  45.
 Defaulting to unpruned grid for atomic number  45.
 Defaulting to unpruned grid for atomic number  45.
 Defaulting to unpruned grid for atomic number  45.
 Defaulting to unpruned grid for atomic number  45.
 Defaulting to unpruned grid for atomic number  45.
 Defaulting to unpruned grid for atomic number  45.
 Defaulting to unpruned grid for atomic number  45.
 Defaulting to unpruned grid for atomic number  45.
 Defaulting to unpruned grid for atomic number  45.
 Defaulting to unpruned grid for atomic number  45.
 Defaulting to unpruned grid for atomic number  45.
 Leave Link  703 at Tue Oct  4 17:51:56 2022, MaxMem=  2952790016 cpu:            3235.5 elap:             270.4
 (Enter /mnt/data/applications/G16/g16/l716.exe)
 Dipole        =-1.52289920D+00 8.24642756D-01 1.15135710D-01
 ***** Axes restored to original set *****
 -------------------------------------------------------------------
 Center     Atomic                   Forces (Hartrees/Bohr)
 Number     Number              X              Y              Z
 -------------------------------------------------------------------
      1        1           0.000355535    0.000008775   -0.000000696
      2        1           0.000354169   -0.000104971   -0.000321983
      3       45          -0.001720255    0.000724812    0.000785734
      4        6           0.000552357    0.000408180   -0.000271121
      5        8          -0.000035699   -0.000230959   -0.000023428
      6        6           0.000000830    0.000010526    0.000021535
      7        6           0.000007088   -0.000007722    0.000007678
      8        1          -0.000016367    0.000012030    0.000008004
      9        1           0.000014463    0.000003962    0.000006996
     10        1          -0.000002289    0.000004185    0.000004295
     11        1          -0.000002108   -0.000007977    0.000002358
     12        1           0.000003314   -0.000002210   -0.000004971
     13        6           0.000481500   -0.000063653    0.000498152
     14        8          -0.000125818    0.000018495   -0.000067094
     15       15           0.000319293   -0.000294727   -0.000225520
     16        6           0.000034894   -0.000035424    0.000000663
     17        6          -0.000009293   -0.000005965    0.000011029
     18        6           0.000033996   -0.000047217    0.000000876
     19        1           0.000003412    0.000004648   -0.000001435
     20        1          -0.000003051   -0.000011639   -0.000029929
     21        1          -0.000000573    0.000001308   -0.000004739
     22        1          -0.000009830   -0.000002042   -0.000003724
     23        1           0.000008436   -0.000001407   -0.000002347
     24        1           0.000030776    0.000002184    0.000002537
     25        1          -0.000005414   -0.000003603    0.000004299
     26        1           0.000001198   -0.000010287   -0.000005952
     27        1           0.000001798   -0.000002808    0.000009850
     28        6          -0.000264901   -0.000430145   -0.000486107
     29        8          -0.000007459    0.000063652    0.000085037
 -------------------------------------------------------------------
 Cartesian Forces:  Max     0.001720255 RMS     0.000269664
 Leave Link  716 at Tue Oct  4 17:51:56 2022, MaxMem=  2952790016 cpu:               0.3 elap:               0.0
 (Enter /mnt/data/applications/G16/g16/l103.exe)

 GradGradGradGradGradGradGradGradGradGradGradGradGradGradGradGradGradGrad
 Berny optimization.
 FormGI is forming the generalized inverse of G from B-inverse, IUseBI=4.
 Internal  Forces:  Max     0.000578880 RMS     0.000126217
 Search for a local minimum.
 Step number   1 out of a maximum of  161
 All quantities printed in internal units (Hartrees-Bohrs-Radians)
 RMS Force = .12622D-03 SwitMx=.10000D-02 MixMth= 2
 Mixed Optimization -- En-DIIS/RFO-DIIS
 Second derivative matrix not updated -- first step.
 ITU=  0
     Eigenvalues ---    0.00230   0.00230   0.00343   0.00501   0.00525
     Eigenvalues ---    0.00907   0.00966   0.00992   0.03690   0.03832
     Eigenvalues ---    0.03851   0.05184   0.05230   0.05230   0.05242
     Eigenvalues ---    0.05242   0.05364   0.05462   0.05592   0.05682
     Eigenvalues ---    0.05930   0.05938   0.06005   0.06060   0.06136
     Eigenvalues ---    0.06272   0.06278   0.06521   0.07615   0.09284
     Eigenvalues ---    0.09942   0.10416   0.12121   0.12245   0.12860
     Eigenvalues ---    0.13115   0.14190   0.14293   0.14294   0.16000
     Eigenvalues ---    0.16000   0.16000   0.16000   0.16000   0.16000
     Eigenvalues ---    0.16000   0.16000   0.16000   0.16000   0.16000
     Eigenvalues ---    0.16000   0.16629   0.16888   0.20190   0.20740
     Eigenvalues ---    0.21450   0.21902   0.24644   0.24970   0.24998
     Eigenvalues ---    0.25000   0.25119   0.30360   0.30543   0.34302
     Eigenvalues ---    0.34467   0.34596   0.34596   0.34604   0.34605
     Eigenvalues ---    0.34657   0.34669   0.34674   0.34697   0.34725
     Eigenvalues ---    0.34767   0.34856   0.34950   1.00353   1.47611
     Eigenvalues ---    1.48311
 RFO step:  Lambda=-2.55798738D-05 EMin= 2.30000000D-03
 Linear search not attempted -- first point.
 Iteration  1 RMS(Cart)=  0.00289419 RMS(Int)=  0.00000575
 Iteration  2 RMS(Cart)=  0.00000925 RMS(Int)=  0.00000186
 Iteration  3 RMS(Cart)=  0.00000000 RMS(Int)=  0.00000186
 ITry= 1 IFail=0 DXMaxC= 1.28D-02 DCOld= 1.00D+10 DXMaxT= 5.00D-02 DXLimC= 3.00D+00 Rises=F
 Variable       Old X    -DE/DX   Delta X   Delta X   Delta X     New X
                                 (Linear)    (Quad)   (Total)
    R1        3.01822   0.00004   0.00000   0.00021   0.00021   3.01843
    R2        3.00698   0.00037   0.00000   0.00218   0.00218   3.00916
    R3        3.95263   0.00053   0.00000   0.00369   0.00369   3.95632
    R4        3.68453   0.00046   0.00000   0.00224   0.00224   3.68677
    R5        4.53577  -0.00058   0.00000  -0.00473  -0.00473   4.53104
    R6        3.70279   0.00052   0.00000   0.00258   0.00258   3.70538
    R7        2.28498  -0.00022   0.00000  -0.00022  -0.00022   2.28475
    R8        2.87250  -0.00001   0.00000  -0.00005  -0.00005   2.87246
    R9        2.86894  -0.00000   0.00000  -0.00001  -0.00001   2.86893
   R10        2.06549  -0.00001   0.00000  -0.00002  -0.00002   2.06547
   R11        2.06823   0.00000   0.00000   0.00000   0.00000   2.06823
   R12        2.06322  -0.00000   0.00000  -0.00001  -0.00001   2.06320
   R13        2.06170  -0.00001   0.00000  -0.00002  -0.00002   2.06168
   R14        2.06124  -0.00001   0.00000  -0.00002  -0.00002   2.06122
   R15        2.14014  -0.00009   0.00000  -0.00006  -0.00006   2.14008
   R16        3.43822  -0.00006   0.00000  -0.00024  -0.00024   3.43798
   R17        3.42607  -0.00003   0.00000  -0.00013  -0.00013   3.42594
   R18        3.42984  -0.00005   0.00000  -0.00020  -0.00020   3.42964
   R19        2.06216   0.00000   0.00000   0.00001   0.00001   2.06217
   R20        2.06208  -0.00000   0.00000  -0.00000  -0.00000   2.06208
   R21        2.06323  -0.00001   0.00000  -0.00003  -0.00003   2.06320
   R22        2.06056  -0.00000   0.00000  -0.00001  -0.00001   2.06055
   R23        2.05756  -0.00000   0.00000  -0.00000  -0.00000   2.05756
   R24        2.06335  -0.00000   0.00000  -0.00000  -0.00000   2.06335
   R25        2.06235  -0.00000   0.00000  -0.00001  -0.00001   2.06234
   R26        2.06336  -0.00001   0.00000  -0.00003  -0.00003   2.06333
   R27        2.05909  -0.00000   0.00000  -0.00000  -0.00000   2.05909
   R28        2.13848  -0.00006   0.00000  -0.00004  -0.00004   2.13844
    A1        1.44059  -0.00025   0.00000  -0.00376  -0.00376   1.43682
    A2        1.42956  -0.00027   0.00000  -0.00494  -0.00494   1.42462
    A3        1.52958  -0.00003   0.00000  -0.00053  -0.00053   1.52905
    A4        1.53023   0.00001   0.00000   0.00038   0.00038   1.53061
    A5        1.49737  -0.00031   0.00000  -0.00345  -0.00345   1.49392
    A6        1.58846   0.00006   0.00000   0.00103   0.00103   1.58949
    A7        1.51499  -0.00000   0.00000  -0.00015  -0.00015   1.51484
    A8        1.54255   0.00000   0.00000   0.00027   0.00027   1.54282
    A9        1.57055  -0.00001   0.00000  -0.00004  -0.00005   1.57051
   A10        1.71387   0.00015   0.00000   0.00250   0.00249   1.71636
   A11        1.76786   0.00021   0.00000   0.00368   0.00367   1.77153
   A12        1.67048   0.00023   0.00000   0.00221   0.00221   1.67269
   A13        2.13438  -0.00006   0.00000  -0.00027  -0.00028   2.13411
   A14        2.05938   0.00004   0.00000   0.00013   0.00012   2.05950
   A15        2.08937   0.00003   0.00000   0.00008   0.00008   2.08945
   A16        2.00564   0.00003   0.00000   0.00012   0.00012   2.00576
   A17        1.86019  -0.00003   0.00000  -0.00022  -0.00022   1.85996
   A18        1.85580   0.00000   0.00000   0.00009   0.00009   1.85589
   A19        1.95219   0.00001   0.00000   0.00003   0.00003   1.95223
   A20        1.94695  -0.00002   0.00000  -0.00010  -0.00010   1.94684
   A21        1.83155   0.00001   0.00000   0.00008   0.00008   1.83163
   A22        1.92414   0.00000   0.00000   0.00001   0.00001   1.92414
   A23        1.94195  -0.00001   0.00000  -0.00004  -0.00004   1.94191
   A24        1.94381   0.00001   0.00000   0.00004   0.00004   1.94385
   A25        1.88722   0.00000   0.00000  -0.00001  -0.00001   1.88721
   A26        1.88797  -0.00000   0.00000  -0.00002  -0.00002   1.88794
   A27        1.87665   0.00000   0.00000   0.00002   0.00002   1.87667
   A28        1.99842  -0.00001   0.00000  -0.00008  -0.00008   1.99834
   A29        2.01004   0.00003   0.00000   0.00021   0.00021   2.01025
   A30        2.01371  -0.00004   0.00000  -0.00039  -0.00039   2.01331
   A31        1.79692  -0.00001   0.00000   0.00007   0.00007   1.79698
   A32        1.80015   0.00003   0.00000   0.00023   0.00023   1.80037
   A33        1.81682   0.00000   0.00000   0.00003   0.00003   1.81684
   A34        1.91468   0.00002   0.00000   0.00018   0.00018   1.91486
   A35        1.91135  -0.00001   0.00000  -0.00005  -0.00005   1.91130
   A36        1.94186  -0.00004   0.00000  -0.00031  -0.00031   1.94155
   A37        1.89167  -0.00000   0.00000   0.00004   0.00004   1.89172
   A38        1.90216   0.00001   0.00000   0.00007   0.00007   1.90223
   A39        1.90136   0.00002   0.00000   0.00007   0.00007   1.90143
   A40        1.90542  -0.00001   0.00000  -0.00004  -0.00004   1.90539
   A41        1.90340  -0.00000   0.00000  -0.00001  -0.00001   1.90339
   A42        1.93529  -0.00001   0.00000  -0.00007  -0.00007   1.93522
   A43        1.89865   0.00000   0.00000   0.00001   0.00001   1.89867
   A44        1.90918   0.00001   0.00000   0.00006   0.00006   1.90924
   A45        1.91150   0.00001   0.00000   0.00005   0.00005   1.91155
   A46        1.90930   0.00001   0.00000   0.00010   0.00010   1.90940
   A47        1.94245  -0.00004   0.00000  -0.00030  -0.00030   1.94215
   A48        1.89586   0.00000   0.00000   0.00001   0.00001   1.89588
   A49        1.90312   0.00001   0.00000   0.00008   0.00008   1.90320
   A50        1.90044  -0.00000   0.00000   0.00005   0.00005   1.90048
   A51        1.91223   0.00002   0.00000   0.00006   0.00006   1.91230
   A52        3.02904  -0.00019   0.00000  -0.00273  -0.00273   3.02631
   A53        2.97017  -0.00027   0.00000  -0.00429  -0.00429   2.96588
   A54        2.95979  -0.00026   0.00000  -0.00456  -0.00456   2.95523
   A55        3.08853   0.00022   0.00000   0.00425   0.00425   3.09278
   A56        3.20253  -0.00013   0.00000  -0.00240  -0.00240   3.20013
   A57        2.97885  -0.00023   0.00000  -0.00423  -0.00422   2.97463
   A58        3.19212   0.00024   0.00000   0.00215   0.00215   3.19426
   A59        3.03445  -0.00024   0.00000  -0.00246  -0.00246   3.03199
   A60        3.16630  -0.00009   0.00000  -0.00167  -0.00167   3.16463
   A61        3.06629   0.00013   0.00000   0.00257   0.00257   3.06887
    D1        1.85836   0.00009   0.00000   0.00850   0.00850   1.86685
    D2       -1.29424   0.00007   0.00000   0.00226   0.00226  -1.29198
    D3       -2.97537  -0.00010   0.00000   0.00544   0.00545  -2.96993
    D4        0.15521  -0.00012   0.00000  -0.00080  -0.00079   0.15442
    D5       -1.38478  -0.00003   0.00000   0.00656   0.00656  -1.37822
    D6        1.74580  -0.00005   0.00000   0.00032   0.00032   1.74613
    D7        0.32915   0.00012   0.00000   0.00906   0.00906   0.33821
    D8       -2.82345   0.00010   0.00000   0.00282   0.00282  -2.82063
    D9        1.55863   0.00013   0.00000   0.00363   0.00363   1.56226
   D10       -0.52009   0.00013   0.00000   0.00344   0.00344  -0.51665
   D11       -2.63856   0.00014   0.00000   0.00355   0.00355  -2.63500
   D12        2.98808  -0.00013   0.00000  -0.00131  -0.00131   2.98676
   D13        0.90936  -0.00013   0.00000  -0.00151  -0.00151   0.90785
   D14       -1.20911  -0.00013   0.00000  -0.00139  -0.00139  -1.21050
   D15       -1.75289  -0.00014   0.00000  -0.00106  -0.00106  -1.75395
   D16        2.45158  -0.00014   0.00000  -0.00125  -0.00125   2.45033
   D17        0.33311  -0.00013   0.00000  -0.00113  -0.00113   0.33198
   D18        0.03276   0.00014   0.00000   0.00340   0.00340   0.03617
   D19       -2.04595   0.00014   0.00000   0.00321   0.00321  -2.04274
   D20        2.11876   0.00014   0.00000   0.00333   0.00333   2.12209
   D21        3.11173   0.00001   0.00000   0.00299   0.00299   3.11472
   D22        0.93865   0.00001   0.00000   0.00304   0.00304   0.94169
   D23       -1.00850   0.00001   0.00000   0.00300   0.00301  -1.00550
   D24       -0.04058  -0.00001   0.00000  -0.00309  -0.00309  -0.04366
   D25       -2.21366  -0.00001   0.00000  -0.00304  -0.00304  -2.21670
   D26        2.12238  -0.00001   0.00000  -0.00307  -0.00307   2.11931
   D27       -3.14140   0.00001   0.00000   0.00020   0.00020  -3.14120
   D28       -1.04766   0.00001   0.00000   0.00017   0.00017  -1.04749
   D29        1.04589   0.00001   0.00000   0.00020   0.00020   1.04609
   D30       -1.01755  -0.00000   0.00000   0.00002   0.00002  -1.01753
   D31        1.07619  -0.00000   0.00000  -0.00001  -0.00001   1.07618
   D32       -3.11344  -0.00000   0.00000   0.00002   0.00002  -3.11342
   D33        1.02791  -0.00000   0.00000   0.00007   0.00007   1.02798
   D34        3.12165  -0.00000   0.00000   0.00004   0.00004   3.12169
   D35       -1.06798  -0.00000   0.00000   0.00007   0.00007  -1.06791
   D36        1.02977  -0.00002   0.00000  -0.00021  -0.00021   1.02955
   D37       -1.04434  -0.00002   0.00000  -0.00035  -0.00035  -1.04468
   D38        3.13591  -0.00002   0.00000  -0.00021  -0.00021   3.13570
   D39       -3.05849   0.00001   0.00000   0.00005   0.00005  -3.05844
   D40        1.15059  -0.00000   0.00000  -0.00008  -0.00008   1.15051
   D41       -0.95235   0.00001   0.00000   0.00005   0.00005  -0.95229
   D42       -1.17215   0.00002   0.00000   0.00017   0.00017  -1.17198
   D43        3.03693   0.00001   0.00000   0.00004   0.00004   3.03697
   D44        0.93400   0.00002   0.00000   0.00018   0.00018   0.93417
   D45        1.04172   0.00001   0.00000   0.00065   0.00065   1.04237
   D46       -1.03065   0.00001   0.00000   0.00066   0.00066  -1.02999
   D47       -3.13684   0.00001   0.00000   0.00065   0.00065  -3.13619
   D48       -1.14568   0.00002   0.00000   0.00057   0.00057  -1.14511
   D49        3.06514   0.00002   0.00000   0.00058   0.00058   3.06572
   D50        0.95894   0.00002   0.00000   0.00058   0.00058   0.95952
   D51       -3.01939  -0.00002   0.00000   0.00030   0.00030  -3.01909
   D52        1.19143  -0.00002   0.00000   0.00031   0.00031   1.19174
   D53       -0.91477  -0.00002   0.00000   0.00030   0.00030  -0.91446
   D54       -1.07964   0.00001   0.00000   0.00011   0.00011  -1.07953
   D55        3.09939   0.00001   0.00000   0.00014   0.00014   3.09953
   D56        0.99271   0.00001   0.00000   0.00023   0.00023   0.99295
   D57        1.11245  -0.00001   0.00000  -0.00007  -0.00007   1.11237
   D58       -0.99171  -0.00000   0.00000  -0.00005  -0.00005  -0.99175
   D59       -3.09838   0.00000   0.00000   0.00005   0.00005  -3.09833
   D60        2.98374  -0.00001   0.00000   0.00008   0.00008   2.98383
   D61        0.87959  -0.00001   0.00000   0.00011   0.00011   0.87970
   D62       -1.22709   0.00000   0.00000   0.00021   0.00021  -1.22688
         Item               Value     Threshold  Converged?
 Maximum Force            0.000579     0.000450     NO 
 RMS     Force            0.000126     0.000300     YES
 Maximum Displacement     0.012843     0.001800     NO 
 RMS     Displacement     0.002895     0.001200     NO 
 Predicted change in Energy=-1.279993D-05
 Lowest energy point so far.  Saving SCF results.
 GradGradGradGradGradGradGradGradGradGradGradGradGradGradGradGradGradGrad

 Leave Link  103 at Tue Oct  4 17:51:56 2022, MaxMem=  2952790016 cpu:               1.4 elap:               0.2
 (Enter /mnt/data/applications/G16/g16/l202.exe)
                          Input orientation:                          
 ---------------------------------------------------------------------
 Center     Atomic      Atomic             Coordinates (Angstroms)
 Number     Number       Type             X           Y           Z
 ---------------------------------------------------------------------
      1          1           0        0.136599   -0.417432   -1.777539
      2          1           0        0.917900   -1.990224   -0.627143
      3         45           0       -0.010886   -0.760993   -0.224626
      4          6           0        1.766364    0.341156   -0.125655
      5          8           0        1.807989    1.459279    0.332433
      6          6           0        3.041235   -0.313545   -0.632202
      7          6           0        4.280745    0.560230   -0.561648
      8          1           0        2.836103   -0.647079   -1.652655
      9          1           0        3.165157   -1.234399   -0.053826
     10          1           0        5.147875    0.017374   -0.942990
     11          1           0        4.159807    1.467205   -1.155820
     12          1           0        4.494278    0.865251    0.463586
     13          6           0        0.203123   -1.172581    1.670371
     14          8           0        0.387546   -1.413460    2.761461
     15         15           0       -1.277426    1.262510   -0.000158
     16          6           0       -3.067114    1.065079   -0.260716
     17          6           0       -0.839671    2.579807   -1.166265
     18          6           0       -1.182600    2.062337    1.626218
     19          1           0       -1.585935    1.389663    2.385074
     20          1           0       -1.747411    2.996638    1.641815
     21          1           0       -0.136437    2.264510    1.854147
     22          1           0       -3.466345    0.345816    0.456295
     23          1           0       -3.249090    0.684934   -1.267246
     24          1           0       -3.591556    2.015087   -0.140432
     25          1           0       -0.991541    2.221414   -2.184817
     26          1           0        0.211093    2.834212   -1.037097
     27          1           0       -1.453239    3.467359   -0.998986
     28          6           0       -1.535083   -1.898376   -0.702041
     29          8           0       -2.358852   -2.587146   -1.059180
 ---------------------------------------------------------------------
                    Distance matrix (angstroms):
                    1          2          3          4          5
     1  H    0.000000
     2  H    2.099409   0.000000
     3  Rh   1.597287   1.592379   0.000000
     4  C    2.441375   2.531149   2.093596   0.000000
     5  O    3.281397   3.689460   2.923735   1.209039   0.000000
     6  C    3.124019   2.705519   3.111554   1.520040   2.365232
     7  C    4.428110   4.221117   4.503033   2.561288   2.778884
     8  H    2.712131   2.556407   3.187097   2.110138   3.071537
     9  H    3.579215   2.439288   3.215670   2.108117   3.040889
    10  H    5.098863   4.692856   5.266375   3.493921   3.854949
    11  H    4.486044   4.768991   4.819405   2.838625   2.783166
    12  H    5.065302   4.704669   4.838885   2.839612   2.754309
    13  C    3.530263   2.541263   1.950953   2.821495   3.360410
    14  O    4.653769   3.478012   3.082398   3.649008   4.021251
    15  P    2.825023   3.974021   2.397723   3.182656   3.109520
    16  C    3.842183   5.034826   3.560389   4.889255   4.926849
    17  C    3.210950   4.925940   3.568544   3.589686   3.242188
    18  C    4.413061   5.090480   3.573476   3.837696   3.313786
    19  H    4.853871   5.173613   3.730500   4.317526   3.966976
    20  H    5.186266   6.092688   4.540806   4.745751   4.088866
    21  H    4.522887   5.036981   3.672972   3.352544   2.597075
    22  H    4.307409   5.084537   3.691731   5.264972   5.392006
    23  H    3.597013   4.992996   3.696448   5.155211   5.360283
    24  H    4.743038   6.050999   4.531545   5.613338   5.448633
    25  H    2.898635   4.879570   3.701187   3.921933   3.841193
    26  H    3.335714   4.893140   3.692544   3.076511   2.513192
    27  H    4.269113   5.962027   4.534200   4.571837   4.054710
    28  C    2.478792   2.455844   1.960801   4.030791   4.849753
    29  O    3.383929   3.358582   3.089378   5.144300   5.972662
                    6          7          8          9         10
     6  C    0.000000
     7  C    1.518172   0.000000
     8  H    1.093000   2.175978   0.000000
     9  H    1.094462   2.173272   1.734784   0.000000
    10  H    2.155000   1.091800   2.507869   2.507732   0.000000
    11  H    2.167129   1.090995   2.543469   3.082594   1.767366
    12  H    2.168328   1.090752   3.084666   2.538269   1.767637
    13  C    3.754287   4.961002   4.272147   3.427875   5.718061
    14  O    4.446215   5.485937   5.105604   3.958918   6.199272
    15  P    4.640502   5.630429   4.826842   5.096467   6.612396
    16  C    6.273000   7.371327   6.302139   6.646172   8.309586
    17  C    4.870127   5.537410   4.915352   5.641306   6.516641
    18  C    5.346593   6.073814   5.851660   5.709116   7.131452
    19  H    5.780620   6.617330   6.325029   5.950362   7.635665
    20  H    6.249769   6.865130   6.718543   6.701508   7.943690
    21  H    4.788100   5.315273   5.441599   5.175253   6.387295
    22  H    6.630851   7.816622   6.719699   6.836236   8.733307
    23  H    6.400659   7.563851   6.241184   6.804322   8.429697
    24  H    7.046863   8.016679   7.119603   7.497988   9.000700
    25  H    5.009981   5.761181   4.812724   5.810500   6.640207
    26  H    4.252296   4.686056   4.403292   5.123174   5.684650
    27  H    5.884731   6.443697   5.979493   6.658035   7.448505
    28  C    4.843475   6.315719   4.645070   4.790960   6.956297
    29  O    5.874735   7.364628   5.577063   5.775407   7.946569
                   11         12         13         14         15
    11  H    0.000000
    12  H    1.759743   0.000000
    13  C    5.532737   4.901337   0.000000
    14  O    6.154127   5.228576   1.132480   0.000000
    15  P    5.562460   5.803916   3.303386   4.190404   0.000000
    16  C    7.293237   7.598631   4.408023   5.216453   1.819300
    17  C    5.121794   5.834991   4.818126   5.734045   1.812928
    18  C    6.052705   5.917066   3.519499   3.979359   1.814887
    19  H    6.749629   6.398133   3.205716   3.448737   2.408459
    20  H    6.712761   6.699979   4.603020   5.025994   2.433960
    21  H    5.305969   5.033398   3.458709   3.824296   2.396728
    22  H    7.874936   7.977555   4.152650   4.822998   2.416618
    23  H    7.450915   7.936501   4.898748   5.818837   2.413829
    24  H    7.836760   8.189485   5.276345   6.000763   2.437467
    25  H    5.306982   6.240787   5.273415   6.291253   2.402908
    26  H    4.180329   4.947174   4.835787   5.701131   2.400245
    27  H    5.960831   6.654550   5.603396   6.430540   2.426917
    28  C    6.630597   6.734205   3.029270   3.990926   3.248111
    29  O    7.677240   7.823250   4.001894   4.849488   4.136527
                   16         17         18         19         20
    16  C    0.000000
    17  C    2.841817   0.000000
    18  C    2.847181   2.860654   0.000000
    19  H    3.049500   3.819079   1.091344   0.000000
    20  H    3.015321   2.980446   1.091868   1.777886   0.000000
    21  H    3.807906   3.117185   1.089625   1.774341   1.782228
    22  H    1.091251   3.810884   3.087176   2.888900   3.374470
    23  H    1.091205   3.066928   3.813104   4.074576   4.007699
    24  H    1.091798   2.990671   2.987700   3.285095   2.746036
    25  H    3.057333   1.090394   3.819136   4.682843   3.976862
    26  H    3.805160   1.088811   3.103453   4.126413   3.322453
    27  H    2.986735   1.091877   2.989821   3.973197   2.698509
    28  C    3.365108   4.555570   4.607850   4.510439   5.431382
    29  O    3.804986   5.386722   5.496601   5.317451   6.232806
                   21         22         23         24         25
    21  H    0.000000
    22  H    4.089458   0.000000
    23  H    4.682603   1.769970   0.000000
    24  H    3.997299   1.777140   1.776598   0.000000
    25  H    4.128716   4.076518   2.880840   3.313934   0.000000
    26  H    2.967260   4.684643   4.079857   3.991880   1.771753
    27  H    3.364697   3.989294   3.322489   2.723712   1.780937
    28  C    5.081331   3.179294   3.151312   4.456419   4.412112
    29  O    6.079898   3.482164   3.397399   4.852237   5.124339
                   26         27         28         29
    26  H    0.000000
    27  H    1.781103   0.000000
    28  C    5.055569   5.374568   0.000000
    29  O    5.999685   6.122155   1.131613   0.000000
 Stoichiometry    C8H16O3PRh
 Framework group  C1[X(C8H16O3PRh)]
 Deg. of freedom    81
 Full point group                 C1      NOp   1
 RotChk:  IX=0 Diff= 1.82D-03
 Largest Abelian subgroup         C1      NOp   1
 Largest concise Abelian subgroup C1      NOp   1
                         Standard orientation:                         
 ---------------------------------------------------------------------
 Center     Atomic      Atomic             Coordinates (Angstroms)
 Number     Number       Type             X           Y           Z
 ---------------------------------------------------------------------
      1          1           0        0.136334   -0.416997   -1.779170
      2          1           0        0.916032   -1.991075   -0.629445
      3         45           0       -0.011143   -0.760828   -0.226316
      4          6           0        1.767477    0.339124   -0.127515
      5          8           0        1.810591    1.457061    0.330886
      6          6           0        3.041409   -0.316985   -0.634603
      7          6           0        4.282003    0.555257   -0.564137
      8          1           0        2.835590   -0.649972   -1.655096
      9          1           0        3.164367   -1.238157   -0.056528
     10          1           0        5.148365    0.011455   -0.945875
     11          1           0        4.162008    1.462551   -1.158013
     12          1           0        4.496190    0.859721    0.461127
     13          6           0        0.202885   -1.173227    1.668503
     14          8           0        0.387314   -1.414648    2.759472
     15         15           0       -1.275152    1.264152   -0.000912
     16          6           0       -3.065151    1.068979   -0.261035
     17          6           0       -0.836112    2.581252   -1.166759
     18          6           0       -1.178904    2.063391    1.625669
     19          1           0       -1.582850    1.390988    2.384441
     20          1           0       -1.742571    2.998376    1.641692
     21          1           0       -0.132432    2.264221    1.853368
     22          1           0       -3.465062    0.349995    0.455877
     23          1           0       -3.247868    0.689348   -1.267625
     24          1           0       -3.588401    2.019591   -0.140331
     25          1           0       -0.988699    2.223341   -2.185373
     26          1           0        0.214997    2.834338   -1.037806
     27          1           0       -1.448551    3.469503   -0.999054
     28          6           0       -1.536857   -1.896213   -0.703641
     29          8           0       -2.361563   -2.583875   -1.060752
 ---------------------------------------------------------------------
 Rotational constants (GHZ):           0.6183664           0.4463731           0.3601046
 Leave Link  202 at Tue Oct  4 17:51:57 2022, MaxMem=  2952790016 cpu:               0.1 elap:               0.0
 (Enter /mnt/data/applications/G16/g16/l301.exe)
 Basis read from rwf:  (5D, 7F)
 Pseudo-potential data read from rwf file.
 There are   573 symmetry adapted cartesian basis functions of A   symmetry.
 There are   510 symmetry adapted basis functions of A   symmetry.
   510 basis functions,   823 primitive gaussians,   573 cartesian basis functions
    60 alpha electrons       60 beta electrons
       nuclear repulsion energy      1115.7075038459 Hartrees.
 IExCor= 4639 DFT=T Ex+Corr=wB97XD ExCW=0 ScaHFX=  1.000000
 ScaDFX=  1.000000  1.000000  1.000000  1.000000 ScalE2=  1.000000  1.000000
 IRadAn=      5 IRanWt=     -1 IRanGd=            0 ICorTp=0 IEmpDi=121
 HFx  wShort=  0.000000 wLong=  0.200000 cFull=  0.222036 cShort=  0.000000 cLong=  0.777964
 DFx  wShort=  0.000000 wLong=  0.200000 cFull=  0.000000 cShort=  0.000000 cLong=  1.000000
 NAtoms=   29 NActive=   29 NUniq=   29 SFac= 1.00D+00 NAtFMM=   60 NAOKFM=F Big=F
 Integral buffers will be    131072 words long.
 Raffenetti 2 integral format.
 Two-electron integral symmetry is turned on.
 R6Disp:  Grimme-D2 Dispersion energy=       -0.0243136006 Hartrees.
 Nuclear repulsion after empirical dispersion term =     1115.6831902453 Hartrees.
 No density basis found on file   724.
 ------------------------------------------------------------------------------
 Polarizable Continuum Model (PCM)
 =================================
 Model                : PCM.
 Atomic radii         : SMD-Coulomb.
 Polarization charges : Total charges.
 Charge compensation  : None.
 Solution method      : On-the-fly selection.
 Cavity type          : VdW (van der Waals Surface) (Alpha=1.000).
 Cavity algorithm     : GePol (No added spheres)
                        Default sphere list used, NSphG=   29.
                        Lebedev-Laikov grids with approx.  5.0 points / Ang**2.
                        Smoothing algorithm: York/Karplus (Gamma=1.0000).
                        Polarization charges: spherical gaussians, with
                                              point-specific exponents (IZeta= 3).
                        Self-potential: point-specific (ISelfS= 7).
                        Self-field    : sphere-specific E.n sum rule (ISelfD= 2).
 1st derivatives      : Analytical E(r).r(x)/FMM algorithm (CHGder, D1EAlg=3).
                        Cavity 1st derivative terms included.
 Solvent              : Toluene, Eps=   2.374100 Eps(inf)=   2.238315
 ------------------------------------------------------------------------------
 GePol: Number of generator spheres                  =      29
 GePol: Total number of spheres                      =      29
 GePol: Number of exposed spheres                    =      29 (100.00%)
 GePol: Number of points                             =    2544
 GePol: Average weight of points                     =       0.12
 GePol: Minimum weight of points                     =   0.70D-09
 GePol: Maximum weight of points                     =    0.20615
 GePol: Number of points with low weight             =     137
 GePol: Fraction of low-weight points (<1% of avg)   =       5.39%
 GePol: Cavity surface area                          =    306.625 Ang**2
 GePol: Cavity volume                                =    292.743 Ang**3
 ------------------------------------------------------------------------------
 Atomic radii for non-electrostatic terms: SMD-CDS.
 ------------------------------------------------------------------------------
 PCM non-electrostatic energy =        -0.0005741967 Hartrees.
 Nuclear repulsion after PCM non-electrostatic terms =     1115.6826160486 Hartrees.
 Leave Link  301 at Tue Oct  4 17:51:57 2022, MaxMem=  2952790016 cpu:               1.9 elap:               0.2
 (Enter /mnt/data/applications/G16/g16/l302.exe)
 NPDir=0 NMtPBC=     1 NCelOv=     1 NCel=       1 NClECP=     1 NCelD=      1
         NCelK=      1 NCelE2=     1 NClLst=     1 CellRange=     0.0.
 One-electron integrals computed using PRISM.
 One-electron integral symmetry used in STVInt
   1 Symmetry operations used in ECPInt.
 ECPInt:  NShTT=   22578 NPrTT=   66767 LenC2=   20931 LenP2D=   46143.
 LDataN:  DoStor=T MaxTD1= 7 Len=  274
 NBasis=   510 RedAO= T EigKep=  1.36D-04  NBF=   510
 NBsUse=   510 1.00D-06 EigRej= -1.00D+00 NBFU=   510
 Precomputing XC quadrature grid using
 IXCGrd= 4 IRadAn=           5 IRanWt=          -1 IRanGd=           0 AccXCQ= 0.00D+00.
 Defaulting to unpruned grid for atomic number  45.
 Generated NRdTot=       0 NPtTot=           0 NUsed=           0 NTot=          32
 NSgBfM=   570   570   570   570   570 MxSgAt=    29 MxSgA2=    29.
 Leave Link  302 at Tue Oct  4 17:51:59 2022, MaxMem=  2952790016 cpu:              19.7 elap:               1.7
 (Enter /mnt/data/applications/G16/g16/l303.exe)
 DipDrv:  MaxL=1.
 Leave Link  303 at Tue Oct  4 17:51:59 2022, MaxMem=  2952790016 cpu:               1.2 elap:               0.1
 (Enter /mnt/data/applications/G16/g16/l401.exe)
 Initial guess from the checkpoint file:  "I8.chk"
 B after Tr=     0.000000   -0.000000   -0.000000
         Rot=    1.000000   -0.000089   -0.000037    0.000643 Ang=  -0.07 deg.
 Guess basis will be translated and rotated to current coordinates.
 JPrj=2 DoOrth=T DoCkMO=T.
 Leave Link  401 at Tue Oct  4 17:52:00 2022, MaxMem=  2952790016 cpu:              12.3 elap:               1.1
 (Enter /mnt/data/applications/G16/g16/l502.exe)
 Integral symmetry usage will be decided dynamically.
 Closed shell SCF:
 Using DIIS extrapolation, IDIIS=  1040.
 NGot=  2952790016 LenX=  2952121135 LenY=  2951792233
 Requested convergence on RMS density matrix=1.00D-08 within 128 cycles.
 Requested convergence on MAX density matrix=1.00D-06.
 Requested convergence on             energy=1.00D-06.
 No special actions if energy rises.
 Fock matrices will be formed incrementally for  20 cycles.

 Cycle   1  Pass 1  IDiag  1:
 FoFJK:  IHMeth= 1 ICntrl=       0 DoSepK=T KAlg= 0 I1Cent=           0 FoldK=F
 IRaf=         1 NMat=       1 IRICut=       1 DoRegI=T DoRafI=F ISym2E= 0 IDoP0=0 IntGTp=1.
 FoFCou: FMM=F IPFlag=           0 FMFlag=      100000 FMFlg1=           0
         NFxFlg=           0 DoJE=T BraDBF=F KetDBF=F FulRan=T
         wScrn=  0.000000 ICntrl=       500 IOpCl=  0 I1Cent=           0 NGrid=           0
         NMat0=    1 NMatS0=      1 NMatT0=    0 NMatD0=    1 NMtDS0=    0 NMtDT0=    0
 Symmetry not used in FoFCou.
 Defaulting to unpruned grid for atomic number  45.
 Defaulting to unpruned grid for atomic number  45.
 Defaulting to unpruned grid for atomic number  45.
 Defaulting to unpruned grid for atomic number  45.
 Defaulting to unpruned grid for atomic number  45.
 Defaulting to unpruned grid for atomic number  45.
 Defaulting to unpruned grid for atomic number  45.
 Defaulting to unpruned grid for atomic number  45.
 Defaulting to unpruned grid for atomic number  45.
 Defaulting to unpruned grid for atomic number  45.
 Defaulting to unpruned grid for atomic number  45.
 Defaulting to unpruned grid for atomic number  45.
 Inv3:  Mode=1 IEnd=    19415808.
 Iteration    1 A*A^-1 deviation from unit magnitude is 2.44D-15 for   1140.
 Iteration    1 A*A^-1 deviation from orthogonality  is 1.24D-15 for   1229    602.
 Iteration    1 A^-1*A deviation from unit magnitude is 2.22D-15 for   1140.
 Iteration    1 A^-1*A deviation from orthogonality  is 1.84D-15 for   1572   1393.
 E= -992.224901448667    
 DIIS: error= 2.31D-04 at cycle   1 NSaved=   1.
 NSaved= 1 IEnMin= 1 EnMin= -992.224901448667     IErMin= 1 ErrMin= 2.31D-04
 ErrMax= 2.31D-04  0.00D+00 EMaxC= 1.00D-01 BMatC= 5.03D-05 BMatP= 5.03D-05
 IDIUse=3 WtCom= 9.98D-01 WtEn= 2.31D-03
 Coeff-Com:  0.100D+01
 Coeff-En:   0.100D+01
 Coeff:      0.100D+01
 Gap=     1.474 Goal=   None    Shift=    0.000
 RMSDP=1.85D-05 MaxDP=1.18D-03              OVMax= 1.23D-03

 Cycle   2  Pass 1  IDiag  1:
 RMSU=  1.85D-05    CP:  1.00D+00
 E= -992.224945002306     Delta-E=       -0.000043553638 Rises=F Damp=F
 DIIS: error= 4.36D-05 at cycle   2 NSaved=   2.
 NSaved= 2 IEnMin= 2 EnMin= -992.224945002306     IErMin= 2 ErrMin= 4.36D-05
 ErrMax= 4.36D-05  0.00D+00 EMaxC= 1.00D-01 BMatC= 1.53D-06 BMatP= 5.03D-05
 IDIUse=1 WtCom= 1.00D+00 WtEn= 0.00D+00
 Coeff-Com: -0.646D-01 0.106D+01
 Coeff:     -0.646D-01 0.106D+01
 Gap=     0.326 Goal=   None    Shift=    0.000
 RMSDP=5.57D-06 MaxDP=3.51D-04 DE=-4.36D-05 OVMax= 5.46D-04

 Cycle   3  Pass 1  IDiag  1:
 RMSU=  5.22D-06    CP:  1.00D+00  1.10D+00
 E= -992.224947212583     Delta-E=       -0.000002210277 Rises=F Damp=F
 DIIS: error= 4.19D-05 at cycle   3 NSaved=   3.
 NSaved= 3 IEnMin= 3 EnMin= -992.224947212583     IErMin= 3 ErrMin= 4.19D-05
 ErrMax= 4.19D-05  0.00D+00 EMaxC= 1.00D-01 BMatC= 1.66D-06 BMatP= 1.53D-06
 IDIUse=1 WtCom= 1.00D+00 WtEn= 0.00D+00
 Coeff-Com: -0.532D-01 0.582D+00 0.471D+00
 Coeff:     -0.532D-01 0.582D+00 0.471D+00
 Gap=     0.326 Goal=   None    Shift=    0.000
 RMSDP=2.44D-06 MaxDP=3.06D-04 DE=-2.21D-06 OVMax= 3.08D-04

 Cycle   4  Pass 1  IDiag  1:
 RMSU=  2.02D-06    CP:  1.00D+00  1.13D+00  7.69D-01
 E= -992.224948186823     Delta-E=       -0.000000974241 Rises=F Damp=F
 DIIS: error= 2.76D-05 at cycle   4 NSaved=   4.
 NSaved= 4 IEnMin= 4 EnMin= -992.224948186823     IErMin= 4 ErrMin= 2.76D-05
 ErrMax= 2.76D-05  0.00D+00 EMaxC= 1.00D-01 BMatC= 4.94D-07 BMatP= 1.53D-06
 IDIUse=1 WtCom= 1.00D+00 WtEn= 0.00D+00
 Coeff-Com: -0.146D-01 0.340D-01 0.343D+00 0.637D+00
 Coeff:     -0.146D-01 0.340D-01 0.343D+00 0.637D+00
 Gap=     0.326 Goal=   None    Shift=    0.000
 RMSDP=1.57D-06 MaxDP=1.85D-04 DE=-9.74D-07 OVMax= 1.74D-04

 Cycle   5  Pass 1  IDiag  1:
 RMSU=  1.31D-06    CP:  1.00D+00  1.16D+00  7.99D-01  6.96D-01
 E= -992.224948582469     Delta-E=       -0.000000395646 Rises=F Damp=F
 DIIS: error= 9.00D-06 at cycle   5 NSaved=   5.
 NSaved= 5 IEnMin= 5 EnMin= -992.224948582469     IErMin= 5 ErrMin= 9.00D-06
 ErrMax= 9.00D-06  0.00D+00 EMaxC= 1.00D-01 BMatC= 7.95D-08 BMatP= 4.94D-07
 IDIUse=1 WtCom= 1.00D+00 WtEn= 0.00D+00
 Coeff-Com:  0.874D-03-0.883D-01 0.115D+00 0.382D+00 0.590D+00
 Coeff:      0.874D-03-0.883D-01 0.115D+00 0.382D+00 0.590D+00
 Gap=     0.326 Goal=   None    Shift=    0.000
 RMSDP=5.85D-07 MaxDP=7.43D-05 DE=-3.96D-07 OVMax= 6.18D-05

 Cycle   6  Pass 1  IDiag  1:
 RMSU=  3.31D-07    CP:  1.00D+00  1.17D+00  8.43D-01  8.96D-01  9.36D-01
 E= -992.224948656755     Delta-E=       -0.000000074286 Rises=F Damp=F
 DIIS: error= 2.62D-06 at cycle   6 NSaved=   6.
 NSaved= 6 IEnMin= 6 EnMin= -992.224948656755     IErMin= 6 ErrMin= 2.62D-06
 ErrMax= 2.62D-06  0.00D+00 EMaxC= 1.00D-01 BMatC= 7.86D-09 BMatP= 7.95D-08
 IDIUse=1 WtCom= 1.00D+00 WtEn= 0.00D+00
 Coeff-Com:  0.274D-02-0.506D-01 0.241D-02 0.862D-01 0.285D+00 0.675D+00
 Coeff:      0.274D-02-0.506D-01 0.241D-02 0.862D-01 0.285D+00 0.675D+00
 Gap=     0.326 Goal=   None    Shift=    0.000
 RMSDP=2.76D-07 MaxDP=2.29D-05 DE=-7.43D-08 OVMax= 3.50D-05

 Cycle   7  Pass 1  IDiag  1:
 RMSU=  1.48D-07    CP:  1.00D+00  1.17D+00  8.83D-01  9.26D-01  9.97D-01
                    CP:  9.49D-01
 E= -992.224948666553     Delta-E=       -0.000000009798 Rises=F Damp=F
 DIIS: error= 7.83D-07 at cycle   7 NSaved=   7.
 NSaved= 7 IEnMin= 7 EnMin= -992.224948666553     IErMin= 7 ErrMin= 7.83D-07
 ErrMax= 7.83D-07  0.00D+00 EMaxC= 1.00D-01 BMatC= 6.87D-10 BMatP= 7.86D-09
 IDIUse=1 WtCom= 1.00D+00 WtEn= 0.00D+00
 Coeff-Com:  0.632D-03 0.929D-03-0.196D-01-0.418D-01-0.240D-01 0.186D+00
 Coeff-Com:  0.898D+00
 Coeff:      0.632D-03 0.929D-03-0.196D-01-0.418D-01-0.240D-01 0.186D+00
 Coeff:      0.898D+00
 Gap=     0.326 Goal=   None    Shift=    0.000
 RMSDP=1.35D-07 MaxDP=8.31D-06 DE=-9.80D-09 OVMax= 1.95D-05

 Cycle   8  Pass 1  IDiag  1:
 RMSU=  5.61D-08    CP:  1.00D+00  1.17D+00  8.81D-01  9.49D-01  1.07D+00
                    CP:  1.11D+00  1.14D+00
 E= -992.224948668299     Delta-E=       -0.000000001746 Rises=F Damp=F
 DIIS: error= 2.51D-07 at cycle   8 NSaved=   8.
 NSaved= 8 IEnMin= 8 EnMin= -992.224948668299     IErMin= 8 ErrMin= 2.51D-07
 ErrMax= 2.51D-07  0.00D+00 EMaxC= 1.00D-01 BMatC= 7.92D-11 BMatP= 6.87D-10
 IDIUse=1 WtCom= 1.00D+00 WtEn= 0.00D+00
 Coeff-Com: -0.212D-03 0.796D-02-0.641D-02-0.234D-01-0.464D-01-0.443D-01
 Coeff-Com:  0.236D+00 0.876D+00
 Coeff:     -0.212D-03 0.796D-02-0.641D-02-0.234D-01-0.464D-01-0.443D-01
 Coeff:      0.236D+00 0.876D+00
 Gap=     0.326 Goal=   None    Shift=    0.000
 RMSDP=4.60D-08 MaxDP=3.95D-06 DE=-1.75D-09 OVMax= 9.44D-06

 Cycle   9  Pass 1  IDiag  1:
 RMSU=  2.06D-08    CP:  1.00D+00  1.17D+00  8.81D-01  9.55D-01  1.08D+00
                    CP:  1.17D+00  1.30D+00  1.17D+00
 E= -992.224948668446     Delta-E=       -0.000000000147 Rises=F Damp=F
 DIIS: error= 9.45D-08 at cycle   9 NSaved=   9.
 NSaved= 9 IEnMin= 9 EnMin= -992.224948668446     IErMin= 9 ErrMin= 9.45D-08
 ErrMax= 9.45D-08  0.00D+00 EMaxC= 1.00D-01 BMatC= 1.13D-11 BMatP= 7.92D-11
 IDIUse=1 WtCom= 1.00D+00 WtEn= 0.00D+00
 Coeff-Com: -0.113D-03 0.229D-02-0.345D-03-0.357D-02-0.116D-01-0.272D-01
 Coeff-Com: -0.323D-03 0.242D+00 0.799D+00
 Coeff:     -0.113D-03 0.229D-02-0.345D-03-0.357D-02-0.116D-01-0.272D-01
 Coeff:     -0.323D-03 0.242D+00 0.799D+00
 Gap=     0.326 Goal=   None    Shift=    0.000
 RMSDP=1.43D-08 MaxDP=1.09D-06 DE=-1.47D-10 OVMax= 3.81D-06

 Cycle  10  Pass 1  IDiag  1:
 RMSU=  7.75D-09    CP:  1.00D+00  1.17D+00  8.81D-01  9.56D-01  1.09D+00
                    CP:  1.18D+00  1.34D+00  1.29D+00  1.32D+00
 E= -992.224948668526     Delta-E=       -0.000000000080 Rises=F Damp=F
 DIIS: error= 6.68D-08 at cycle  10 NSaved=  10.
 NSaved=10 IEnMin=10 EnMin= -992.224948668526     IErMin=10 ErrMin= 6.68D-08
 ErrMax= 6.68D-08  0.00D+00 EMaxC= 1.00D-01 BMatC= 5.69D-12 BMatP= 1.13D-11
 IDIUse=1 WtCom= 1.00D+00 WtEn= 0.00D+00
 Coeff-Com:  0.628D-05-0.130D-02 0.186D-02 0.535D-02 0.851D-02-0.362D-03
 Coeff-Com: -0.763D-01-0.146D+00 0.446D+00 0.762D+00
 Coeff:      0.628D-05-0.130D-02 0.186D-02 0.535D-02 0.851D-02-0.362D-03
 Coeff:     -0.763D-01-0.146D+00 0.446D+00 0.762D+00
 Gap=     0.326 Goal=   None    Shift=    0.000
 RMSDP=1.01D-08 MaxDP=8.16D-07 DE=-7.96D-11 OVMax= 2.91D-06

 Cycle  11  Pass 1  IDiag  1:
 RMSU=  4.16D-09    CP:  1.00D+00  1.17D+00  8.81D-01  9.56D-01  1.09D+00
                    CP:  1.19D+00  1.36D+00  1.38D+00  1.64D+00  1.23D+00
 E= -992.224948668594     Delta-E=       -0.000000000068 Rises=F Damp=F
 DIIS: error= 1.85D-08 at cycle  11 NSaved=  11.
 NSaved=11 IEnMin=11 EnMin= -992.224948668594     IErMin=11 ErrMin= 1.85D-08
 ErrMax= 1.85D-08  0.00D+00 EMaxC= 1.00D-01 BMatC= 5.48D-13 BMatP= 5.69D-12
 IDIUse=1 WtCom= 1.00D+00 WtEn= 0.00D+00
 Coeff-Com:  0.218D-04-0.830D-03 0.675D-03 0.225D-02 0.469D-02 0.473D-02
 Coeff-Com: -0.237D-01-0.883D-01-0.127D-01 0.237D+00 0.876D+00
 Coeff:      0.218D-04-0.830D-03 0.675D-03 0.225D-02 0.469D-02 0.473D-02
 Coeff:     -0.237D-01-0.883D-01-0.127D-01 0.237D+00 0.876D+00
 Gap=     0.326 Goal=   None    Shift=    0.000
 RMSDP=4.52D-09 MaxDP=2.74D-07 DE=-6.78D-11 OVMax= 1.42D-06

 Error on total polarization charges =  0.02900
 SCF Done:  E(RwB97XD) =  -992.224948669     A.U. after   11 cycles
            NFock= 11  Conv=0.45D-08     -V/T= 2.0800
 KE= 9.187353891927D+02 PE=-4.538133920081D+03 EE= 1.511490966171D+03
 SMD-CDS (non-electrostatic) energy       (kcal/mol) =      -0.36
 (included in total energy above)
 Leave Link  502 at Tue Oct  4 18:04:04 2022, MaxMem=  2952790016 cpu:            8615.3 elap:             724.0
 (Enter /mnt/data/applications/G16/g16/l701.exe)
 ... and contract with generalized density number  0.
 Compute integral first derivatives.
 R6Disp: Adding Grimme-D2 dispersion energy 1st derivatives to the gradient.
   1 Symmetry operations used in ECPInt.
 ECPInt:  NShTT=   22578 NPrTT=   66767 LenC2=   20931 LenP2D=   46143.
 LDataN:  DoStor=T MaxTD1= 8 Len=  415
 D1PCM: PCM CHGder 1st derivatives, ID1Alg=3 FixD1E=F DoIter=F DoCFld=F I1PDM=0.
 GePol: Maximum number of non-zero 1st derivatives   =     421
 Leave Link  701 at Tue Oct  4 18:04:15 2022, MaxMem=  2952790016 cpu:             136.7 elap:              11.5
 (Enter /mnt/data/applications/G16/g16/l702.exe)
 L702 exits ... SP integral derivatives will be done elsewhere.
 Leave Link  702 at Tue Oct  4 18:04:15 2022, MaxMem=  2952790016 cpu:               0.2 elap:               0.0
 (Enter /mnt/data/applications/G16/g16/l703.exe)
 Integral derivatives from FoFJK, PRISM(SPDF).
 Compute integral first derivatives, UseDBF=F ICtDFT=           0.
 Calling FoFJK, ICntrl=      2127 FMM=F ISym2X=0 I1Cent= 0 IOpClX= 0 NMat=1 NMatS=1 NMatT=0.
 FoFJK:  IHMeth= 1 ICntrl=    2127 DoSepK=T KAlg= 0 I1Cent=           0 FoldK=F
 IRaf=         1 NMat=       1 IRICut=       1 DoRegI=T DoRafI=F ISym2E= 0 IDoP0=0 IntGTp=1.
 FoFCou: FMM=F IPFlag=           0 FMFlag=      100000 FMFlg1=         800
         NFxFlg=           0 DoJE=F BraDBF=F KetDBF=F FulRan=T
         wScrn=  0.000000 ICntrl=      2527 IOpCl=  0 I1Cent=           0 NGrid=           0
         NMat0=    1 NMatS0=      1 NMatT0=    0 NMatD0=    1 NMtDS0=    0 NMtDT0=    0
 Symmetry not used in FoFCou.
 Defaulting to unpruned grid for atomic number  45.
 Defaulting to unpruned grid for atomic number  45.
 Defaulting to unpruned grid for atomic number  45.
 Defaulting to unpruned grid for atomic number  45.
 Defaulting to unpruned grid for atomic number  45.
 Defaulting to unpruned grid for atomic number  45.
 Defaulting to unpruned grid for atomic number  45.
 Defaulting to unpruned grid for atomic number  45.
 Defaulting to unpruned grid for atomic number  45.
 Defaulting to unpruned grid for atomic number  45.
 Defaulting to unpruned grid for atomic number  45.
 Defaulting to unpruned grid for atomic number  45.
 Leave Link  703 at Tue Oct  4 18:08:46 2022, MaxMem=  2952790016 cpu:            3234.9 elap:             270.3
 (Enter /mnt/data/applications/G16/g16/l716.exe)
 Dipole        =-1.51278904D+00 8.28900795D-01 1.02745387D-01
 ***** Axes restored to original set *****
 -------------------------------------------------------------------
 Center     Atomic                   Forces (Hartrees/Bohr)
 Number     Number              X              Y              Z
 -------------------------------------------------------------------
      1        1           0.000054397   -0.000017162    0.000099472
      2        1           0.000018088   -0.000007743   -0.000086871
      3       45          -0.000125940    0.000136528   -0.000338233
      4        6           0.000283319    0.000152192    0.000663756
      5        8          -0.000088226   -0.000128630   -0.000316017
      6        6          -0.000073476    0.000012558   -0.000202112
      7        6          -0.000021614    0.000029952    0.000012022
      8        1           0.000029614   -0.000025623   -0.000013736
      9        1          -0.000035882    0.000038904    0.000010237
     10        1          -0.000012077   -0.000005532   -0.000000666
     11        1           0.000007963    0.000003453   -0.000000959
     12        1          -0.000002433   -0.000003843   -0.000002478
     13        6          -0.000283279   -0.000025223    0.000117720
     14        8           0.000171584    0.000021925   -0.000021286
     15       15           0.000134998   -0.000302320   -0.000015870
     16        6          -0.000007609    0.000028106   -0.000003983
     17        6          -0.000008547   -0.000009242    0.000013137
     18        6          -0.000010279    0.000036215   -0.000001150
     19        1           0.000004036    0.000001181   -0.000016070
     20        1          -0.000006035    0.000013608    0.000009210
     21        1          -0.000001816   -0.000001154   -0.000009698
     22        1           0.000014391    0.000003784   -0.000009396
     23        1           0.000005224    0.000002071   -0.000000741
     24        1          -0.000013546    0.000005685   -0.000005792
     25        1          -0.000002932    0.000003522   -0.000000710
     26        1           0.000017259    0.000011189   -0.000008292
     27        1           0.000015155    0.000003606    0.000002696
     28        6          -0.000151408    0.000041585    0.000265379
     29        8           0.000089071   -0.000019593   -0.000139568
 -------------------------------------------------------------------
 Cartesian Forces:  Max     0.000663756 RMS     0.000120035
 Leave Link  716 at Tue Oct  4 18:08:46 2022, MaxMem=  2952790016 cpu:               0.2 elap:               0.0
 (Enter /mnt/data/applications/G16/g16/l103.exe)

 GradGradGradGradGradGradGradGradGradGradGradGradGradGradGradGradGradGrad
 Berny optimization.
 Using GEDIIS/GDIIS optimizer.
 FormGI is forming the generalized inverse of G from B-inverse, IUseBI=4.
 Internal  Forces:  Max     0.000360122 RMS     0.000061176
 Search for a local minimum.
 Step number   2 out of a maximum of  161
 All quantities printed in internal units (Hartrees-Bohrs-Radians)
 RMS Force = .61176D-04 SwitMx=.10000D-02 MixMth= 2
 Mixed Optimization -- En-DIIS/RFO-DIIS
 Swapping is turned off.
 Update second derivatives using D2CorX and points    1    2
 DE= -1.08D-05 DEPred=-1.28D-05 R= 8.45D-01
 TightC=F SS=  1.41D+00  RLast= 2.49D-02 DXNew= 8.4090D-02 7.4582D-02
 Trust test= 8.45D-01 RLast= 2.49D-02 DXMaxT set to 7.46D-02
 ITU=  1  0
     Eigenvalues ---    0.00227   0.00230   0.00421   0.00501   0.00525
     Eigenvalues ---    0.00907   0.00966   0.00991   0.03669   0.03824
     Eigenvalues ---    0.03852   0.04125   0.05184   0.05230   0.05237
     Eigenvalues ---    0.05243   0.05411   0.05592   0.05639   0.05682
     Eigenvalues ---    0.05932   0.06007   0.06060   0.06135   0.06271
     Eigenvalues ---    0.06278   0.06361   0.07351   0.07698   0.09221
     Eigenvalues ---    0.09943   0.10870   0.11373   0.12138   0.12865
     Eigenvalues ---    0.13162   0.14020   0.14194   0.14314   0.15997
     Eigenvalues ---    0.16000   0.16000   0.16000   0.16000   0.16000
     Eigenvalues ---    0.16000   0.16000   0.16000   0.16000   0.16000
     Eigenvalues ---    0.16035   0.16640   0.16881   0.20069   0.20566
     Eigenvalues ---    0.21517   0.21940   0.24643   0.24968   0.24987
     Eigenvalues ---    0.25058   0.25123   0.30366   0.30543   0.34308
     Eigenvalues ---    0.34469   0.34596   0.34597   0.34604   0.34606
     Eigenvalues ---    0.34657   0.34670   0.34674   0.34697   0.34725
     Eigenvalues ---    0.34766   0.34856   0.34952   1.00180   1.47609
     Eigenvalues ---    1.48306
 En-DIIS/RFO-DIIS/Sim-DIIS IScMMF=       -3 using points:     2    1
 RFO step:  Lambda=-2.13094487D-05.
 NNeg= 0 NGDIIS= 2 SimSw=  2.50D-03 Rises=F DC= -1.08D-05 SmlDif=  1.00D-05
 NRisDI= 0 DoIntr=F SqrtH=F CThrHd= 10.0 CDAdj=  3.0
 RMS Error=  0.5002319049D-02 NUsed= 2 OKEnD=T EnDIS=F
 InvSVX:  RCond= 6.91D-04 Info=           0 Equed=N FErr=  1.76D-14 BErr=  0.00D+00
 DidBck=T Rises=F RFO-DIIS coefs:    0.38479    0.61521
 Iteration  1 RMS(Cart)=  0.01264002 RMS(Int)=  0.00005188
 Iteration  2 RMS(Cart)=  0.00010592 RMS(Int)=  0.00001995
 Iteration  3 RMS(Cart)=  0.00000000 RMS(Int)=  0.00001995
 ITry= 1 IFail=0 DXMaxC= 5.28D-02 DCOld= 1.00D+10 DXMaxT= 7.46D-02 DXLimC= 3.00D+00 Rises=F
 Variable       Old X    -DE/DX   Delta X   Delta X   Delta X     New X
                                 (Linear)    (Quad)   (Total)
    R1        3.01843  -0.00009  -0.00013  -0.00020  -0.00033   3.01811
    R2        3.00916   0.00004  -0.00134   0.00332   0.00198   3.01114
    R3        3.95632   0.00012  -0.00227   0.00600   0.00373   3.96006
    R4        3.68677   0.00008  -0.00138   0.00355   0.00217   3.68894
    R5        4.53104  -0.00025   0.00291  -0.00855  -0.00564   4.52540
    R6        3.70538   0.00000  -0.00159   0.00372   0.00213   3.70751
    R7        2.28475  -0.00024   0.00014  -0.00053  -0.00039   2.28436
    R8        2.87246  -0.00004   0.00003  -0.00019  -0.00016   2.87230
    R9        2.86893  -0.00001   0.00001  -0.00005  -0.00004   2.86889
   R10        2.06547   0.00002   0.00001   0.00002   0.00003   2.06550
   R11        2.06823  -0.00003  -0.00000  -0.00008  -0.00008   2.06815
   R12        2.06320  -0.00001   0.00001  -0.00004  -0.00003   2.06318
   R13        2.06168   0.00000   0.00001  -0.00002  -0.00001   2.06167
   R14        2.06122  -0.00001   0.00001  -0.00004  -0.00003   2.06119
   R15        2.14008   0.00000   0.00004  -0.00009  -0.00005   2.14003
   R16        3.43798  -0.00000   0.00015  -0.00035  -0.00020   3.43778
   R17        3.42594   0.00000   0.00008  -0.00018  -0.00009   3.42584
   R18        3.42964   0.00001   0.00012  -0.00025  -0.00013   3.42951
   R19        2.06217  -0.00001  -0.00001  -0.00002  -0.00003   2.06214
   R20        2.06208  -0.00000   0.00000  -0.00001  -0.00001   2.06207
   R21        2.06320   0.00001   0.00002  -0.00002   0.00000   2.06320
   R22        2.06055  -0.00000   0.00001  -0.00002  -0.00001   2.06053
   R23        2.05756   0.00002   0.00000   0.00004   0.00004   2.05760
   R24        2.06335  -0.00000   0.00000  -0.00001  -0.00001   2.06334
   R25        2.06234  -0.00001   0.00001  -0.00005  -0.00004   2.06230
   R26        2.06333   0.00001   0.00002  -0.00001   0.00001   2.06334
   R27        2.05909  -0.00000   0.00000  -0.00001  -0.00001   2.05908
   R28        2.13844  -0.00001   0.00002  -0.00006  -0.00004   2.13840
    A1        1.43682  -0.00005   0.00232  -0.00607  -0.00376   1.43307
    A2        1.42462  -0.00004   0.00304  -0.00748  -0.00444   1.42018
    A3        1.52905  -0.00000   0.00033  -0.00088  -0.00056   1.52850
    A4        1.53061   0.00004  -0.00023   0.00109   0.00085   1.53146
    A5        1.49392   0.00006   0.00213  -0.00461  -0.00248   1.49143
    A6        1.58949   0.00006  -0.00063   0.00215   0.00151   1.59100
    A7        1.51484   0.00002   0.00009   0.00011   0.00020   1.51505
    A8        1.54282   0.00003  -0.00017   0.00040   0.00024   1.54305
    A9        1.57051  -0.00011   0.00003  -0.00078  -0.00076   1.56975
   A10        1.71636  -0.00001  -0.00153   0.00361   0.00207   1.71844
   A11        1.77153  -0.00002  -0.00226   0.00520   0.00294   1.77447
   A12        1.67269   0.00003  -0.00136   0.00308   0.00172   1.67440
   A13        2.13411  -0.00001   0.00017  -0.00027  -0.00024   2.13387
   A14        2.05950  -0.00005  -0.00008   0.00015  -0.00006   2.05944
   A15        2.08945   0.00007  -0.00005   0.00053   0.00034   2.08979
   A16        2.00576  -0.00004  -0.00007  -0.00001  -0.00009   2.00568
   A17        1.85996   0.00005   0.00014   0.00010   0.00024   1.86020
   A18        1.85589  -0.00003  -0.00006  -0.00024  -0.00030   1.85559
   A19        1.95223  -0.00001  -0.00002   0.00006   0.00004   1.95227
   A20        1.94684   0.00004   0.00006  -0.00005   0.00002   1.94686
   A21        1.83163  -0.00001  -0.00005   0.00015   0.00010   1.83172
   A22        1.92414  -0.00002  -0.00001  -0.00012  -0.00012   1.92402
   A23        1.94191   0.00001   0.00003   0.00003   0.00006   1.94197
   A24        1.94385  -0.00000  -0.00003   0.00006   0.00003   1.94388
   A25        1.88721   0.00000   0.00000  -0.00002  -0.00002   1.88719
   A26        1.88794   0.00001   0.00001  -0.00001   0.00001   1.88795
   A27        1.87667  -0.00000  -0.00001   0.00006   0.00005   1.87672
   A28        1.99834   0.00002   0.00005   0.00020   0.00025   1.99859
   A29        2.01025  -0.00001  -0.00013   0.00014   0.00001   2.01026
   A30        2.01331   0.00001   0.00024  -0.00045  -0.00021   2.01310
   A31        1.79698  -0.00000  -0.00004   0.00005   0.00001   1.79699
   A32        1.80037  -0.00001  -0.00014   0.00036   0.00022   1.80059
   A33        1.81684  -0.00001  -0.00002  -0.00026  -0.00028   1.81657
   A34        1.91486  -0.00002  -0.00011   0.00017   0.00006   1.91492
   A35        1.91130  -0.00001   0.00003  -0.00012  -0.00009   1.91121
   A36        1.94155   0.00002   0.00019  -0.00032  -0.00013   1.94142
   A37        1.89172   0.00001  -0.00003   0.00006   0.00004   1.89175
   A38        1.90223   0.00000  -0.00004   0.00013   0.00009   1.90232
   A39        1.90143  -0.00000  -0.00004   0.00009   0.00004   1.90148
   A40        1.90539   0.00000   0.00002  -0.00002  -0.00000   1.90539
   A41        1.90339   0.00001   0.00001   0.00005   0.00006   1.90345
   A42        1.93522   0.00000   0.00004  -0.00009  -0.00005   1.93517
   A43        1.89867  -0.00001  -0.00001   0.00000  -0.00001   1.89866
   A44        1.90924  -0.00000  -0.00004   0.00009   0.00005   1.90929
   A45        1.91155  -0.00001  -0.00003  -0.00003  -0.00006   1.91149
   A46        1.90940  -0.00002  -0.00006   0.00005  -0.00002   1.90938
   A47        1.94215   0.00002   0.00018  -0.00028  -0.00010   1.94205
   A48        1.89588  -0.00001  -0.00001  -0.00006  -0.00007   1.89581
   A49        1.90320  -0.00000  -0.00005   0.00013   0.00008   1.90328
   A50        1.90048   0.00001  -0.00003   0.00008   0.00005   1.90053
   A51        1.91230  -0.00000  -0.00004   0.00010   0.00006   1.91235
   A52        3.02631   0.00001   0.00168  -0.00393  -0.00225   3.02406
   A53        2.96588  -0.00006   0.00264  -0.00696  -0.00432   2.96156
   A54        2.95523   0.00000   0.00280  -0.00639  -0.00359   2.95164
   A55        3.09278  -0.00036  -0.00261   0.00004  -0.00257   3.09021
   A56        3.20013   0.00017   0.00148  -0.00058   0.00089   3.20102
   A57        2.97463  -0.00002   0.00260  -0.00649  -0.00389   2.97074
   A58        3.19426   0.00004  -0.00132   0.00324   0.00192   3.19618
   A59        3.03199   0.00009   0.00151  -0.00273  -0.00121   3.03077
   A60        3.16463   0.00010   0.00103  -0.00065   0.00038   3.16501
   A61        3.06887  -0.00030  -0.00158  -0.00141  -0.00299   3.06587
    D1        1.86685  -0.00006  -0.00523  -0.00759  -0.01282   1.85404
    D2       -1.29198   0.00009  -0.00139   0.02036   0.01897  -1.27301
    D3       -2.96993  -0.00012  -0.00335  -0.01266  -0.01601  -2.98594
    D4        0.15442   0.00003   0.00049   0.01530   0.01578   0.17020
    D5       -1.37822  -0.00006  -0.00404  -0.01040  -0.01444  -1.39266
    D6        1.74613   0.00008  -0.00020   0.01756   0.01735   1.76348
    D7        0.33821  -0.00007  -0.00557  -0.00677  -0.01234   0.32587
    D8       -2.82063   0.00007  -0.00173   0.02119   0.01945  -2.80118
    D9        1.56226   0.00002  -0.00223   0.00352   0.00129   1.56354
   D10       -0.51665   0.00001  -0.00211   0.00318   0.00107  -0.51558
   D11       -2.63500   0.00003  -0.00219   0.00380   0.00162  -2.63339
   D12        2.98676  -0.00002   0.00081  -0.00394  -0.00313   2.98363
   D13        0.90785  -0.00002   0.00093  -0.00427  -0.00335   0.90450
   D14       -1.21050  -0.00000   0.00085  -0.00366  -0.00280  -1.21330
   D15       -1.75395  -0.00001   0.00065  -0.00367  -0.00302  -1.75696
   D16        2.45033  -0.00001   0.00077  -0.00400  -0.00323   2.44710
   D17        0.33198   0.00001   0.00070  -0.00338  -0.00269   0.32929
   D18        0.03617  -0.00003  -0.00209   0.00266   0.00057   0.03673
   D19       -2.04274  -0.00003  -0.00197   0.00233   0.00035  -2.04239
   D20        2.12209  -0.00001  -0.00205   0.00295   0.00090   2.12299
   D21        3.11472  -0.00008  -0.00184  -0.01479  -0.01663   3.09809
   D22        0.94169  -0.00007  -0.00187  -0.01493  -0.01681   0.92488
   D23       -1.00550  -0.00008  -0.00185  -0.01504  -0.01689  -1.02239
   D24       -0.04366   0.00006   0.00190   0.01242   0.01433  -0.02934
   D25       -2.21670   0.00007   0.00187   0.01227   0.01415  -2.20255
   D26        2.11931   0.00006   0.00189   0.01217   0.01406   2.13337
   D27       -3.14120  -0.00002  -0.00012   0.00005  -0.00007  -3.14127
   D28       -1.04749  -0.00002  -0.00010  -0.00003  -0.00014  -1.04763
   D29        1.04609  -0.00002  -0.00012   0.00011  -0.00002   1.04608
   D30       -1.01753   0.00001  -0.00001   0.00023   0.00022  -1.01731
   D31        1.07618   0.00000   0.00001   0.00014   0.00015   1.07633
   D32       -3.11342   0.00001  -0.00001   0.00028   0.00027  -3.11315
   D33        1.02798   0.00002  -0.00005   0.00042   0.00038   1.02836
   D34        3.12169   0.00001  -0.00003   0.00034   0.00031   3.12200
   D35       -1.06791   0.00002  -0.00004   0.00048   0.00043  -1.06748
   D36        1.02955   0.00000   0.00013  -0.00032  -0.00019   1.02936
   D37       -1.04468   0.00001   0.00021  -0.00043  -0.00022  -1.04490
   D38        3.13570   0.00001   0.00013  -0.00026  -0.00013   3.13558
   D39       -3.05844   0.00000  -0.00003   0.00001  -0.00002  -3.05846
   D40        1.15051   0.00001   0.00005  -0.00009  -0.00004   1.15046
   D41       -0.95229   0.00000  -0.00003   0.00008   0.00005  -0.95224
   D42       -1.17198  -0.00002  -0.00011  -0.00014  -0.00024  -1.17222
   D43        3.03697  -0.00001  -0.00002  -0.00024  -0.00027   3.03670
   D44        0.93417  -0.00001  -0.00011  -0.00007  -0.00018   0.93399
   D45        1.04237   0.00001  -0.00040   0.00148   0.00109   1.04345
   D46       -1.02999   0.00001  -0.00040   0.00146   0.00106  -1.02893
   D47       -3.13619   0.00001  -0.00040   0.00152   0.00112  -3.13507
   D48       -1.14511  -0.00001  -0.00035   0.00111   0.00076  -1.14435
   D49        3.06572  -0.00001  -0.00036   0.00109   0.00073   3.06645
   D50        0.95952  -0.00001  -0.00036   0.00115   0.00079   0.96031
   D51       -3.01909   0.00001  -0.00018   0.00079   0.00061  -3.01848
   D52        1.19174   0.00001  -0.00019   0.00077   0.00058   1.19232
   D53       -0.91446   0.00001  -0.00019   0.00083   0.00064  -0.91382
   D54       -1.07953  -0.00001  -0.00007   0.00003  -0.00004  -1.07957
   D55        3.09953  -0.00001  -0.00008   0.00002  -0.00006   3.09946
   D56        0.99295  -0.00002  -0.00014   0.00011  -0.00003   0.99292
   D57        1.11237   0.00002   0.00004   0.00027   0.00031   1.11269
   D58       -0.99175   0.00001   0.00003   0.00025   0.00028  -0.99147
   D59       -3.09833   0.00001  -0.00003   0.00035   0.00032  -3.09801
   D60        2.98383   0.00001  -0.00005   0.00035   0.00030   2.98413
   D61        0.87970   0.00000  -0.00007   0.00034   0.00027   0.87997
   D62       -1.22688  -0.00000  -0.00013   0.00044   0.00031  -1.22657
         Item               Value     Threshold  Converged?
 Maximum Force            0.000360     0.000450     YES
 RMS     Force            0.000061     0.000300     YES
 Maximum Displacement     0.052797     0.001800     NO 
 RMS     Displacement     0.012656     0.001200     NO 
 Predicted change in Energy=-1.070464D-05
 Lowest energy point so far.  Saving SCF results.
 GradGradGradGradGradGradGradGradGradGradGradGradGradGradGradGradGradGrad

 Leave Link  103 at Tue Oct  4 18:08:46 2022, MaxMem=  2952790016 cpu:               0.6 elap:               0.1
 (Enter /mnt/data/applications/G16/g16/l202.exe)
                          Input orientation:                          
 ---------------------------------------------------------------------
 Center     Atomic      Atomic             Coordinates (Angstroms)
 Number     Number       Type             X           Y           Z
 ---------------------------------------------------------------------
      1          1           0        0.146127   -0.419799   -1.764002
      2          1           0        0.917874   -1.992954   -0.614844
      3         45           0       -0.013773   -0.764401   -0.212727
      4          6           0        1.766544    0.336066   -0.108487
      5          8           0        1.805625    1.459453    0.336197
      6          6           0        3.037659   -0.311990   -0.632463
      7          6           0        4.273628    0.567875   -0.577705
      8          1           0        2.820755   -0.646059   -1.650319
      9          1           0        3.173645   -1.232399   -0.056174
     10          1           0        5.138218    0.029492   -0.970929
     11          1           0        4.140408    1.474620   -1.169589
     12          1           0        4.499279    0.873234    0.444814
     13          6           0        0.193762   -1.176697    1.684018
     14          8           0        0.377195   -1.417121    2.775348
     15         15           0       -1.274779    1.260000    0.002734
     16          6           0       -3.063182    1.067758   -0.269521
     17          6           0       -0.825596    2.575996   -1.160415
     18          6           0       -1.187908    2.059869    1.629459
     19          1           0       -1.597807    1.388460    2.385885
     20          1           0       -1.750249    2.995722    1.641247
     21          1           0       -0.142620    2.259195    1.863799
     22          1           0       -3.469223    0.349651    0.444798
     23          1           0       -3.239566    0.688188   -1.277259
     24          1           0       -3.585521    2.019352   -0.152666
     25          1           0       -0.972562    2.218317   -2.179929
     26          1           0        0.225238    2.826890   -1.024917
     27          1           0       -1.437148    3.465570   -0.996573
     28          6           0       -1.536464   -1.900890   -0.701573
     29          8           0       -2.356931   -2.588771   -1.067846
 ---------------------------------------------------------------------
                    Distance matrix (angstroms):
                    1          2          3          4          5
     1  H    0.000000
     2  H    2.095465   0.000000
     3  Rh   1.597114   1.593426   0.000000
     4  C    2.436762   2.530014   2.095572   0.000000
     5  O    3.270528   3.689403   2.925244   1.208830   0.000000
     6  C    3.106921   2.705445   3.113212   1.519954   2.365211
     7  C    4.406707   4.221411   4.504439   2.561127   2.778699
     8  H    2.686588   2.550939   3.180444   2.110255   3.067559
     9  H    3.569715   2.445211   3.225394   2.107784   3.044915
    10  H    5.074623   4.693440   5.267651   3.493705   3.854808
    11  H    4.460541   4.766186   4.815186   2.838569   2.778279
    12  H    5.049825   4.707905   4.845807   2.839460   2.758845
    13  C    3.530440   2.544677   1.952101   2.824034   3.371054
    14  O    4.653359   3.480995   3.083422   3.649721   4.032933
    15  P    2.821711   3.971252   2.394736   3.180514   3.104813
    16  C    3.840047   5.033489   3.557939   4.887490   4.921950
    17  C    3.206766   4.920634   3.565869   3.583717   3.226428
    18  C    4.409533   5.088869   3.570538   3.836762   3.315760
    19  H    4.851047   5.173682   3.727835   4.318365   3.973613
    20  H    5.182445   6.090625   4.537741   4.743751   4.087483
    21  H    4.518996   5.034789   3.670245   3.351604   2.601694
    22  H    4.305996   5.085003   3.689659   5.264937   5.391426
    23  H    3.595479   4.991155   3.694453   5.152781   5.352760
    24  H    4.740364   6.049196   4.528827   5.610704   5.442143
    25  H    2.895533   4.874222   3.699428   3.916176   3.824276
    26  H    3.330690   4.886594   3.689736   3.069149   2.494021
    27  H    4.265184   5.957125   4.531343   4.565757   4.039351
    28  C    2.480625   2.457596   1.961929   4.033062   4.851642
    29  O    3.384431   3.359250   3.090298   5.145686   5.973803
                    6          7          8          9         10
     6  C    0.000000
     7  C    1.518151   0.000000
     8  H    1.093014   2.176000   0.000000
     9  H    1.094420   2.173234   1.734827   0.000000
    10  H    2.154882   1.091786   2.507703   2.507727   0.000000
    11  H    2.167149   1.090990   2.543592   3.082576   1.767338
    12  H    2.168321   1.090737   3.084684   2.538107   1.767617
    13  C    3.768494   4.980384   4.277905   3.451242   5.740320
    14  O    4.462349   5.510478   5.113908   3.983939   6.228533
    15  P    4.633761   5.621456   4.810306   5.099412   6.602173
    16  C    6.265436   7.360274   6.282077   6.650884   8.296561
    17  C    4.852209   5.511278   4.890554   5.631799   6.487500
    18  C    5.347656   6.076676   5.843661   5.718701   7.134726
    19  H    5.787010   6.627969   6.320909   5.966515   7.647811
    20  H    6.247781   6.863329   6.707537   6.708426   7.941848
    21  H    4.791293   5.322101   5.437934   5.184125   6.394882
    22  H    6.628557   7.813122   6.704086   6.847010   8.728964
    23  H    6.389027   7.546650   6.216662   6.805071   8.409220
    24  H    7.037888   8.003353   7.098433   7.501301   8.985138
    25  H    4.987883   5.728314   4.782718   5.797311   6.602595
    26  H    4.232765   4.657532   4.380549   5.109736   5.653824
    27  H    5.867404   6.417558   5.955050   6.649412   7.419078
    28  C    4.842724   6.314057   4.632503   4.800891   6.953439
    29  O    5.871532   7.359957   5.560741   5.783640   7.939896
                   11         12         13         14         15
    11  H    0.000000
    12  H    1.759759   0.000000
    13  C    5.545139   4.926999   0.000000
    14  O    6.171424   5.260104   1.132455   0.000000
    15  P    5.544785   5.803858   3.304666   4.193255   0.000000
    16  C    7.270995   7.598614   4.411528   5.223222   1.819194
    17  C    5.086679   5.816395   4.817945   5.734276   1.812878
    18  C    6.047159   5.929215   3.519566   3.981466   1.814819
    19  H    6.750994   6.419320   3.206612   3.453056   2.408372
    20  H    6.701820   6.707683   4.603269   5.028458   2.433829
    21  H    5.306725   5.047934   3.456997   3.823144   2.396609
    22  H    7.859916   7.985685   4.157266   4.831964   2.416556
    23  H    7.422538   7.930290   4.902520   5.825540   2.413657
    24  H    7.811583   8.187464   5.279310   6.007140   2.437272
    25  H    5.264630   6.216074   5.274136   6.292299   2.402857
    26  H    4.144649   4.923851   4.834049   5.698837   2.400263
    27  H    5.924774   6.636187   5.603221   6.431167   2.426833
    28  C    6.621177   6.740932   3.034664   3.998138   3.248962
    29  O    7.664000   7.828233   4.009083   4.859872   4.138869
                   16         17         18         19         20
    16  C    0.000000
    17  C    2.841701   0.000000
    18  C    2.847290   2.860255   0.000000
    19  H    3.049812   3.818743   1.091323   0.000000
    20  H    3.015273   2.980011   1.091873   1.777924   0.000000
    21  H    3.807921   3.116519   1.089621   1.774351   1.782266
    22  H    1.091237   3.810786   3.087502   2.889488   3.374619
    23  H    1.091201   3.066712   3.813111   4.074846   4.007549
    24  H    1.091798   2.990418   2.987667   3.285311   2.745841
    25  H    3.056818   1.090386   3.818758   4.682547   3.976247
    26  H    3.805112   1.088834   3.103388   4.126275   3.322572
    27  H    2.986988   1.091871   2.989007   3.972558   2.697570
    28  C    3.366067   4.556136   4.608993   4.511760   5.432432
    29  O    3.808716   5.387799   5.500175   5.321926   6.236490
                   21         22         23         24         25
    21  H    0.000000
    22  H    4.089769   0.000000
    23  H    4.682455   1.769980   0.000000
    24  H    3.997152   1.777186   1.776623   0.000000
    25  H    4.128221   4.076078   2.880176   3.313146   0.000000
    26  H    2.966863   4.684636   4.079533   3.991844   1.771762
    27  H    3.363462   3.989465   3.322852   2.723827   1.780958
    28  C    5.082347   3.180354   3.152030   4.457379   4.412639
    29  O    6.082803   3.487063   3.400200   4.856108   5.124578
                   26         27         28         29
    26  H    0.000000
    27  H    1.781079   0.000000
    28  C    5.055695   5.375480   0.000000
    29  O    5.999902   6.124225   1.131592   0.000000
 Stoichiometry    C8H16O3PRh
 Framework group  C1[X(C8H16O3PRh)]
 Deg. of freedom    81
 Full point group                 C1      NOp   1
 RotChk:  IX=0 Diff= 8.29D-03
 Largest Abelian subgroup         C1      NOp   1
 Largest concise Abelian subgroup C1      NOp   1
                         Standard orientation:                         
 ---------------------------------------------------------------------
 Center     Atomic      Atomic             Coordinates (Angstroms)
 Number     Number       Type             X           Y           Z
 ---------------------------------------------------------------------
      1          1           0        0.148489   -0.412684   -1.771457
      2          1           0        0.909384   -1.994294   -0.626675
      3         45           0       -0.015726   -0.761767   -0.221635
      4          6           0        1.770783    0.327980   -0.110919
      5          8           0        1.815711    1.449562    0.337753
      6          6           0        3.038902   -0.325607   -0.635283
      7          6           0        4.279868    0.546875   -0.575623
      8          1           0        2.821588   -0.654856   -1.654621
      9          1           0        3.168688   -1.248797   -0.062019
     10          1           0        5.141909    0.004860   -0.969453
     11          1           0        4.152792    1.456438   -1.164526
     12          1           0        4.505756    0.847347    0.448290
     13          6           0        0.186579   -1.181879    1.673959
     14          8           0        0.366982   -1.427173    2.764711
     15         15           0       -1.265295    1.269153   -0.000951
     16          6           0       -3.054373    1.088243   -0.276516
     17          6           0       -0.806751    2.586573   -1.158824
     18          6           0       -1.176221    2.062820    1.628690
     19          1           0       -1.591136    1.391164    2.382155
     20          1           0       -1.733144    3.001873    1.642923
     21          1           0       -0.130147    2.255258    1.865268
     22          1           0       -3.465638    0.370015    0.434686
     23          1           0       -3.231448    0.713224   -1.285835
     24          1           0       -3.571361    2.042438   -0.157101
     25          1           0       -0.954263    2.233314   -2.179798
     26          1           0        0.245316    2.830891   -1.020898
     27          1           0       -1.413380    3.479104   -0.992771
     28          6           0       -1.544248   -1.887687   -0.716702
     29          8           0       -2.368139   -2.569513   -1.086591
 ---------------------------------------------------------------------
 Rotational constants (GHZ):           0.6168151           0.4465450           0.3605970
 Leave Link  202 at Tue Oct  4 18:08:46 2022, MaxMem=  2952790016 cpu:               0.1 elap:               0.0
 (Enter /mnt/data/applications/G16/g16/l301.exe)
 Basis read from rwf:  (5D, 7F)
 Pseudo-potential data read from rwf file.
 There are   573 symmetry adapted cartesian basis functions of A   symmetry.
 There are   510 symmetry adapted basis functions of A   symmetry.
   510 basis functions,   823 primitive gaussians,   573 cartesian basis functions
    60 alpha electrons       60 beta electrons
       nuclear repulsion energy      1115.7144838262 Hartrees.
 IExCor= 4639 DFT=T Ex+Corr=wB97XD ExCW=0 ScaHFX=  1.000000
 ScaDFX=  1.000000  1.000000  1.000000  1.000000 ScalE2=  1.000000  1.000000
 IRadAn=      5 IRanWt=     -1 IRanGd=            0 ICorTp=0 IEmpDi=121
 HFx  wShort=  0.000000 wLong=  0.200000 cFull=  0.222036 cShort=  0.000000 cLong=  0.777964
 DFx  wShort=  0.000000 wLong=  0.200000 cFull=  0.000000 cShort=  0.000000 cLong=  1.000000
 NAtoms=   29 NActive=   29 NUniq=   29 SFac= 1.00D+00 NAtFMM=   60 NAOKFM=F Big=F
 Integral buffers will be    131072 words long.
 Raffenetti 2 integral format.
 Two-electron integral symmetry is turned on.
 R6Disp:  Grimme-D2 Dispersion energy=       -0.0243231878 Hartrees.
 Nuclear repulsion after empirical dispersion term =     1115.6901606384 Hartrees.
 No density basis found on file   724.
 ------------------------------------------------------------------------------
 Polarizable Continuum Model (PCM)
 =================================
 Model                : PCM.
 Atomic radii         : SMD-Coulomb.
 Polarization charges : Total charges.
 Charge compensation  : None.
 Solution method      : On-the-fly selection.
 Cavity type          : VdW (van der Waals Surface) (Alpha=1.000).
 Cavity algorithm     : GePol (No added spheres)
                        Default sphere list used, NSphG=   29.
                        Lebedev-Laikov grids with approx.  5.0 points / Ang**2.
                        Smoothing algorithm: York/Karplus (Gamma=1.0000).
                        Polarization charges: spherical gaussians, with
                                              point-specific exponents (IZeta= 3).
                        Self-potential: point-specific (ISelfS= 7).
                        Self-field    : sphere-specific E.n sum rule (ISelfD= 2).
 1st derivatives      : Analytical E(r).r(x)/FMM algorithm (CHGder, D1EAlg=3).
                        Cavity 1st derivative terms included.
 Solvent              : Toluene, Eps=   2.374100 Eps(inf)=   2.238315
 ------------------------------------------------------------------------------
 GePol: Number of generator spheres                  =      29
 GePol: Total number of spheres                      =      29
 GePol: Number of exposed spheres                    =      29 (100.00%)
 GePol: Number of points                             =    2539
 GePol: Average weight of points                     =       0.12
 GePol: Minimum weight of points                     =   0.49D-09
 GePol: Maximum weight of points                     =    0.20615
 GePol: Number of points with low weight             =     131
 GePol: Fraction of low-weight points (<1% of avg)   =       5.16%
 GePol: Cavity surface area                          =    306.753 Ang**2
 GePol: Cavity volume                                =    292.819 Ang**3
 ------------------------------------------------------------------------------
 Atomic radii for non-electrostatic terms: SMD-CDS.
 ------------------------------------------------------------------------------
 PCM non-electrostatic energy =        -0.0005479442 Hartrees.
 Nuclear repulsion after PCM non-electrostatic terms =     1115.6896126942 Hartrees.
 Leave Link  301 at Tue Oct  4 18:08:46 2022, MaxMem=  2952790016 cpu:               1.9 elap:               0.2
 (Enter /mnt/data/applications/G16/g16/l302.exe)
 NPDir=0 NMtPBC=     1 NCelOv=     1 NCel=       1 NClECP=     1 NCelD=      1
         NCelK=      1 NCelE2=     1 NClLst=     1 CellRange=     0.0.
 One-electron integrals computed using PRISM.
 One-electron integral symmetry used in STVInt
   1 Symmetry operations used in ECPInt.
 ECPInt:  NShTT=   22578 NPrTT=   66767 LenC2=   20931 LenP2D=   46142.
 LDataN:  DoStor=T MaxTD1= 7 Len=  274
 NBasis=   510 RedAO= T EigKep=  1.37D-04  NBF=   510
 NBsUse=   510 1.00D-06 EigRej= -1.00D+00 NBFU=   510
 Precomputing XC quadrature grid using
 IXCGrd= 4 IRadAn=           5 IRanWt=          -1 IRanGd=           0 AccXCQ= 0.00D+00.
 Defaulting to unpruned grid for atomic number  45.
 Generated NRdTot=       0 NPtTot=           0 NUsed=           0 NTot=          32
 NSgBfM=   570   570   570   570   570 MxSgAt=    29 MxSgA2=    29.
 Leave Link  302 at Tue Oct  4 18:08:48 2022, MaxMem=  2952790016 cpu:              19.7 elap:               1.7
 (Enter /mnt/data/applications/G16/g16/l303.exe)
 DipDrv:  MaxL=1.
 Leave Link  303 at Tue Oct  4 18:08:48 2022, MaxMem=  2952790016 cpu:               1.2 elap:               0.1
 (Enter /mnt/data/applications/G16/g16/l401.exe)
 Initial guess from the checkpoint file:  "I8.chk"
 B after Tr=     0.000000    0.000000   -0.000000
         Rot=    0.999995   -0.001318    0.001223    0.002403 Ang=  -0.34 deg.
 Guess basis will be translated and rotated to current coordinates.
 JPrj=2 DoOrth=T DoCkMO=T.
 Generating alternative initial guess.
 ExpMin= 1.60D-02 ExpMax= 5.24D+04 ExpMxC= 1.79D+03 IAcc=3 IRadAn=         5 AccDes= 0.00D+00
 Harris functional with IExCor= 4639 and IRadAn=       5 diagonalized for initial guess.
 HarFok:  IExCor= 4639 AccDes= 0.00D+00 IRadAn=         5 IDoV= 1 UseB2=F ITyADJ=14
 ICtDFT=  3500011 ScaDFX=  1.000000  1.000000  1.000000  1.000000
 Defaulting to unpruned grid for atomic number  45.
 FoFCou: FMM=F IPFlag=           0 FMFlag=      100000 FMFlg1=           0
         NFxFlg=           0 DoJE=T BraDBF=F KetDBF=T FulRan=T
         wScrn=  0.000000 ICntrl=       500 IOpCl=  0 I1Cent=   200000004 NGrid=           0
         NMat0=    1 NMatS0=      1 NMatT0=    0 NMatD0=    1 NMtDS0=    0 NMtDT0=    0
 Petite list used in FoFCou.
 Harris En= -959.597383909245    
 Leave Link  401 at Tue Oct  4 18:08:58 2022, MaxMem=  2952790016 cpu:             116.6 elap:               9.8
 (Enter /mnt/data/applications/G16/g16/l502.exe)
 Integral symmetry usage will be decided dynamically.
 Closed shell SCF:
 Using DIIS extrapolation, IDIIS=  1040.
 NGot=  2952790016 LenX=  2952121135 LenY=  2951792233
 Requested convergence on RMS density matrix=1.00D-08 within 128 cycles.
 Requested convergence on MAX density matrix=1.00D-06.
 Requested convergence on             energy=1.00D-06.
 No special actions if energy rises.
 Fock matrices will be formed incrementally for  20 cycles.

 Cycle   1  Pass 1  IDiag  1:
 FoFJK:  IHMeth= 1 ICntrl=       0 DoSepK=T KAlg= 0 I1Cent=           0 FoldK=F
 IRaf=         1 NMat=       1 IRICut=       1 DoRegI=T DoRafI=F ISym2E= 0 IDoP0=0 IntGTp=1.
 FoFCou: FMM=F IPFlag=           0 FMFlag=      100000 FMFlg1=           0
         NFxFlg=           0 DoJE=T BraDBF=F KetDBF=F FulRan=T
         wScrn=  0.000000 ICntrl=       500 IOpCl=  0 I1Cent=           0 NGrid=           0
         NMat0=    1 NMatS0=      1 NMatT0=    0 NMatD0=    1 NMtDS0=    0 NMtDT0=    0
 Symmetry not used in FoFCou.
 Defaulting to unpruned grid for atomic number  45.
 Defaulting to unpruned grid for atomic number  45.
 Defaulting to unpruned grid for atomic number  45.
 Defaulting to unpruned grid for atomic number  45.
 Defaulting to unpruned grid for atomic number  45.
 Defaulting to unpruned grid for atomic number  45.
 Defaulting to unpruned grid for atomic number  45.
 Defaulting to unpruned grid for atomic number  45.
 Defaulting to unpruned grid for atomic number  45.
 Defaulting to unpruned grid for atomic number  45.
 Defaulting to unpruned grid for atomic number  45.
 Defaulting to unpruned grid for atomic number  45.
 Inv3:  Mode=1 IEnd=    19339563.
 Iteration    1 A*A^-1 deviation from unit magnitude is 2.66D-15 for     82.
 Iteration    1 A*A^-1 deviation from orthogonality  is 1.25D-15 for   1412    120.
 Iteration    1 A^-1*A deviation from unit magnitude is 2.22D-15 for     82.
 Iteration    1 A^-1*A deviation from orthogonality  is 1.17D-15 for   1387    370.
 E= -992.224581466302    
 DIIS: error= 4.67D-04 at cycle   1 NSaved=   1.
 NSaved= 1 IEnMin= 1 EnMin= -992.224581466302     IErMin= 1 ErrMin= 4.67D-04
 ErrMax= 4.67D-04  0.00D+00 EMaxC= 1.00D-01 BMatC= 2.58D-04 BMatP= 2.58D-04
 IDIUse=3 WtCom= 9.95D-01 WtEn= 4.67D-03
 Coeff-Com:  0.100D+01
 Coeff-En:   0.100D+01
 Coeff:      0.100D+01
 Gap=     1.474 Goal=   None    Shift=    0.000
 RMSDP=3.72D-05 MaxDP=2.23D-03              OVMax= 3.29D-03

 Cycle   2  Pass 1  IDiag  1:
 RMSU=  3.72D-05    CP:  1.00D+00
 E= -992.224897093147     Delta-E=       -0.000315626844 Rises=F Damp=F
 DIIS: error= 8.73D-05 at cycle   2 NSaved=   2.
 NSaved= 2 IEnMin= 2 EnMin= -992.224897093147     IErMin= 2 ErrMin= 8.73D-05
 ErrMax= 8.73D-05  0.00D+00 EMaxC= 1.00D-01 BMatC= 8.17D-06 BMatP= 2.58D-04
 IDIUse=1 WtCom= 1.00D+00 WtEn= 0.00D+00
 Coeff-Com: -0.131D+00 0.113D+01
 Coeff:     -0.131D+00 0.113D+01
 Gap=     0.326 Goal=   None    Shift=    0.000
 RMSDP=1.06D-05 MaxDP=4.71D-04 DE=-3.16D-04 OVMax= 1.75D-03

 Cycle   3  Pass 1  IDiag  1:
 RMSU=  7.82D-06    CP:  1.00D+00  1.19D+00
 E= -992.224919061732     Delta-E=       -0.000021968585 Rises=F Damp=F
 DIIS: error= 2.72D-05 at cycle   3 NSaved=   3.
 NSaved= 3 IEnMin= 3 EnMin= -992.224919061732     IErMin= 3 ErrMin= 2.72D-05
 ErrMax= 2.72D-05  0.00D+00 EMaxC= 1.00D-01 BMatC= 1.06D-06 BMatP= 8.17D-06
 IDIUse=1 WtCom= 1.00D+00 WtEn= 0.00D+00
 Coeff-Com: -0.305D-01 0.143D+00 0.887D+00
 Coeff:     -0.305D-01 0.143D+00 0.887D+00
 Gap=     0.326 Goal=   None    Shift=    0.000
 RMSDP=3.96D-06 MaxDP=3.76D-04 DE=-2.20D-05 OVMax= 7.42D-04

 Cycle   4  Pass 1  IDiag  1:
 RMSU=  3.68D-06    CP:  1.00D+00  1.22D+00  1.11D+00
 E= -992.224919630559     Delta-E=       -0.000000568827 Rises=F Damp=F
 DIIS: error= 6.13D-05 at cycle   4 NSaved=   4.
 NSaved= 4 IEnMin= 4 EnMin= -992.224919630559     IErMin= 3 ErrMin= 2.72D-05
 ErrMax= 6.13D-05  0.00D+00 EMaxC= 1.00D-01 BMatC= 2.23D-06 BMatP= 1.06D-06
 IDIUse=1 WtCom= 1.00D+00 WtEn= 0.00D+00
 Coeff-Com:  0.250D-02-0.115D+00 0.675D+00 0.437D+00
 Coeff:      0.250D-02-0.115D+00 0.675D+00 0.437D+00
 Gap=     0.326 Goal=   None    Shift=    0.000
 RMSDP=2.40D-06 MaxDP=3.23D-04 DE=-5.69D-07 OVMax= 3.81D-04

 Cycle   5  Pass 1  IDiag  1:
 RMSU=  1.83D-06    CP:  1.00D+00  1.23D+00  1.25D+00  7.45D-01
 E= -992.224921381299     Delta-E=       -0.000001750740 Rises=F Damp=F
 DIIS: error= 1.33D-05 at cycle   5 NSaved=   5.
 NSaved= 5 IEnMin= 5 EnMin= -992.224921381299     IErMin= 5 ErrMin= 1.33D-05
 ErrMax= 1.33D-05  0.00D+00 EMaxC= 1.00D-01 BMatC= 1.59D-07 BMatP= 1.06D-06
 IDIUse=1 WtCom= 1.00D+00 WtEn= 0.00D+00
 Coeff-Com:  0.694D-02-0.936D-01 0.222D+00 0.243D+00 0.622D+00
 Coeff:      0.694D-02-0.936D-01 0.222D+00 0.243D+00 0.622D+00
 Gap=     0.326 Goal=   None    Shift=    0.000
 RMSDP=1.20D-06 MaxDP=8.98D-05 DE=-1.75D-06 OVMax= 2.51D-04

 Cycle   6  Pass 1  IDiag  1:
 RMSU=  6.71D-07    CP:  1.00D+00  1.24D+00  1.35D+00  8.98D-01  8.62D-01
 E= -992.224921593147     Delta-E=       -0.000000211848 Rises=F Damp=F
 DIIS: error= 5.70D-06 at cycle   6 NSaved=   6.
 NSaved= 6 IEnMin= 6 EnMin= -992.224921593147     IErMin= 6 ErrMin= 5.70D-06
 ErrMax= 5.70D-06  0.00D+00 EMaxC= 1.00D-01 BMatC= 3.59D-08 BMatP= 1.59D-07
 IDIUse=1 WtCom= 1.00D+00 WtEn= 0.00D+00
 Coeff-Com:  0.328D-02-0.229D-01-0.522D-01 0.180D-01 0.341D+00 0.712D+00
 Coeff:      0.328D-02-0.229D-01-0.522D-01 0.180D-01 0.341D+00 0.712D+00
 Gap=     0.326 Goal=   None    Shift=    0.000
 RMSDP=6.90D-07 MaxDP=4.00D-05 DE=-2.12D-07 OVMax= 2.01D-04

 Cycle   7  Pass 1  IDiag  1:
 RMSU=  3.25D-07    CP:  1.00D+00  1.24D+00  1.40D+00  9.52D-01  1.05D+00
                    CP:  1.28D+00
 E= -992.224921666479     Delta-E=       -0.000000073332 Rises=F Damp=F
 DIIS: error= 2.22D-06 at cycle   7 NSaved=   7.
 NSaved= 7 IEnMin= 7 EnMin= -992.224921666479     IErMin= 7 ErrMin= 2.22D-06
 ErrMax= 2.22D-06  0.00D+00 EMaxC= 1.00D-01 BMatC= 5.53D-09 BMatP= 3.59D-08
 IDIUse=1 WtCom= 1.00D+00 WtEn= 0.00D+00
 Coeff-Com: -0.725D-03 0.188D-01-0.831D-01-0.622D-01-0.459D-01 0.264D+00
 Coeff-Com:  0.910D+00
 Coeff:     -0.725D-03 0.188D-01-0.831D-01-0.622D-01-0.459D-01 0.264D+00
 Coeff:      0.910D+00
 Gap=     0.326 Goal=   None    Shift=    0.000
 RMSDP=4.69D-07 MaxDP=2.47D-05 DE=-7.33D-08 OVMax= 1.54D-04

 Cycle   8  Pass 1  IDiag  1:
 RMSU=  1.67D-07    CP:  1.00D+00  1.24D+00  1.42D+00  1.02D+00  1.17D+00
                    CP:  1.60D+00  1.28D+00
 E= -992.224921688238     Delta-E=       -0.000000021759 Rises=F Damp=F
 DIIS: error= 9.57D-07 at cycle   8 NSaved=   8.
 NSaved= 8 IEnMin= 8 EnMin= -992.224921688238     IErMin= 8 ErrMin= 9.57D-07
 ErrMax= 9.57D-07  0.00D+00 EMaxC= 1.00D-01 BMatC= 7.78D-10 BMatP= 5.53D-09
 IDIUse=1 WtCom= 1.00D+00 WtEn= 0.00D+00
 Coeff-Com: -0.796D-03 0.992D-02-0.161D-01-0.214D-01-0.715D-01-0.455D-01
 Coeff-Com:  0.257D+00 0.889D+00
 Coeff:     -0.796D-03 0.992D-02-0.161D-01-0.214D-01-0.715D-01-0.455D-01
 Coeff:      0.257D+00 0.889D+00
 Gap=     0.326 Goal=   None    Shift=    0.000
 RMSDP=1.90D-07 MaxDP=8.83D-06 DE=-2.18D-08 OVMax= 6.40D-05

 Cycle   9  Pass 1  IDiag  1:
 RMSU=  6.19D-08    CP:  1.00D+00  1.24D+00  1.43D+00  1.03D+00  1.20D+00
                    CP:  1.76D+00  1.54D+00  1.34D+00
 E= -992.224921691729     Delta-E=       -0.000000003491 Rises=F Damp=F
 DIIS: error= 3.77D-07 at cycle   9 NSaved=   9.
 NSaved= 9 IEnMin= 9 EnMin= -992.224921691729     IErMin= 9 ErrMin= 3.77D-07
 ErrMax= 3.77D-07  0.00D+00 EMaxC= 1.00D-01 BMatC= 9.46D-11 BMatP= 7.78D-10
 IDIUse=1 WtCom= 1.00D+00 WtEn= 0.00D+00
 Coeff-Com:  0.595D-04-0.267D-02 0.139D-01 0.925D-02 0.304D-02-0.529D-01
 Coeff-Com: -0.148D+00 0.731D-01 0.110D+01
 Coeff:      0.595D-04-0.267D-02 0.139D-01 0.925D-02 0.304D-02-0.529D-01
 Coeff:     -0.148D+00 0.731D-01 0.110D+01
 Gap=     0.326 Goal=   None    Shift=    0.000
 RMSDP=8.74D-08 MaxDP=4.22D-06 DE=-3.49D-09 OVMax= 2.96D-05

 Cycle  10  Pass 1  IDiag  1:
 RMSU=  2.11D-08    CP:  1.00D+00  1.24D+00  1.43D+00  1.04D+00  1.22D+00
                    CP:  1.82D+00  1.66D+00  1.63D+00  1.35D+00
 E= -992.224921692259     Delta-E=       -0.000000000530 Rises=F Damp=F
 DIIS: error= 1.86D-07 at cycle  10 NSaved=  10.
 NSaved=10 IEnMin=10 EnMin= -992.224921692259     IErMin=10 ErrMin= 1.86D-07
 ErrMax= 1.86D-07  0.00D+00 EMaxC= 1.00D-01 BMatC= 3.30D-11 BMatP= 9.46D-11
 IDIUse=1 WtCom= 1.00D+00 WtEn= 0.00D+00
 Coeff-Com:  0.110D-03-0.237D-02 0.869D-02 0.673D-02 0.894D-02-0.222D-01
 Coeff-Com: -0.100D+00-0.538D-01 0.554D+00 0.600D+00
 Coeff:      0.110D-03-0.237D-02 0.869D-02 0.673D-02 0.894D-02-0.222D-01
 Coeff:     -0.100D+00-0.538D-01 0.554D+00 0.600D+00
 Gap=     0.326 Goal=   None    Shift=    0.000
 RMSDP=1.68D-08 MaxDP=8.80D-07 DE=-5.30D-10 OVMax= 4.98D-06

 Cycle  11  Pass 1  IDiag  1:
 RMSU=  9.33D-09    CP:  1.00D+00  1.24D+00  1.43D+00  1.04D+00  1.22D+00
                    CP:  1.83D+00  1.68D+00  1.68D+00  1.44D+00  9.83D-01
 E= -992.224921692260     Delta-E=       -0.000000000000 Rises=F Damp=F
 DIIS: error= 7.03D-08 at cycle  11 NSaved=  11.
 NSaved=11 IEnMin=11 EnMin= -992.224921692260     IErMin=11 ErrMin= 7.03D-08
 ErrMax= 7.03D-08  0.00D+00 EMaxC= 1.00D-01 BMatC= 4.10D-12 BMatP= 3.30D-11
 IDIUse=1 WtCom= 1.00D+00 WtEn= 0.00D+00
 Coeff-Com:  0.316D-04-0.402D-03 0.677D-03 0.752D-03 0.298D-02 0.201D-02
 Coeff-Com: -0.916D-02-0.375D-01-0.963D-02 0.251D+00 0.800D+00
 Coeff:      0.316D-04-0.402D-03 0.677D-03 0.752D-03 0.298D-02 0.201D-02
 Coeff:     -0.916D-02-0.375D-01-0.963D-02 0.251D+00 0.800D+00
 Gap=     0.326 Goal=   None    Shift=    0.000
 RMSDP=7.10D-09 MaxDP=3.62D-07 DE=-4.55D-13 OVMax= 1.95D-06

 Error on total polarization charges =  0.02899
 SCF Done:  E(RwB97XD) =  -992.224921692     A.U. after   11 cycles
            NFock= 11  Conv=0.71D-08     -V/T= 2.0800
 KE= 9.187347978259D+02 PE=-4.538149057512D+03 EE= 1.511499725300D+03
 SMD-CDS (non-electrostatic) energy       (kcal/mol) =      -0.34
 (included in total energy above)
 Leave Link  502 at Tue Oct  4 18:21:08 2022, MaxMem=  2952790016 cpu:            8704.3 elap:             730.6
 (Enter /mnt/data/applications/G16/g16/l701.exe)
 ... and contract with generalized density number  0.
 Compute integral first derivatives.
 R6Disp: Adding Grimme-D2 dispersion energy 1st derivatives to the gradient.
   1 Symmetry operations used in ECPInt.
 ECPInt:  NShTT=   22578 NPrTT=   66767 LenC2=   20931 LenP2D=   46142.
 LDataN:  DoStor=T MaxTD1= 8 Len=  415
 D1PCM: PCM CHGder 1st derivatives, ID1Alg=3 FixD1E=F DoIter=F DoCFld=F I1PDM=0.
 GePol: Maximum number of non-zero 1st derivatives   =     417
 Leave Link  701 at Tue Oct  4 18:21:20 2022, MaxMem=  2952790016 cpu:             137.4 elap:              11.5
 (Enter /mnt/data/applications/G16/g16/l702.exe)
 L702 exits ... SP integral derivatives will be done elsewhere.
 Leave Link  702 at Tue Oct  4 18:21:20 2022, MaxMem=  2952790016 cpu:               0.2 elap:               0.0
 (Enter /mnt/data/applications/G16/g16/l703.exe)
 Integral derivatives from FoFJK, PRISM(SPDF).
 Compute integral first derivatives, UseDBF=F ICtDFT=           0.
 Calling FoFJK, ICntrl=      2127 FMM=F ISym2X=0 I1Cent= 0 IOpClX= 0 NMat=1 NMatS=1 NMatT=0.
 FoFJK:  IHMeth= 1 ICntrl=    2127 DoSepK=T KAlg= 0 I1Cent=           0 FoldK=F
 IRaf=         1 NMat=       1 IRICut=       1 DoRegI=T DoRafI=F ISym2E= 0 IDoP0=0 IntGTp=1.
 FoFCou: FMM=F IPFlag=           0 FMFlag=      100000 FMFlg1=         800
         NFxFlg=           0 DoJE=F BraDBF=F KetDBF=F FulRan=T
         wScrn=  0.000000 ICntrl=      2527 IOpCl=  0 I1Cent=           0 NGrid=           0
         NMat0=    1 NMatS0=      1 NMatT0=    0 NMatD0=    1 NMtDS0=    0 NMtDT0=    0
 Symmetry not used in FoFCou.
 Defaulting to unpruned grid for atomic number  45.
 Defaulting to unpruned grid for atomic number  45.
 Defaulting to unpruned grid for atomic number  45.
 Defaulting to unpruned grid for atomic number  45.
 Defaulting to unpruned grid for atomic number  45.
 Defaulting to unpruned grid for atomic number  45.
 Defaulting to unpruned grid for atomic number  45.
 Defaulting to unpruned grid for atomic number  45.
 Defaulting to unpruned grid for atomic number  45.
 Defaulting to unpruned grid for atomic number  45.
 Defaulting to unpruned grid for atomic number  45.
 Defaulting to unpruned grid for atomic number  45.
 Leave Link  703 at Tue Oct  4 18:25:50 2022, MaxMem=  2952790016 cpu:            3229.9 elap:             269.9
 (Enter /mnt/data/applications/G16/g16/l716.exe)
 Dipole        =-1.50010891D+00 8.36670330D-01 9.51013991D-02
 ***** Axes restored to original set *****
 -------------------------------------------------------------------
 Center     Atomic                   Forces (Hartrees/Bohr)
 Number     Number              X              Y              Z
 -------------------------------------------------------------------
      1        1          -0.000187536   -0.000028766    0.000141714
      2        1          -0.000237571    0.000030517    0.000151167
      3       45           0.001062336   -0.000691587    0.000123390
      4        6          -0.000669253    0.001085517   -0.002205874
      5        8           0.000191294   -0.000517015    0.000904844
      6        6           0.000112955   -0.000427027    0.000795566
      7        6          -0.000027957    0.000037517    0.000032582
      8        1          -0.000117520    0.000097524    0.000104502
      9        1           0.000124027   -0.000111429   -0.000062844
     10        1          -0.000005391   -0.000013296    0.000007733
     11        1          -0.000007302   -0.000007389    0.000004933
     12        1           0.000018094    0.000006304    0.000009381
     13        6          -0.000439947    0.000026823   -0.000242038
     14        8           0.000173938    0.000011237    0.000034084
     15       15          -0.000082537   -0.000050744    0.000083733
     16        6          -0.000043695    0.000071100   -0.000001590
     17        6          -0.000016841    0.000062462   -0.000056789
     18        6          -0.000054368    0.000068627    0.000006226
     19        1           0.000006015    0.000004771   -0.000007332
     20        1           0.000007718    0.000022360    0.000037038
     21        1           0.000016106    0.000016616   -0.000001500
     22        1           0.000010285    0.000014853   -0.000013653
     23        1           0.000012229   -0.000001151   -0.000002543
     24        1          -0.000038174   -0.000005947   -0.000007692
     25        1          -0.000026826    0.000014153   -0.000013398
     26        1          -0.000013813   -0.000016929    0.000016551
     27        1          -0.000010988    0.000001459   -0.000012214
     28        6           0.000207919    0.000357792    0.000221090
     29        8           0.000036804   -0.000058355   -0.000047068
 -------------------------------------------------------------------
 Cartesian Forces:  Max     0.002205874 RMS     0.000352792
 Leave Link  716 at Tue Oct  4 18:25:50 2022, MaxMem=  2952790016 cpu:               0.2 elap:               0.0
 (Enter /mnt/data/applications/G16/g16/l103.exe)

 GradGradGradGradGradGradGradGradGradGradGradGradGradGradGradGradGradGrad
 Berny optimization.
 Using GEDIIS/GDIIS optimizer.
 FormGI is forming the generalized inverse of G from B-inverse, IUseBI=4.
 Internal  Forces:  Max     0.000406882 RMS     0.000123287
 Search for a local minimum.
 Step number   3 out of a maximum of  161
 All quantities printed in internal units (Hartrees-Bohrs-Radians)
 RMS Force = .12329D-03 SwitMx=.10000D-02 MixMth= 2
 Mixed Optimization -- En-DIIS/RFO-DIIS
 Swapping is turned off.
 Update second derivatives using D2CorX and points    1    2    3
 DE=  2.70D-05 DEPred=-1.07D-05 R=-2.52D+00
 Trust test=-2.52D+00 RLast= 6.15D-02 DXMaxT set to 5.00D-02
 ITU= -1  1  0
     Eigenvalues ---    0.00225   0.00230   0.00500   0.00525   0.00907
     Eigenvalues ---    0.00965   0.00984   0.01739   0.03021   0.03709
     Eigenvalues ---    0.03850   0.03934   0.05184   0.05231   0.05241
     Eigenvalues ---    0.05278   0.05407   0.05591   0.05623   0.05683
     Eigenvalues ---    0.05932   0.06008   0.06061   0.06135   0.06272
     Eigenvalues ---    0.06278   0.06368   0.07304   0.07733   0.09239
     Eigenvalues ---    0.09942   0.10671   0.11255   0.12130   0.12872
     Eigenvalues ---    0.13263   0.13908   0.14194   0.14315   0.15997
     Eigenvalues ---    0.16000   0.16000   0.16000   0.16000   0.16000
     Eigenvalues ---    0.16000   0.16000   0.16000   0.16000   0.16010
     Eigenvalues ---    0.16038   0.16608   0.16907   0.20032   0.20545
     Eigenvalues ---    0.21510   0.21960   0.24643   0.24970   0.24987
     Eigenvalues ---    0.25087   0.25148   0.30371   0.30543   0.34313
     Eigenvalues ---    0.34483   0.34597   0.34598   0.34604   0.34606
     Eigenvalues ---    0.34658   0.34671   0.34674   0.34697   0.34725
     Eigenvalues ---    0.34767   0.34857   0.34952   1.00060   1.47606
     Eigenvalues ---    1.48302
 En-DIIS/RFO-DIIS/Sim-DIIS IScMMF=       -3 using points:     3    2    1
 RFO step:  Lambda=-6.14005638D-05.
 NNeg= 0 NGDIIS= 3 SimSw=  2.50D-03 Rises=T DC=  2.70D-05 SmlDif=  1.00D-05
 NRisDI= 1 DoIntr=F SqrtH=F CThrHd= 10.0 CDAdj=  3.0
 RMS Error=  0.4094367870D-02 NUsed= 3 OKEnD=T EnDIS=T
 InvSVX:  RCond= 3.53D-04 Info=           0 Equed=N FErr=  1.83D-15 BErr=  0.00D+00
 EnCoef did     3 forward-backward iterations
 IWarn =    0
 DidBck=T Rises=T En-DIIS coefs:    0.34800    0.37816    0.27384
 Iteration  1 RMS(Cart)=  0.00908479 RMS(Int)=  0.00002996
 Iteration  2 RMS(Cart)=  0.00006086 RMS(Int)=  0.00000539
 Iteration  3 RMS(Cart)=  0.00000000 RMS(Int)=  0.00000539
 ITry= 1 IFail=0 DXMaxC= 3.76D-02 DCOld= 1.00D+10 DXMaxT= 5.00D-02 DXLimC= 3.00D+00 Rises=F
 Variable       Old X    -DE/DX   Delta X   Delta X   Delta X     New X
                                 (Linear)    (Quad)   (Total)
    R1        3.01811  -0.00016   0.00015  -0.00063  -0.00047   3.01764
    R2        3.01114  -0.00020  -0.00189   0.00150  -0.00038   3.01076
    R3        3.96006  -0.00026  -0.00344   0.00300  -0.00045   3.95961
    R4        3.68894  -0.00024  -0.00203   0.00171  -0.00032   3.68861
    R5        4.52540   0.00029   0.00497  -0.00475   0.00023   4.52562
    R6        3.70751  -0.00041  -0.00210   0.00140  -0.00070   3.70681
    R7        2.28436  -0.00014   0.00032  -0.00043  -0.00011   2.28425
    R8        2.87230  -0.00005   0.00012  -0.00021  -0.00009   2.87221
    R9        2.86889  -0.00000   0.00003  -0.00004  -0.00001   2.86888
   R10        2.06550  -0.00010  -0.00001  -0.00004  -0.00006   2.06544
   R11        2.06815   0.00007   0.00005  -0.00003   0.00002   2.06817
   R12        2.06318  -0.00000   0.00002  -0.00003  -0.00001   2.06317
   R13        2.06167  -0.00000   0.00001  -0.00001   0.00000   2.06167
   R14        2.06119   0.00001   0.00002  -0.00002   0.00000   2.06120
   R15        2.14003   0.00006   0.00005  -0.00003   0.00002   2.14004
   R16        3.43778   0.00005   0.00020  -0.00012   0.00007   3.43785
   R17        3.42584   0.00006   0.00010  -0.00002   0.00008   3.42593
   R18        3.42951   0.00008   0.00014  -0.00002   0.00012   3.42963
   R19        2.06214  -0.00002   0.00001  -0.00004  -0.00003   2.06211
   R20        2.06207  -0.00000   0.00001  -0.00001  -0.00000   2.06207
   R21        2.06320   0.00001   0.00001   0.00001   0.00002   2.06322
   R22        2.06053   0.00001   0.00001  -0.00001   0.00001   2.06054
   R23        2.05760  -0.00002  -0.00003   0.00003   0.00001   2.05761
   R24        2.06334   0.00001   0.00001  -0.00001   0.00000   2.06334
   R25        2.06230  -0.00001   0.00003  -0.00005  -0.00002   2.06228
   R26        2.06334   0.00001   0.00000   0.00002   0.00003   2.06337
   R27        2.05908   0.00002   0.00001   0.00001   0.00001   2.05910
   R28        2.13840   0.00002   0.00004  -0.00003   0.00001   2.13840
    A1        1.43307   0.00013   0.00348  -0.00300   0.00049   1.43355
    A2        1.42018   0.00013   0.00425  -0.00348   0.00077   1.42095
    A3        1.52850  -0.00000   0.00051  -0.00055  -0.00004   1.52845
    A4        1.53146  -0.00004  -0.00066   0.00069   0.00003   1.53149
    A5        1.49143   0.00019   0.00257  -0.00162   0.00096   1.49239
    A6        1.59100  -0.00001  -0.00127   0.00144   0.00018   1.59118
    A7        1.51505  -0.00005  -0.00009   0.00008  -0.00001   1.51503
    A8        1.54305   0.00001  -0.00023   0.00025   0.00002   1.54307
    A9        1.56975   0.00006   0.00051  -0.00068  -0.00017   1.56958
   A10        1.71844  -0.00007  -0.00203   0.00158  -0.00045   1.71799
   A11        1.77447  -0.00007  -0.00292   0.00227  -0.00065   1.77382
   A12        1.67440  -0.00017  -0.00173   0.00115  -0.00058   1.67383
   A13        2.13387   0.00007   0.00023  -0.00013   0.00007   2.13394
   A14        2.05944  -0.00011   0.00001  -0.00017  -0.00020   2.05924
   A15        2.08979   0.00005  -0.00024   0.00042   0.00014   2.08993
   A16        2.00568  -0.00008   0.00002  -0.00020  -0.00018   2.00550
   A17        1.86020  -0.00013  -0.00010  -0.00019  -0.00029   1.85992
   A18        1.85559   0.00018   0.00017   0.00020   0.00037   1.85596
   A19        1.95227   0.00012  -0.00004   0.00008   0.00004   1.95231
   A20        1.94686  -0.00007   0.00002   0.00005   0.00007   1.94693
   A21        1.83172  -0.00002  -0.00009   0.00008  -0.00000   1.83172
   A22        1.92402  -0.00002   0.00008  -0.00017  -0.00009   1.92393
   A23        1.94197  -0.00001  -0.00003   0.00005   0.00002   1.94199
   A24        1.94388   0.00003  -0.00003   0.00008   0.00005   1.94393
   A25        1.88719   0.00001   0.00002  -0.00001   0.00001   1.88720
   A26        1.88795  -0.00001   0.00000  -0.00000   0.00000   1.88795
   A27        1.87672  -0.00000  -0.00004   0.00005   0.00002   1.87674
   A28        1.99859   0.00002  -0.00014   0.00033   0.00019   1.99878
   A29        2.01026   0.00004  -0.00007   0.00007   0.00000   2.01027
   A30        2.01310   0.00001   0.00024  -0.00008   0.00017   2.01327
   A31        1.79699  -0.00005  -0.00002  -0.00019  -0.00021   1.79678
   A32        1.80059  -0.00000  -0.00020   0.00018  -0.00003   1.80057
   A33        1.81657  -0.00002   0.00017  -0.00036  -0.00018   1.81638
   A34        1.91492  -0.00001  -0.00009   0.00001  -0.00008   1.91484
   A35        1.91121  -0.00002   0.00007  -0.00014  -0.00007   1.91114
   A36        1.94142   0.00006   0.00017   0.00001   0.00018   1.94160
   A37        1.89175   0.00001  -0.00004   0.00003  -0.00001   1.89174
   A38        1.90232  -0.00002  -0.00008   0.00007  -0.00001   1.90231
   A39        1.90148  -0.00001  -0.00005   0.00003  -0.00002   1.90146
   A40        1.90539   0.00002   0.00001   0.00003   0.00004   1.90543
   A41        1.90345  -0.00003  -0.00003   0.00002  -0.00001   1.90344
   A42        1.93517   0.00000   0.00005  -0.00005  -0.00000   1.93517
   A43        1.89866   0.00002  -0.00000   0.00004   0.00004   1.89870
   A44        1.90929  -0.00002  -0.00005  -0.00000  -0.00005   1.90924
   A45        1.91149   0.00001   0.00003  -0.00005  -0.00002   1.91147
   A46        1.90938  -0.00001  -0.00002  -0.00005  -0.00006   1.90932
   A47        1.94205   0.00007   0.00015   0.00005   0.00020   1.94225
   A48        1.89581  -0.00001   0.00004  -0.00010  -0.00006   1.89575
   A49        1.90328  -0.00002  -0.00007   0.00006  -0.00001   1.90326
   A50        1.90053   0.00000  -0.00004   0.00003  -0.00001   1.90052
   A51        1.91235  -0.00003  -0.00006   0.00001  -0.00005   1.91231
   A52        3.02406   0.00012   0.00221  -0.00156   0.00066   3.02473
   A53        2.96156   0.00012   0.00399  -0.00355   0.00045   2.96201
   A54        2.95164   0.00009   0.00359  -0.00279   0.00079   2.95244
   A55        3.09021  -0.00035   0.00051  -0.00505  -0.00453   3.08567
   A56        3.20102   0.00015   0.00008   0.00202   0.00209   3.20311
   A57        2.97074   0.00011   0.00369  -0.00304   0.00065   2.97139
   A58        3.19618  -0.00021  -0.00184   0.00122  -0.00061   3.19558
   A59        3.03077   0.00011   0.00147  -0.00069   0.00077   3.03155
   A60        3.16501   0.00010   0.00021   0.00111   0.00132   3.16633
   A61        3.06587  -0.00008   0.00125  -0.00392  -0.00267   3.06320
    D1        1.85404   0.00027   0.00603   0.00890   0.01494   1.86897
    D2       -1.27301  -0.00032  -0.01299  -0.00045  -0.01344  -1.28645
    D3       -2.98594   0.00036   0.00895   0.00631   0.01525  -2.97069
    D4        0.17020  -0.00023  -0.01007  -0.00305  -0.01313   0.15708
    D5       -1.39266   0.00035   0.00762   0.00778   0.01539  -1.37726
    D6        1.76348  -0.00024  -0.01140  -0.00157  -0.01298   1.75050
    D7        0.32587   0.00028   0.00557   0.00938   0.01495   0.34081
    D8       -2.80118  -0.00031  -0.01345   0.00002  -0.01342  -2.81461
    D9        1.56354  -0.00007  -0.00183   0.00239   0.00056   1.56410
   D10       -0.51558  -0.00005  -0.00164   0.00234   0.00070  -0.51488
   D11       -2.63339  -0.00006  -0.00203   0.00284   0.00081  -2.63258
   D12        2.98363   0.00005   0.00240  -0.00106   0.00134   2.98497
   D13        0.90450   0.00008   0.00260  -0.00112   0.00148   0.90598
   D14       -1.21330   0.00007   0.00221  -0.00062   0.00159  -1.21171
   D15       -1.75696   0.00007   0.00226  -0.00092   0.00133  -1.75563
   D16        2.44710   0.00009   0.00245  -0.00098   0.00147   2.44857
   D17        0.32929   0.00009   0.00206  -0.00048   0.00158   0.33088
   D18        0.03673  -0.00004  -0.00130   0.00182   0.00051   0.03725
   D19       -2.04239  -0.00001  -0.00111   0.00176   0.00065  -2.04174
   D20        2.12299  -0.00002  -0.00150   0.00226   0.00076   2.12375
   D21        3.09809   0.00031   0.01002   0.00415   0.01417   3.11226
   D22        0.92488   0.00031   0.01013   0.00433   0.01446   0.93934
   D23       -1.02239   0.00030   0.01019   0.00423   0.01442  -1.00796
   D24       -0.02934  -0.00027  -0.00850  -0.00496  -0.01346  -0.04280
   D25       -2.20255  -0.00026  -0.00839  -0.00478  -0.01317  -2.21572
   D26        2.13337  -0.00027  -0.00833  -0.00488  -0.01321   2.12016
   D27       -3.14127   0.00009  -0.00001   0.00036   0.00035  -3.14092
   D28       -1.04763   0.00009   0.00004   0.00027   0.00032  -1.04731
   D29        1.04608   0.00009  -0.00004   0.00043   0.00038   1.04646
   D30       -1.01731  -0.00005  -0.00015   0.00002  -0.00013  -1.01744
   D31        1.07633  -0.00005  -0.00009  -0.00007  -0.00017   1.07617
   D32       -3.11315  -0.00005  -0.00018   0.00008  -0.00010  -3.11325
   D33        1.02836  -0.00004  -0.00027   0.00021  -0.00006   1.02830
   D34        3.12200  -0.00004  -0.00021   0.00012  -0.00009   3.12191
   D35       -1.06748  -0.00004  -0.00030   0.00028  -0.00003  -1.06751
   D36        1.02936  -0.00001   0.00018  -0.00016   0.00003   1.02939
   D37       -1.04490   0.00001   0.00024  -0.00011   0.00013  -1.04478
   D38        3.13558   0.00000   0.00014  -0.00006   0.00008   3.13565
   D39       -3.05846   0.00001  -0.00000  -0.00001  -0.00001  -3.05847
   D40        1.15046   0.00003   0.00005   0.00004   0.00009   1.15055
   D41       -0.95224   0.00002  -0.00005   0.00009   0.00004  -0.95220
   D42       -1.17222  -0.00003   0.00011  -0.00040  -0.00029  -1.17251
   D43        3.03670  -0.00001   0.00016  -0.00035  -0.00019   3.03652
   D44        0.93399  -0.00002   0.00007  -0.00030  -0.00023   0.93376
   D45        1.04345   0.00001  -0.00088   0.00112   0.00024   1.04369
   D46       -1.02893  -0.00001  -0.00087   0.00104   0.00017  -1.02876
   D47       -3.13507  -0.00000  -0.00091   0.00111   0.00020  -3.13487
   D48       -1.14435  -0.00000  -0.00065   0.00081   0.00016  -1.14420
   D49        3.06645  -0.00001  -0.00064   0.00072   0.00009   3.06654
   D50        0.96031  -0.00001  -0.00067   0.00080   0.00012   0.96043
   D51       -3.01848   0.00003  -0.00048   0.00080   0.00032  -3.01816
   D52        1.19232   0.00001  -0.00046   0.00071   0.00025   1.19257
   D53       -0.91382   0.00002  -0.00050   0.00079   0.00028  -0.91353
   D54       -1.07957   0.00001  -0.00001   0.00005   0.00004  -1.07952
   D55        3.09946   0.00000   0.00000  -0.00003  -0.00002   3.09944
   D56        0.99292   0.00000  -0.00004   0.00000  -0.00004   0.99287
   D57        1.11269   0.00004  -0.00018   0.00055   0.00037   1.11305
   D58       -0.99147   0.00003  -0.00017   0.00047   0.00030  -0.99117
   D59       -3.09801   0.00003  -0.00022   0.00050   0.00028  -3.09773
   D60        2.98413  -0.00003  -0.00022   0.00029   0.00007   2.98420
   D61        0.87997  -0.00004  -0.00021   0.00021   0.00000   0.87998
   D62       -1.22657  -0.00004  -0.00026   0.00024  -0.00002  -1.22659
         Item               Value     Threshold  Converged?
 Maximum Force            0.000407     0.000450     YES
 RMS     Force            0.000123     0.000300     YES
 Maximum Displacement     0.037564     0.001800     NO 
 RMS     Displacement     0.009083     0.001200     NO 
 Predicted change in Energy=-3.043818D-05
 GradGradGradGradGradGradGradGradGradGradGradGradGradGradGradGradGradGrad

 Leave Link  103 at Tue Oct  4 18:25:50 2022, MaxMem=  2952790016 cpu:               0.6 elap:               0.1
 (Enter /mnt/data/applications/G16/g16/l202.exe)
                          Input orientation:                          
 ---------------------------------------------------------------------
 Center     Atomic      Atomic             Coordinates (Angstroms)
 Number     Number       Type             X           Y           Z
 ---------------------------------------------------------------------
      1          1           0        0.139411   -0.417442   -1.771168
      2          1           0        0.917075   -1.989987   -0.624640
      3         45           0       -0.013710   -0.762047   -0.219467
      4          6           0        1.765139    0.340864   -0.120911
      5          8           0        1.806920    1.458432    0.337815
      6          6           0        3.038502   -0.312157   -0.632993
      7          6           0        4.277414    0.562662   -0.565523
      8          1           0        2.829884   -0.644236   -1.653198
      9          1           0        3.165228   -1.233742   -0.056451
     10          1           0        5.143488    0.021113   -0.951051
     11          1           0        4.153536    1.470519   -1.157732
     12          1           0        4.494574    0.866085    0.459411
     13          6           0        0.200285   -1.173823    1.676497
     14          8           0        0.392705   -1.413315    2.766492
     15         15           0       -1.276656    1.260769    0.000813
     16          6           0       -3.066076    1.066212   -0.263252
     17          6           0       -0.834724    2.576847   -1.165085
     18          6           0       -1.183452    2.061934    1.626618
     19          1           0       -1.588818    1.390389    2.385348
     20          1           0       -1.747058    2.997012    1.640554
     21          1           0       -0.137363    2.262910    1.855945
     22          1           0       -3.467908    0.347920    0.453235
     23          1           0       -3.246486    0.685890   -1.269990
     24          1           0       -3.589218    2.017148   -0.144529
     25          1           0       -0.986107    2.218565   -2.183743
     26          1           0        0.216414    2.829181   -1.034680
     27          1           0       -1.446641    3.465703   -0.998726
     28          6           0       -1.537227   -1.899589   -0.701762
     29          8           0       -2.356505   -2.589190   -1.067468
 ---------------------------------------------------------------------
                    Distance matrix (angstroms):
                    1          2          3          4          5
     1  H    0.000000
     2  H    2.095755   0.000000
     3  Rh   1.596864   1.593224   0.000000
     4  C    2.437492   2.530973   2.095335   0.000000
     5  O    3.278307   3.689137   2.925027   1.208773   0.000000
     6  C    3.116289   2.704744   3.112781   1.519907   2.365216
     7  C    4.420097   4.220354   4.504260   2.560937   2.778806
     8  H    2.702591   2.554959   3.186768   2.109978   3.071123
     9  H    3.572418   2.439044   3.217875   2.108029   3.041093
    10  H    5.089765   4.691869   5.267375   3.493510   3.854834
    11  H    4.478158   4.768015   4.819816   2.838231   2.782699
    12  H    5.058692   4.704340   4.841107   2.839444   2.754840
    13  C    3.530186   2.544630   1.951931   2.823778   3.361861
    14  O    4.652557   3.479553   3.083063   3.646617   4.018135
    15  P    2.821622   3.971279   2.394857   3.180182   3.108228
    16  C    3.840597   5.033532   3.558285   4.887436   4.925567
    17  C    3.206562   4.921062   3.566016   3.584579   3.238494
    18  C    4.409333   5.089051   3.570882   3.835379   3.311730
    19  H    4.850944   5.173632   3.728138   4.316465   3.965862
    20  H    5.182384   6.090884   4.538139   4.742722   4.085966
    21  H    4.518499   5.035104   3.670557   3.349885   2.594636
    22  H    4.306564   5.084850   3.689992   5.264454   5.391694
    23  H    3.596223   4.991196   3.694721   5.153234   5.358990
    24  H    4.740870   6.049323   4.529216   5.610671   5.446386
    25  H    2.895780   4.874917   3.699728   3.917958   3.838888
    26  H    3.330001   4.887069   3.689777   3.070057   2.508467
    27  H    4.265096   5.957487   4.531491   4.566258   4.049832
    28  C    2.480223   2.457177   1.961559   4.032696   4.851839
    29  O    3.382496   3.357301   3.089700   5.144817   5.974293
                    6          7          8          9         10
     6  C    0.000000
     7  C    1.518144   0.000000
     8  H    1.092984   2.176001   0.000000
     9  H    1.094431   2.173287   1.734812   0.000000
    10  H    2.154807   1.091783   2.507680   2.507684   0.000000
    11  H    2.167160   1.090991   2.543566   3.082628   1.767342
    12  H    2.168351   1.090739   3.084700   2.538217   1.767617
    13  C    3.759214   4.966389   4.275760   3.434762   5.724258
    14  O    4.446268   5.486144   5.105388   3.960826   6.200617
    15  P    4.636421   5.626347   4.819592   5.094722   6.607650
    16  C    6.269170   7.366938   6.294436   6.645428   8.304351
    17  C    4.861208   5.527239   4.903364   5.634649   6.505121
    18  C    5.344815   6.072426   5.847000   5.710098   7.130182
    19  H    5.781103   6.618569   6.322538   5.953941   7.637436
    20  H    6.246696   6.862004   6.712368   6.701467   7.940530
    21  H    4.786638   5.314565   5.437842   5.175996   6.386882
    22  H    6.629402   7.814985   6.714433   6.838123   8.731263
    23  H    6.395541   7.557813   6.232043   6.802040   8.422311
    24  H    7.042083   8.011034   7.110831   7.496571   8.994152
    25  H    5.000686   5.750244   4.799885   5.803222   6.627236
    26  H    4.241880   4.674286   4.390606   5.114664   5.671711
    27  H    5.875585   6.432739   5.967294   6.651466   7.436214
    28  C    4.843756   6.315955   4.642500   4.793002   6.955803
    29  O    5.871946   7.361726   5.569969   5.774854   7.942111
                   11         12         13         14         15
    11  H    0.000000
    12  H    1.759772   0.000000
    13  C    5.536568   4.907488   0.000000
    14  O    6.153039   5.229113   1.132463   0.000000
    15  P    5.556366   5.802860   3.304014   4.193623   0.000000
    16  C    7.286039   7.597745   4.410159   5.224038   1.819233
    17  C    5.109476   5.828131   4.818024   5.734569   1.812922
    18  C    6.048621   5.918819   3.519565   3.982580   1.814881
    19  H    6.747923   6.402484   3.206017   3.454340   2.408372
    20  H    6.706534   6.700293   4.603184   5.029643   2.434044
    21  H    5.303012   5.035501   3.457938   3.824225   2.396620
    22  H    7.870314   7.979327   4.155444   4.832954   2.416519
    23  H    7.442350   7.933934   4.901077   5.826111   2.413640
    24  H    7.827874   8.187636   5.278140   6.008147   2.437453
    25  H    5.294167   6.233244   5.274209   6.292576   2.402932
    26  H    4.166778   4.938493   4.834748   5.699015   2.400296
    27  H    5.947102   6.646971   5.603070   6.431554   2.426872
    28  C    6.629504   6.736460   3.033447   3.998736   3.247979
    29  O    7.672680   7.823527   4.008714   4.862108   4.138778
                   16         17         18         19         20
    16  C    0.000000
    17  C    2.841523   0.000000
    18  C    2.847339   2.860132   0.000000
    19  H    3.049994   3.818628   1.091314   0.000000
    20  H    3.015340   2.980018   1.091887   1.777919   0.000000
    21  H    3.807945   3.116327   1.089627   1.774341   1.782251
    22  H    1.091222   3.810608   3.087622   2.889772   3.374721
    23  H    1.091199   3.066484   3.813127   4.075007   4.007598
    24  H    1.091811   2.990324   2.987754   3.285530   2.745944
    25  H    3.056547   1.090388   3.818682   4.682493   3.976214
    26  H    3.804984   1.088838   3.103353   4.126207   3.322690
    27  H    2.986812   1.091872   2.988690   3.972292   2.697354
    28  C    3.365360   4.554849   4.608706   4.511858   5.432051
    29  O    3.809491   5.386398   5.501555   5.324316   6.237826
                   21         22         23         24         25
    21  H    0.000000
    22  H    4.089904   0.000000
    23  H    4.682426   1.769959   0.000000
    24  H    3.997199   1.777177   1.776619   0.000000
    25  H    4.128125   4.075819   2.879819   3.312876   0.000000
    26  H    2.966738   4.684525   4.079307   3.991816   1.771794
    27  H    3.363045   3.989271   3.322708   2.723710   1.780930
    28  C    5.082113   3.180069   3.151055   4.456680   4.411258
    29  O    6.083898   3.489179   3.399887   4.856928   5.122360
                   26         27         28         29
    26  H    0.000000
    27  H    1.781068   0.000000
    28  C    5.054439   5.374267   0.000000
    29  O    5.998311   6.123260   1.131595   0.000000
 Stoichiometry    C8H16O3PRh
 Framework group  C1[X(C8H16O3PRh)]
 Deg. of freedom    81
 Full point group                 C1      NOp   1
 RotChk:  IX=0 Diff= 6.93D-03
 Largest Abelian subgroup         C1      NOp   1
 Largest concise Abelian subgroup C1      NOp   1
                         Standard orientation:                         
 ---------------------------------------------------------------------
 Center     Atomic      Atomic             Coordinates (Angstroms)
 Number     Number       Type             X           Y           Z
 ---------------------------------------------------------------------
      1          1           0        0.137951   -0.416476   -1.774835
      2          1           0        0.912093   -1.991706   -0.629608
      3         45           0       -0.014711   -0.761194   -0.223114
      4          6           0        1.767450    0.336472   -0.125845
      5          8           0        1.812934    1.453746    0.333243
      6          6           0        3.038412   -0.320086   -0.639366
      7          6           0        4.279942    0.551079   -0.572753
      8          1           0        2.827859   -0.651184   -1.659492
      9          1           0        3.162986   -1.242247   -0.063276
     10          1           0        5.144062    0.007139   -0.959296
     11          1           0        4.158161    1.459510   -1.164519
     12          1           0        4.498957    0.853495    0.452083
     13          6           0        0.199870   -1.174281    1.672499
     14          8           0        0.392618   -1.414730    2.762225
     15         15           0       -1.271524    1.265228   -0.000912
     16          6           0       -3.061755    1.076003   -0.263354
     17          6           0       -0.826845    2.580429   -1.166755
     18          6           0       -1.174441    2.065528    1.625091
     19          1           0       -1.581053    1.394897    2.383964
     20          1           0       -1.735294    3.002246    1.639897
     21          1           0       -0.127551    2.263359    1.853501
     22          1           0       -3.465009    0.358630    0.453254
     23          1           0       -3.244229    0.696575   -1.270058
     24          1           0       -3.581999    2.028422   -0.143795
     25          1           0       -0.980239    2.222961   -2.185399
     26          1           0        0.225149    2.829640   -1.037254
     27          1           0       -1.436002    3.471012   -0.999498
     28          6           0       -1.542006   -1.894099   -0.704376
     29          8           0       -2.363643   -2.581168   -1.069555
 ---------------------------------------------------------------------
 Rotational constants (GHZ):           0.6178228           0.4464484           0.3603749
 Leave Link  202 at Tue Oct  4 18:25:50 2022, MaxMem=  2952790016 cpu:               0.1 elap:               0.0
 (Enter /mnt/data/applications/G16/g16/l301.exe)
 Basis read from rwf:  (5D, 7F)
 Pseudo-potential data read from rwf file.
 There are   573 symmetry adapted cartesian basis functions of A   symmetry.
 There are   510 symmetry adapted basis functions of A   symmetry.
   510 basis functions,   823 primitive gaussians,   573 cartesian basis functions
    60 alpha electrons       60 beta electrons
       nuclear repulsion energy      1115.7626296609 Hartrees.
 IExCor= 4639 DFT=T Ex+Corr=wB97XD ExCW=0 ScaHFX=  1.000000
 ScaDFX=  1.000000  1.000000  1.000000  1.000000 ScalE2=  1.000000  1.000000
 IRadAn=      5 IRanWt=     -1 IRanGd=            0 ICorTp=0 IEmpDi=121
 HFx  wShort=  0.000000 wLong=  0.200000 cFull=  0.222036 cShort=  0.000000 cLong=  0.777964
 DFx  wShort=  0.000000 wLong=  0.200000 cFull=  0.000000 cShort=  0.000000 cLong=  1.000000
 NAtoms=   29 NActive=   29 NUniq=   29 SFac= 1.00D+00 NAtFMM=   60 NAOKFM=F Big=F
 Integral buffers will be    131072 words long.
 Raffenetti 2 integral format.
 Two-electron integral symmetry is turned on.
 R6Disp:  Grimme-D2 Dispersion energy=       -0.0243240251 Hartrees.
 Nuclear repulsion after empirical dispersion term =     1115.7383056358 Hartrees.
 No density basis found on file   724.
 ------------------------------------------------------------------------------
 Polarizable Continuum Model (PCM)
 =================================
 Model                : PCM.
 Atomic radii         : SMD-Coulomb.
 Polarization charges : Total charges.
 Charge compensation  : None.
 Solution method      : On-the-fly selection.
 Cavity type          : VdW (van der Waals Surface) (Alpha=1.000).
 Cavity algorithm     : GePol (No added spheres)
                        Default sphere list used, NSphG=   29.
                        Lebedev-Laikov grids with approx.  5.0 points / Ang**2.
                        Smoothing algorithm: York/Karplus (Gamma=1.0000).
                        Polarization charges: spherical gaussians, with
                                              point-specific exponents (IZeta= 3).
                        Self-potential: point-specific (ISelfS= 7).
                        Self-field    : sphere-specific E.n sum rule (ISelfD= 2).
 1st derivatives      : Analytical E(r).r(x)/FMM algorithm (CHGder, D1EAlg=3).
                        Cavity 1st derivative terms included.
 Solvent              : Toluene, Eps=   2.374100 Eps(inf)=   2.238315
 ------------------------------------------------------------------------------
 GePol: Number of generator spheres                  =      29
 GePol: Total number of spheres                      =      29
 GePol: Number of exposed spheres                    =      29 (100.00%)
 GePol: Number of points                             =    2545
 GePol: Average weight of points                     =       0.12
 GePol: Minimum weight of points                     =   0.66D-09
 GePol: Maximum weight of points                     =    0.20615
 GePol: Number of points with low weight             =     141
 GePol: Fraction of low-weight points (<1% of avg)   =       5.54%
 GePol: Cavity surface area                          =    306.680 Ang**2
 GePol: Cavity volume                                =    292.766 Ang**3
 ------------------------------------------------------------------------------
 Atomic radii for non-electrostatic terms: SMD-CDS.
 ------------------------------------------------------------------------------
 PCM non-electrostatic energy =        -0.0005625940 Hartrees.
 Nuclear repulsion after PCM non-electrostatic terms =     1115.7377430419 Hartrees.
 Leave Link  301 at Tue Oct  4 18:25:50 2022, MaxMem=  2952790016 cpu:               1.9 elap:               0.2
 (Enter /mnt/data/applications/G16/g16/l302.exe)
 NPDir=0 NMtPBC=     1 NCelOv=     1 NCel=       1 NClECP=     1 NCelD=      1
         NCelK=      1 NCelE2=     1 NClLst=     1 CellRange=     0.0.
 One-electron integrals computed using PRISM.
 One-electron integral symmetry used in STVInt
   1 Symmetry operations used in ECPInt.
 ECPInt:  NShTT=   22578 NPrTT=   66767 LenC2=   20931 LenP2D=   46146.
 LDataN:  DoStor=T MaxTD1= 7 Len=  274
 NBasis=   510 RedAO= T EigKep=  1.36D-04  NBF=   510
 NBsUse=   510 1.00D-06 EigRej= -1.00D+00 NBFU=   510
 Precomputing XC quadrature grid using
 IXCGrd= 4 IRadAn=           5 IRanWt=          -1 IRanGd=           0 AccXCQ= 0.00D+00.
 Defaulting to unpruned grid for atomic number  45.
 Generated NRdTot=       0 NPtTot=           0 NUsed=           0 NTot=          32
 NSgBfM=   570   570   570   570   570 MxSgAt=    29 MxSgA2=    29.
 Leave Link  302 at Tue Oct  4 18:25:52 2022, MaxMem=  2952790016 cpu:              19.7 elap:               1.7
 (Enter /mnt/data/applications/G16/g16/l303.exe)
 DipDrv:  MaxL=1.
 Leave Link  303 at Tue Oct  4 18:25:52 2022, MaxMem=  2952790016 cpu:               1.2 elap:               0.1
 (Enter /mnt/data/applications/G16/g16/l401.exe)
 Initial guess from the checkpoint file:  "I8.chk"
 B after Tr=     0.000000   -0.000000   -0.000000
         Rot=    0.999997    0.001345   -0.001476   -0.001574 Ang=   0.29 deg.
 Guess basis will be translated and rotated to current coordinates.
 JPrj=2 DoOrth=T DoCkMO=T.
 Generating alternative initial guess.
 ExpMin= 1.60D-02 ExpMax= 5.24D+04 ExpMxC= 1.79D+03 IAcc=3 IRadAn=         5 AccDes= 0.00D+00
 Harris functional with IExCor= 4639 and IRadAn=       5 diagonalized for initial guess.
 HarFok:  IExCor= 4639 AccDes= 0.00D+00 IRadAn=         5 IDoV= 1 UseB2=F ITyADJ=14
 ICtDFT=  3500011 ScaDFX=  1.000000  1.000000  1.000000  1.000000
 Defaulting to unpruned grid for atomic number  45.
 FoFCou: FMM=F IPFlag=           0 FMFlag=      100000 FMFlg1=           0
         NFxFlg=           0 DoJE=T BraDBF=F KetDBF=T FulRan=T
         wScrn=  0.000000 ICntrl=       500 IOpCl=  0 I1Cent=   200000004 NGrid=           0
         NMat0=    1 NMatS0=      1 NMatT0=    0 NMatD0=    1 NMtDS0=    0 NMtDT0=    0
 Petite list used in FoFCou.
 Harris En= -959.597286586491    
 Leave Link  401 at Tue Oct  4 18:26:02 2022, MaxMem=  2952790016 cpu:             116.6 elap:               9.8
 (Enter /mnt/data/applications/G16/g16/l502.exe)
 Integral symmetry usage will be decided dynamically.
 Closed shell SCF:
 Using DIIS extrapolation, IDIIS=  1040.
 NGot=  2952790016 LenX=  2952121135 LenY=  2951792233
 Requested convergence on RMS density matrix=1.00D-08 within 128 cycles.
 Requested convergence on MAX density matrix=1.00D-06.
 Requested convergence on             energy=1.00D-06.
 No special actions if energy rises.
 Fock matrices will be formed incrementally for  20 cycles.

 Cycle   1  Pass 1  IDiag  1:
 FoFJK:  IHMeth= 1 ICntrl=       0 DoSepK=T KAlg= 0 I1Cent=           0 FoldK=F
 IRaf=         1 NMat=       1 IRICut=       1 DoRegI=T DoRafI=F ISym2E= 0 IDoP0=0 IntGTp=1.
 FoFCou: FMM=F IPFlag=           0 FMFlag=      100000 FMFlg1=           0
         NFxFlg=           0 DoJE=T BraDBF=F KetDBF=F FulRan=T
         wScrn=  0.000000 ICntrl=       500 IOpCl=  0 I1Cent=           0 NGrid=           0
         NMat0=    1 NMatS0=      1 NMatT0=    0 NMatD0=    1 NMtDS0=    0 NMtDT0=    0
 Symmetry not used in FoFCou.
 Defaulting to unpruned grid for atomic number  45.
 Defaulting to unpruned grid for atomic number  45.
 Defaulting to unpruned grid for atomic number  45.
 Defaulting to unpruned grid for atomic number  45.
 Defaulting to unpruned grid for atomic number  45.
 Defaulting to unpruned grid for atomic number  45.
 Defaulting to unpruned grid for atomic number  45.
 Defaulting to unpruned grid for atomic number  45.
 Defaulting to unpruned grid for atomic number  45.
 Defaulting to unpruned grid for atomic number  45.
 Defaulting to unpruned grid for atomic number  45.
 Defaulting to unpruned grid for atomic number  45.
 Inv3:  Mode=1 IEnd=    19431075.
 Iteration    1 A*A^-1 deviation from unit magnitude is 2.44D-15 for   1013.
 Iteration    1 A*A^-1 deviation from orthogonality  is 1.27D-15 for   1332    351.
 Iteration    1 A^-1*A deviation from unit magnitude is 2.44D-15 for     65.
 Iteration    1 A^-1*A deviation from orthogonality  is 1.13D-15 for   1139    576.
 E= -992.224702759978    
 DIIS: error= 4.81D-04 at cycle   1 NSaved=   1.
 NSaved= 1 IEnMin= 1 EnMin= -992.224702759978     IErMin= 1 ErrMin= 4.81D-04
 ErrMax= 4.81D-04  0.00D+00 EMaxC= 1.00D-01 BMatC= 1.79D-04 BMatP= 1.79D-04
 IDIUse=3 WtCom= 9.95D-01 WtEn= 4.81D-03
 Coeff-Com:  0.100D+01
 Coeff-En:   0.100D+01
 Coeff:      0.100D+01
 Gap=     1.474 Goal=   None    Shift=    0.000
 RMSDP=3.10D-05 MaxDP=1.77D-03              OVMax= 2.87D-03

 Cycle   2  Pass 1  IDiag  1:
 RMSU=  3.10D-05    CP:  1.00D+00
 E= -992.224932090964     Delta-E=       -0.000229330986 Rises=F Damp=F
 DIIS: error= 9.05D-05 at cycle   2 NSaved=   2.
 NSaved= 2 IEnMin= 2 EnMin= -992.224932090964     IErMin= 2 ErrMin= 9.05D-05
 ErrMax= 9.05D-05  0.00D+00 EMaxC= 1.00D-01 BMatC= 6.04D-06 BMatP= 1.79D-04
 IDIUse=1 WtCom= 1.00D+00 WtEn= 0.00D+00
 Coeff-Com: -0.145D+00 0.115D+01
 Coeff:     -0.145D+00 0.115D+01
 Gap=     0.326 Goal=   None    Shift=    0.000
 RMSDP=8.46D-06 MaxDP=3.37D-04 DE=-2.29D-04 OVMax= 1.35D-03

 Cycle   3  Pass 1  IDiag  1:
 RMSU=  5.47D-06    CP:  1.00D+00  1.21D+00
 E= -992.224948262178     Delta-E=       -0.000016171215 Rises=F Damp=F
 DIIS: error= 1.59D-05 at cycle   3 NSaved=   3.
 NSaved= 3 IEnMin= 3 EnMin= -992.224948262178     IErMin= 3 ErrMin= 1.59D-05
 ErrMax= 1.59D-05  0.00D+00 EMaxC= 1.00D-01 BMatC= 4.22D-07 BMatP= 6.04D-06
 IDIUse=1 WtCom= 1.00D+00 WtEn= 0.00D+00
 Coeff-Com: -0.148D-01 0.336D-02 0.101D+01
 Coeff:     -0.148D-01 0.336D-02 0.101D+01
 Gap=     0.326 Goal=   None    Shift=    0.000
 RMSDP=2.81D-06 MaxDP=1.25D-04 DE=-1.62D-05 OVMax= 5.79D-04

 Cycle   4  Pass 1  IDiag  1:
 RMSU=  2.26D-06    CP:  1.00D+00  1.24D+00  1.24D+00
 E= -992.224949189198     Delta-E=       -0.000000927020 Rises=F Damp=F
 DIIS: error= 2.05D-05 at cycle   4 NSaved=   4.
 NSaved= 4 IEnMin= 4 EnMin= -992.224949189198     IErMin= 3 ErrMin= 1.59D-05
 ErrMax= 2.05D-05  0.00D+00 EMaxC= 1.00D-01 BMatC= 4.75D-07 BMatP= 4.22D-07
 IDIUse=1 WtCom= 1.00D+00 WtEn= 0.00D+00
 Coeff-Com:  0.658D-02-0.122D+00 0.599D+00 0.517D+00
 Coeff:      0.658D-02-0.122D+00 0.599D+00 0.517D+00
 Gap=     0.326 Goal=   None    Shift=    0.000
 RMSDP=1.26D-06 MaxDP=1.40D-04 DE=-9.27D-07 OVMax= 2.27D-04

 Cycle   5  Pass 1  IDiag  1:
 RMSU=  9.29D-07    CP:  1.00D+00  1.25D+00  1.38D+00  8.91D-01
 E= -992.224949596226     Delta-E=       -0.000000407028 Rises=F Damp=F
 DIIS: error= 1.04D-05 at cycle   5 NSaved=   5.
 NSaved= 5 IEnMin= 5 EnMin= -992.224949596226     IErMin= 5 ErrMin= 1.04D-05
 ErrMax= 1.04D-05  0.00D+00 EMaxC= 1.00D-01 BMatC= 9.07D-08 BMatP= 4.22D-07
 IDIUse=1 WtCom= 1.00D+00 WtEn= 0.00D+00
 Coeff-Com:  0.758D-02-0.806D-01 0.152D+00 0.316D+00 0.604D+00
 Coeff:      0.758D-02-0.806D-01 0.152D+00 0.316D+00 0.604D+00
 Gap=     0.326 Goal=   None    Shift=    0.000
 RMSDP=8.35D-07 MaxDP=8.23D-05 DE=-4.07D-07 OVMax= 1.78D-04

 Cycle   6  Pass 1  IDiag  1:
 RMSU=  5.45D-07    CP:  1.00D+00  1.25D+00  1.47D+00  1.02D+00  7.28D-01
 E= -992.224949693928     Delta-E=       -0.000000097702 Rises=F Damp=F
 DIIS: error= 7.31D-06 at cycle   6 NSaved=   6.
 NSaved= 6 IEnMin= 6 EnMin= -992.224949693928     IErMin= 6 ErrMin= 7.31D-06
 ErrMax= 7.31D-06  0.00D+00 EMaxC= 1.00D-01 BMatC= 3.37D-08 BMatP= 9.07D-08
 IDIUse=1 WtCom= 1.00D+00 WtEn= 0.00D+00
 Coeff-Com:  0.372D-02-0.258D-01-0.466D-01 0.904D-01 0.430D+00 0.548D+00
 Coeff:      0.372D-02-0.258D-01-0.466D-01 0.904D-01 0.430D+00 0.548D+00
 Gap=     0.326 Goal=   None    Shift=    0.000
 RMSDP=4.40D-07 MaxDP=4.40D-05 DE=-9.77D-08 OVMax= 1.14D-04

 Cycle   7  Pass 1  IDiag  1:
 RMSU=  2.37D-07    CP:  1.00D+00  1.25D+00  1.51D+00  1.09D+00  1.01D+00
                    CP:  9.89D-01
 E= -992.224949736265     Delta-E=       -0.000000042338 Rises=F Damp=F
 DIIS: error= 1.98D-06 at cycle   7 NSaved=   7.
 NSaved= 7 IEnMin= 7 EnMin= -992.224949736265     IErMin= 7 ErrMin= 1.98D-06
 ErrMax= 1.98D-06  0.00D+00 EMaxC= 1.00D-01 BMatC= 3.50D-09 BMatP= 3.37D-08
 IDIUse=1 WtCom= 1.00D+00 WtEn= 0.00D+00
 Coeff-Com: -0.104D-02 0.180D-01-0.750D-01-0.695D-01-0.229D-01 0.231D+00
 Coeff-Com:  0.920D+00
 Coeff:     -0.104D-02 0.180D-01-0.750D-01-0.695D-01-0.229D-01 0.231D+00
 Coeff:      0.920D+00
 Gap=     0.326 Goal=   None    Shift=    0.000
 RMSDP=3.39D-07 MaxDP=1.58D-05 DE=-4.23D-08 OVMax= 1.13D-04

 Cycle   8  Pass 1  IDiag  1:
 RMSU=  1.14D-07    CP:  1.00D+00  1.25D+00  1.53D+00  1.17D+00  1.13D+00
                    CP:  1.30D+00  1.29D+00
 E= -992.224949748394     Delta-E=       -0.000000012128 Rises=F Damp=F
 DIIS: error= 6.33D-07 at cycle   8 NSaved=   8.
 NSaved= 8 IEnMin= 8 EnMin= -992.224949748394     IErMin= 8 ErrMin= 6.33D-07
 ErrMax= 6.33D-07  0.00D+00 EMaxC= 1.00D-01 BMatC= 4.37D-10 BMatP= 3.50D-09
 IDIUse=1 WtCom= 1.00D+00 WtEn= 0.00D+00
 Coeff-Com: -0.886D-03 0.964D-02-0.168D-01-0.352D-01-0.679D-01-0.980D-02
 Coeff-Com:  0.265D+00 0.856D+00
 Coeff:     -0.886D-03 0.964D-02-0.168D-01-0.352D-01-0.679D-01-0.980D-02
 Coeff:      0.265D+00 0.856D+00
 Gap=     0.326 Goal=   None    Shift=    0.000
 RMSDP=1.30D-07 MaxDP=6.09D-06 DE=-1.21D-08 OVMax= 4.37D-05

 Cycle   9  Pass 1  IDiag  1:
 RMSU=  4.84D-08    CP:  1.00D+00  1.25D+00  1.54D+00  1.19D+00  1.17D+00
                    CP:  1.43D+00  1.51D+00  1.34D+00
 E= -992.224949750323     Delta-E=       -0.000000001929 Rises=F Damp=F
 DIIS: error= 2.81D-07 at cycle   9 NSaved=   9.
 NSaved= 9 IEnMin= 9 EnMin= -992.224949750323     IErMin= 9 ErrMin= 2.81D-07
 ErrMax= 2.81D-07  0.00D+00 EMaxC= 1.00D-01 BMatC= 6.27D-11 BMatP= 4.37D-10
 IDIUse=1 WtCom= 1.00D+00 WtEn= 0.00D+00
 Coeff-Com:  0.192D-03-0.387D-02 0.174D-01 0.151D-01 0.235D-02-0.590D-01
 Coeff-Com: -0.212D+00 0.546D-01 0.118D+01
 Coeff:      0.192D-03-0.387D-02 0.174D-01 0.151D-01 0.235D-02-0.590D-01
 Coeff:     -0.212D+00 0.546D-01 0.118D+01
 Gap=     0.326 Goal=   None    Shift=    0.000
 RMSDP=7.86D-08 MaxDP=3.83D-06 DE=-1.93D-09 OVMax= 2.72D-05

 Cycle  10  Pass 1  IDiag  1:
 RMSU=  1.79D-08    CP:  1.00D+00  1.25D+00  1.55D+00  1.20D+00  1.20D+00
                    CP:  1.50D+00  1.66D+00  1.70D+00  1.26D+00
 E= -992.224949750763     Delta-E=       -0.000000000440 Rises=F Damp=F
 DIIS: error= 5.57D-08 at cycle  10 NSaved=  10.
 NSaved=10 IEnMin=10 EnMin= -992.224949750763     IErMin=10 ErrMin= 5.57D-08
 ErrMax= 5.57D-08  0.00D+00 EMaxC= 1.00D-01 BMatC= 5.04D-12 BMatP= 6.27D-11
 IDIUse=1 WtCom= 1.00D+00 WtEn= 0.00D+00
 Coeff-Com:  0.104D-03-0.155D-02 0.506D-02 0.578D-02 0.535D-02-0.122D-01
 Coeff-Com: -0.645D-01-0.535D-01 0.263D+00 0.853D+00
 Coeff:      0.104D-03-0.155D-02 0.506D-02 0.578D-02 0.535D-02-0.122D-01
 Coeff:     -0.645D-01-0.535D-01 0.263D+00 0.853D+00
 Gap=     0.326 Goal=   None    Shift=    0.000
 RMSDP=1.22D-08 MaxDP=5.95D-07 DE=-4.40D-10 OVMax= 3.94D-06

 Cycle  11  Pass 1  IDiag  1:
 RMSU=  6.22D-09    CP:  1.00D+00  1.25D+00  1.55D+00  1.20D+00  1.20D+00
                    CP:  1.51D+00  1.68D+00  1.75D+00  1.36D+00  1.12D+00
 E= -992.224949750766     Delta-E=       -0.000000000003 Rises=F Damp=F
 DIIS: error= 3.30D-08 at cycle  11 NSaved=  11.
 NSaved=11 IEnMin=11 EnMin= -992.224949750766     IErMin=11 ErrMin= 3.30D-08
 ErrMax= 3.30D-08  0.00D+00 EMaxC= 1.00D-01 BMatC= 1.24D-12 BMatP= 5.04D-12
 IDIUse=1 WtCom= 1.00D+00 WtEn= 0.00D+00
 Coeff-Com:  0.113D-04-0.251D-04-0.545D-03-0.237D-04 0.160D-02 0.379D-02
 Coeff-Com:  0.627D-02-0.272D-01-0.747D-01 0.323D+00 0.768D+00
 Coeff:      0.113D-04-0.251D-04-0.545D-03-0.237D-04 0.160D-02 0.379D-02
 Coeff:      0.627D-02-0.272D-01-0.747D-01 0.323D+00 0.768D+00
 Gap=     0.326 Goal=   None    Shift=    0.000
 RMSDP=4.11D-09 MaxDP=1.77D-07 DE=-3.18D-12 OVMax= 1.05D-06

 Error on total polarization charges =  0.02894
 SCF Done:  E(RwB97XD) =  -992.224949751     A.U. after   11 cycles
            NFock= 11  Conv=0.41D-08     -V/T= 2.0800
 KE= 9.187360630372D+02 PE=-4.538246219001D+03 EE= 1.511547463171D+03
 SMD-CDS (non-electrostatic) energy       (kcal/mol) =      -0.35
 (included in total energy above)
 Leave Link  502 at Tue Oct  4 18:38:10 2022, MaxMem=  2952790016 cpu:            8672.3 elap:             727.9
 (Enter /mnt/data/applications/G16/g16/l701.exe)
 ... and contract with generalized density number  0.
 Compute integral first derivatives.
 R6Disp: Adding Grimme-D2 dispersion energy 1st derivatives to the gradient.
   1 Symmetry operations used in ECPInt.
 ECPInt:  NShTT=   22578 NPrTT=   66767 LenC2=   20931 LenP2D=   46146.
 LDataN:  DoStor=T MaxTD1= 8 Len=  415
 D1PCM: PCM CHGder 1st derivatives, ID1Alg=3 FixD1E=F DoIter=F DoCFld=F I1PDM=0.
 GePol: Maximum number of non-zero 1st derivatives   =     418
 Leave Link  701 at Tue Oct  4 18:38:22 2022, MaxMem=  2952790016 cpu:             137.3 elap:              11.5
 (Enter /mnt/data/applications/G16/g16/l702.exe)
 L702 exits ... SP integral derivatives will be done elsewhere.
 Leave Link  702 at Tue Oct  4 18:38:22 2022, MaxMem=  2952790016 cpu:               0.2 elap:               0.0
 (Enter /mnt/data/applications/G16/g16/l703.exe)
 Integral derivatives from FoFJK, PRISM(SPDF).
 Compute integral first derivatives, UseDBF=F ICtDFT=           0.
 Calling FoFJK, ICntrl=      2127 FMM=F ISym2X=0 I1Cent= 0 IOpClX= 0 NMat=1 NMatS=1 NMatT=0.
 FoFJK:  IHMeth= 1 ICntrl=    2127 DoSepK=T KAlg= 0 I1Cent=           0 FoldK=F
 IRaf=         1 NMat=       1 IRICut=       1 DoRegI=T DoRafI=F ISym2E= 0 IDoP0=0 IntGTp=1.
 FoFCou: FMM=F IPFlag=           0 FMFlag=      100000 FMFlg1=         800
         NFxFlg=           0 DoJE=F BraDBF=F KetDBF=F FulRan=T
         wScrn=  0.000000 ICntrl=      2527 IOpCl=  0 I1Cent=           0 NGrid=           0
         NMat0=    1 NMatS0=      1 NMatT0=    0 NMatD0=    1 NMtDS0=    0 NMtDT0=    0
 Symmetry not used in FoFCou.
 Defaulting to unpruned grid for atomic number  45.
 Defaulting to unpruned grid for atomic number  45.
 Defaulting to unpruned grid for atomic number  45.
 Defaulting to unpruned grid for atomic number  45.
 Defaulting to unpruned grid for atomic number  45.
 Defaulting to unpruned grid for atomic number  45.
 Defaulting to unpruned grid for atomic number  45.
 Defaulting to unpruned grid for atomic number  45.
 Defaulting to unpruned grid for atomic number  45.
 Defaulting to unpruned grid for atomic number  45.
 Defaulting to unpruned grid for atomic number  45.
 Defaulting to unpruned grid for atomic number  45.
 Leave Link  703 at Tue Oct  4 18:42:52 2022, MaxMem=  2952790016 cpu:            3231.6 elap:             270.0
 (Enter /mnt/data/applications/G16/g16/l716.exe)
 Dipole        =-1.50765798D+00 8.35100135D-01 9.67881478D-02
 ***** Axes restored to original set *****
 -------------------------------------------------------------------
 Center     Atomic                   Forces (Hartrees/Bohr)
 Number     Number              X              Y              Z
 -------------------------------------------------------------------
      1        1          -0.000098290   -0.000064417    0.000111848
      2        1          -0.000180747    0.000008396    0.000133644
      3       45           0.000435936   -0.000065190   -0.000459180
      4        6          -0.000152182   -0.000211788    0.000437311
      5        8           0.000000547    0.000018208   -0.000115082
      6        6          -0.000055224    0.000001432   -0.000113927
      7        6           0.000002984    0.000013567    0.000003309
      8        1           0.000026311   -0.000020754   -0.000003895
      9        1          -0.000028337    0.000020304    0.000007928
     10        1           0.000005945   -0.000000272   -0.000000236
     11        1           0.000003382    0.000002852   -0.000000533
     12        1          -0.000003124   -0.000002349    0.000002896
     13        6           0.000134919    0.000025628   -0.000170214
     14        8          -0.000073993   -0.000002195    0.000047371
     15       15          -0.000091453    0.000065858    0.000109500
     16        6          -0.000029421    0.000055256   -0.000005843
     17        6           0.000012069    0.000002801   -0.000016372
     18        6          -0.000042472    0.000061874    0.000005900
     19        1          -0.000001222   -0.000005661    0.000003530
     20        1          -0.000001104    0.000004471    0.000013432
     21        1          -0.000011897    0.000000527   -0.000007891
     22        1           0.000004681   -0.000003007   -0.000001265
     23        1           0.000000286   -0.000002192   -0.000004522
     24        1          -0.000014828   -0.000005882   -0.000006537
     25        1          -0.000004586    0.000008486   -0.000009288
     26        1          -0.000044391    0.000023551   -0.000023802
     27        1           0.000009095    0.000002516   -0.000002002
     28        6           0.000260764    0.000072813    0.000049909
     29        8          -0.000063647   -0.000004832    0.000014012
 -------------------------------------------------------------------
 Cartesian Forces:  Max     0.000459180 RMS     0.000104394
 Leave Link  716 at Tue Oct  4 18:42:52 2022, MaxMem=  2952790016 cpu:               0.3 elap:               0.0
 (Enter /mnt/data/applications/G16/g16/l103.exe)

 GradGradGradGradGradGradGradGradGradGradGradGradGradGradGradGradGradGrad
 Berny optimization.
 Using GEDIIS/GDIIS optimizer.
 FormGI is forming the generalized inverse of G from B-inverse, IUseBI=4.
 Internal  Forces:  Max     0.000296663 RMS     0.000059202
 Search for a local minimum.
 Step number   4 out of a maximum of  161
 All quantities printed in internal units (Hartrees-Bohrs-Radians)
 RMS Force = .59202D-04 SwitMx=.10000D-02 MixMth= 2
 Mixed Optimization -- En-DIIS/RFO-DIIS
 Swapping is turned off.
 Update second derivatives using D2CorX and points    1    2    3    4
 DE= -2.81D-05 DEPred=-3.04D-05 R= 9.22D-01
 TightC=F SS=  1.41D+00  RLast= 5.31D-02 DXNew= 8.4090D-02 1.5938D-01
 Trust test= 9.22D-01 RLast= 5.31D-02 DXMaxT set to 8.41D-02
 ITU=  1 -1  1  0
     Eigenvalues ---    0.00222   0.00231   0.00500   0.00525   0.00907
     Eigenvalues ---    0.00964   0.00985   0.02145   0.03699   0.03772
     Eigenvalues ---    0.03926   0.04009   0.05184   0.05234   0.05244
     Eigenvalues ---    0.05302   0.05459   0.05591   0.05683   0.05870
     Eigenvalues ---    0.05932   0.06007   0.06061   0.06138   0.06273
     Eigenvalues ---    0.06284   0.06374   0.07631   0.07754   0.09614
     Eigenvalues ---    0.09941   0.10734   0.11865   0.12722   0.13216
     Eigenvalues ---    0.13393   0.14189   0.14210   0.14456   0.15996
     Eigenvalues ---    0.16000   0.16000   0.16000   0.16000   0.16000
     Eigenvalues ---    0.16000   0.16000   0.16000   0.16005   0.16037
     Eigenvalues ---    0.16065   0.16567   0.17197   0.20391   0.20542
     Eigenvalues ---    0.21628   0.21964   0.24648   0.24970   0.24996
     Eigenvalues ---    0.25095   0.25274   0.30362   0.30546   0.34316
     Eigenvalues ---    0.34483   0.34597   0.34597   0.34605   0.34606
     Eigenvalues ---    0.34658   0.34671   0.34674   0.34697   0.34725
     Eigenvalues ---    0.34767   0.34858   0.34972   0.99660   1.47616
     Eigenvalues ---    1.48323
 En-DIIS/RFO-DIIS/Sim-DIIS IScMMF=       -3 using points:     4    3    2    1
 RFO step:  Lambda=-5.32885588D-06.
 NNeg= 0 NGDIIS= 4 SimSw=  2.50D-03 Rises=F DC= -2.81D-05 SmlDif=  1.00D-05
 NRisDI= 0 DoIntr=F SqrtH=F CThrHd= 10.0 CDAdj=  3.0
 RMS Error=  0.8184576358D-03 NUsed= 4 OKEnD=T EnDIS=F
 InvSVX:  RCond= 4.86D-05 Info=           0 Equed=N FErr=  6.44D-15 BErr=  1.06D-16
 DidBck=T Rises=F RFO-DIIS coefs:    0.47459    0.12844    0.37909    0.01788
 Iteration  1 RMS(Cart)=  0.00166280 RMS(Int)=  0.00000237
 Iteration  2 RMS(Cart)=  0.00000192 RMS(Int)=  0.00000204
 Iteration  3 RMS(Cart)=  0.00000000 RMS(Int)=  0.00000204
 ITry= 1 IFail=0 DXMaxC= 5.90D-03 DCOld= 1.00D+10 DXMaxT= 8.41D-02 DXLimC= 3.00D+00 Rises=F
 Variable       Old X    -DE/DX   Delta X   Delta X   Delta X     New X
                                 (Linear)    (Quad)   (Total)
    R1        3.01764  -0.00013   0.00037  -0.00050  -0.00012   3.01751
    R2        3.01076  -0.00015  -0.00062  -0.00039  -0.00101   3.00974
    R3        3.95961  -0.00026  -0.00131  -0.00067  -0.00198   3.95763
    R4        3.68861  -0.00012  -0.00073  -0.00025  -0.00098   3.68763
    R5        4.52562   0.00030   0.00220   0.00068   0.00289   4.52851
    R6        3.70681  -0.00021  -0.00052  -0.00058  -0.00110   3.70571
    R7        2.28425  -0.00003   0.00022  -0.00007   0.00014   2.28439
    R8        2.87221  -0.00001   0.00011  -0.00005   0.00006   2.87227
    R9        2.86888   0.00001   0.00002   0.00001   0.00003   2.86891
   R10        2.06544   0.00001   0.00002  -0.00001   0.00001   2.06545
   R11        2.06817  -0.00002   0.00002  -0.00002   0.00000   2.06818
   R12        2.06317   0.00001   0.00001   0.00000   0.00002   2.06319
   R13        2.06167   0.00000   0.00000   0.00000   0.00001   2.06168
   R14        2.06120  -0.00000   0.00001  -0.00000   0.00001   2.06121
   R15        2.14004   0.00003   0.00001   0.00001   0.00002   2.14007
   R16        3.43785   0.00003   0.00005   0.00007   0.00012   3.43797
   R17        3.42593   0.00005  -0.00000   0.00010   0.00010   3.42602
   R18        3.42963   0.00004  -0.00001   0.00010   0.00010   3.42972
   R19        2.06211   0.00000   0.00003  -0.00001   0.00001   2.06212
   R20        2.06207   0.00000   0.00001   0.00000   0.00001   2.06207
   R21        2.06322   0.00000  -0.00001   0.00001   0.00000   2.06322
   R22        2.06054   0.00000   0.00000   0.00001   0.00001   2.06054
   R23        2.05761  -0.00004  -0.00002  -0.00003  -0.00005   2.05755
   R24        2.06334  -0.00000   0.00000  -0.00000   0.00000   2.06334
   R25        2.06228   0.00001   0.00002  -0.00000   0.00002   2.06231
   R26        2.06337   0.00000  -0.00002   0.00002  -0.00000   2.06337
   R27        2.05910  -0.00001  -0.00000  -0.00001  -0.00001   2.05908
   R28        2.13840   0.00005   0.00001   0.00001   0.00002   2.13843
    A1        1.43355   0.00007   0.00130   0.00044   0.00174   1.43529
    A2        1.42095   0.00013   0.00145   0.00074   0.00219   1.42314
    A3        1.52845   0.00005   0.00025   0.00025   0.00050   1.52896
    A4        1.53149  -0.00003  -0.00036   0.00004  -0.00032   1.53117
    A5        1.49239   0.00007   0.00055   0.00071   0.00126   1.49364
    A6        1.59118  -0.00007  -0.00071  -0.00023  -0.00094   1.59023
    A7        1.51503  -0.00012  -0.00007  -0.00042  -0.00050   1.51454
    A8        1.54307  -0.00010  -0.00011  -0.00034  -0.00044   1.54263
    A9        1.56958   0.00014   0.00039   0.00028   0.00067   1.57025
   A10        1.71799  -0.00002  -0.00063  -0.00028  -0.00091   1.71707
   A11        1.77382  -0.00001  -0.00089  -0.00042  -0.00131   1.77252
   A12        1.67383  -0.00006  -0.00042  -0.00031  -0.00073   1.67310
   A13        2.13394   0.00007   0.00006   0.00011   0.00019   2.13413
   A14        2.05924  -0.00009   0.00013  -0.00021  -0.00007   2.05917
   A15        2.08993   0.00002  -0.00021   0.00010  -0.00009   2.08984
   A16        2.00550  -0.00001   0.00013  -0.00010   0.00003   2.00553
   A17        1.85992   0.00003   0.00006   0.00007   0.00013   1.86005
   A18        1.85596  -0.00003  -0.00007  -0.00003  -0.00011   1.85585
   A19        1.95231  -0.00001  -0.00004   0.00002  -0.00002   1.95229
   A20        1.94693   0.00002  -0.00004   0.00005   0.00001   1.94694
   A21        1.83172  -0.00000  -0.00004  -0.00001  -0.00005   1.83167
   A22        1.92393   0.00000   0.00010  -0.00004   0.00006   1.92399
   A23        1.94199   0.00001  -0.00003   0.00003  -0.00000   1.94199
   A24        1.94393  -0.00001  -0.00004  -0.00000  -0.00004   1.94389
   A25        1.88720  -0.00000   0.00000  -0.00000  -0.00000   1.88720
   A26        1.88795   0.00000  -0.00000   0.00000   0.00000   1.88795
   A27        1.87674   0.00000  -0.00003   0.00001  -0.00002   1.87672
   A28        1.99878   0.00001  -0.00020   0.00009  -0.00010   1.99867
   A29        2.01027   0.00002  -0.00001   0.00009   0.00008   2.01034
   A30        2.01327   0.00003   0.00000   0.00022   0.00022   2.01350
   A31        1.79678  -0.00003   0.00011  -0.00027  -0.00016   1.79662
   A32        1.80057  -0.00002  -0.00008  -0.00012  -0.00019   1.80037
   A33        1.81638  -0.00001   0.00021  -0.00009   0.00012   1.81650
   A34        1.91484  -0.00001   0.00002  -0.00006  -0.00005   1.91479
   A35        1.91114  -0.00000   0.00007  -0.00004   0.00003   1.91117
   A36        1.94160   0.00003  -0.00004   0.00014   0.00010   1.94170
   A37        1.89174   0.00000  -0.00001  -0.00001  -0.00002   1.89172
   A38        1.90231  -0.00000  -0.00003  -0.00000  -0.00003   1.90227
   A39        1.90146  -0.00001  -0.00001  -0.00002  -0.00003   1.90143
   A40        1.90543   0.00001  -0.00002   0.00004   0.00002   1.90545
   A41        1.90344   0.00005  -0.00002   0.00013   0.00011   1.90355
   A42        1.93517  -0.00001   0.00002  -0.00003  -0.00001   1.93516
   A43        1.89870  -0.00002  -0.00002   0.00001  -0.00001   1.89869
   A44        1.90924  -0.00001   0.00000  -0.00005  -0.00005   1.90919
   A45        1.91147  -0.00003   0.00003  -0.00009  -0.00006   1.91141
   A46        1.90932  -0.00001   0.00004  -0.00005  -0.00001   1.90931
   A47        1.94225   0.00003  -0.00006   0.00015   0.00009   1.94234
   A48        1.89575  -0.00001   0.00006  -0.00005   0.00001   1.89575
   A49        1.90326  -0.00001  -0.00003  -0.00001  -0.00004   1.90323
   A50        1.90052   0.00000  -0.00001  -0.00001  -0.00003   1.90049
   A51        1.91231  -0.00001   0.00000  -0.00002  -0.00002   1.91228
   A52        3.02473   0.00000   0.00059   0.00021   0.00080   3.02553
   A53        2.96201   0.00012   0.00156   0.00069   0.00224   2.96425
   A54        2.95244   0.00010   0.00109   0.00078   0.00187   2.95431
   A55        3.08567   0.00016   0.00333  -0.00114   0.00218   3.08786
   A56        3.20311  -0.00009  -0.00141   0.00043  -0.00098   3.20213
   A57        2.97139   0.00002   0.00128   0.00033   0.00161   2.97300
   A58        3.19558  -0.00018  -0.00048  -0.00077  -0.00125   3.19432
   A59        3.03155  -0.00007   0.00012   0.00012   0.00024   3.03178
   A60        3.16633  -0.00007  -0.00081   0.00016  -0.00065   3.16568
   A61        3.06320   0.00005   0.00255  -0.00109   0.00145   3.06465
    D1        1.86897  -0.00003  -0.00291   0.00026  -0.00265   1.86632
    D2       -1.28645   0.00003  -0.00051   0.00057   0.00006  -1.28639
    D3       -2.97069   0.00002  -0.00175   0.00056  -0.00120  -2.97189
    D4        0.15708   0.00008   0.00065   0.00087   0.00151   0.15859
    D5       -1.37726  -0.00004  -0.00247   0.00033  -0.00214  -1.37941
    D6        1.75050   0.00002  -0.00008   0.00064   0.00056   1.75107
    D7        0.34081  -0.00007  -0.00312   0.00004  -0.00307   0.33774
    D8       -2.81461  -0.00000  -0.00072   0.00035  -0.00036  -2.81497
    D9        1.56410  -0.00005  -0.00087   0.00039  -0.00048   1.56362
   D10       -0.51488  -0.00003  -0.00085   0.00062  -0.00024  -0.51512
   D11       -2.63258  -0.00005  -0.00113   0.00048  -0.00065  -2.63323
   D12        2.98497   0.00007   0.00056   0.00112   0.00169   2.98666
   D13        0.90598   0.00009   0.00058   0.00135   0.00193   0.90791
   D14       -1.21171   0.00007   0.00030   0.00121   0.00152  -1.21020
   D15       -1.75563  -0.00001   0.00051   0.00083   0.00134  -1.75429
   D16        2.44857   0.00001   0.00053   0.00105   0.00158   2.45015
   D17        0.33088  -0.00001   0.00025   0.00092   0.00117   0.33205
   D18        0.03725  -0.00003  -0.00055   0.00031  -0.00025   0.03700
   D19       -2.04174  -0.00001  -0.00054   0.00053  -0.00000  -2.04175
   D20        2.12375  -0.00003  -0.00082   0.00040  -0.00042   2.12333
   D21        3.11226  -0.00003  -0.00090  -0.00020  -0.00110   3.11116
   D22        0.93934  -0.00003  -0.00098  -0.00022  -0.00120   0.93814
   D23       -1.00796  -0.00003  -0.00093  -0.00023  -0.00115  -1.00912
   D24       -0.04280   0.00003   0.00144   0.00010   0.00154  -0.04126
   D25       -2.21572   0.00003   0.00136   0.00008   0.00144  -2.21428
   D26        2.12016   0.00003   0.00141   0.00008   0.00149   2.12165
   D27       -3.14092  -0.00002  -0.00016   0.00002  -0.00014  -3.14105
   D28       -1.04731  -0.00002  -0.00011   0.00001  -0.00010  -1.04741
   D29        1.04646  -0.00002  -0.00020   0.00005  -0.00015   1.04631
   D30       -1.01744   0.00001  -0.00002   0.00006   0.00005  -1.01739
   D31        1.07617   0.00001   0.00003   0.00005   0.00008   1.07625
   D32       -3.11325   0.00001  -0.00006   0.00009   0.00003  -3.11322
   D33        1.02830   0.00001  -0.00012   0.00010  -0.00002   1.02828
   D34        3.12191   0.00001  -0.00007   0.00009   0.00002   3.12192
   D35       -1.06751   0.00001  -0.00016   0.00013  -0.00003  -1.06754
   D36        1.02939   0.00000   0.00007   0.00000   0.00007   1.02945
   D37       -1.04478   0.00001   0.00003   0.00008   0.00011  -1.04467
   D38        3.13565   0.00000   0.00001   0.00004   0.00006   3.13571
   D39       -3.05847   0.00001   0.00001  -0.00003  -0.00002  -3.05849
   D40        1.15055   0.00001  -0.00003   0.00005   0.00002   1.15057
   D41       -0.95220   0.00001  -0.00004   0.00001  -0.00003  -0.95223
   D42       -1.17251  -0.00002   0.00024  -0.00025  -0.00001  -1.17251
   D43        3.03652  -0.00001   0.00020  -0.00017   0.00003   3.03655
   D44        0.93376  -0.00002   0.00019  -0.00021  -0.00002   0.93374
   D45        1.04369  -0.00000  -0.00057   0.00011  -0.00046   1.04323
   D46       -1.02876  -0.00002  -0.00052  -0.00000  -0.00052  -1.02928
   D47       -3.13487  -0.00001  -0.00056   0.00005  -0.00051  -3.13538
   D48       -1.14420  -0.00000  -0.00039   0.00014  -0.00026  -1.14445
   D49        3.06654  -0.00002  -0.00035   0.00003  -0.00032   3.06622
   D50        0.96043  -0.00001  -0.00039   0.00008  -0.00031   0.96013
   D51       -3.01816   0.00003  -0.00041   0.00038  -0.00003  -3.01819
   D52        1.19257   0.00002  -0.00037   0.00027  -0.00009   1.19248
   D53       -0.91353   0.00003  -0.00041   0.00033  -0.00008  -0.91362
   D54       -1.07952   0.00001  -0.00001   0.00018   0.00017  -1.07936
   D55        3.09944   0.00001   0.00004   0.00013   0.00016   3.09960
   D56        0.99287   0.00001   0.00003   0.00010   0.00013   0.99301
   D57        1.11305   0.00002  -0.00032   0.00034   0.00003   1.11308
   D58       -0.99117   0.00002  -0.00027   0.00030   0.00003  -0.99114
   D59       -3.09773   0.00002  -0.00027   0.00027  -0.00001  -3.09774
   D60        2.98420  -0.00002  -0.00016  -0.00002  -0.00017   2.98402
   D61        0.87998  -0.00002  -0.00011  -0.00006  -0.00017   0.87980
   D62       -1.22659  -0.00003  -0.00012  -0.00009  -0.00021  -1.22680
         Item               Value     Threshold  Converged?
 Maximum Force            0.000297     0.000450     YES
 RMS     Force            0.000059     0.000300     YES
 Maximum Displacement     0.005905     0.001800     NO 
 RMS     Displacement     0.001663     0.001200     NO 
 Predicted change in Energy=-2.662919D-06
 Lowest energy point so far.  Saving SCF results.
 GradGradGradGradGradGradGradGradGradGradGradGradGradGradGradGradGradGrad

 Leave Link  103 at Tue Oct  4 18:42:52 2022, MaxMem=  2952790016 cpu:               0.6 elap:               0.1
 (Enter /mnt/data/applications/G16/g16/l202.exe)
                          Input orientation:                          
 ---------------------------------------------------------------------
 Center     Atomic      Atomic             Coordinates (Angstroms)
 Number     Number       Type             X           Y           Z
 ---------------------------------------------------------------------
      1          1           0        0.139445   -0.417789   -1.773340
      2          1           0        0.917043   -1.990997   -0.624578
      3         45           0       -0.012040   -0.761804   -0.221416
      4          6           0        1.766128    0.340012   -0.120632
      5          8           0        1.807572    1.458316    0.336527
      6          6           0        3.039683   -0.313018   -0.632316
      7          6           0        4.278574    0.561841   -0.564622
      8          1           0        2.831451   -0.645357   -1.652521
      9          1           0        3.166225   -1.234486   -0.055545
     10          1           0        5.144828    0.020264   -0.949731
     11          1           0        4.154867    1.469584   -1.157048
     12          1           0        4.495344    0.865485    0.460333
     13          6           0        0.200497   -1.173733    1.674143
     14          8           0        0.389581   -1.413684    2.764635
     15         15           0       -1.276785    1.261520    0.000507
     16          6           0       -3.066336    1.065807   -0.262249
     17          6           0       -0.836872    2.578127   -1.165638
     18          6           0       -1.183239    2.062494    1.626442
     19          1           0       -1.587639    1.390485    2.385295
     20          1           0       -1.747536    2.997145    1.640969
     21          1           0       -0.137175    2.264215    1.855205
     22          1           0       -3.467100    0.347111    0.454441
     23          1           0       -3.247284    0.685500   -1.268900
     24          1           0       -3.590119    2.016321   -0.142976
     25          1           0       -0.988601    2.219789   -2.184230
     26          1           0        0.214062    2.831562   -1.035973
     27          1           0       -1.449559    3.466370   -0.998828
     28          6           0       -1.535776   -1.898729   -0.702104
     29          8           0       -2.356611   -2.587726   -1.065493
 ---------------------------------------------------------------------
                    Distance matrix (angstroms):
                    1          2          3          4          5
     1  H    0.000000
     2  H    2.097451   0.000000
     3  Rh   1.596798   1.592687   0.000000
     4  C    2.439632   2.531504   2.094287   0.000000
     5  O    3.279323   3.689787   2.924247   1.208849   0.000000
     6  C    3.118380   2.705785   3.111794   1.519937   2.365244
     7  C    4.421885   4.221430   4.503243   2.561000   2.778775
     8  H    2.704308   2.555851   3.185446   2.110106   3.070843
     9  H    3.574803   2.440272   3.217502   2.107973   3.041520
    10  H    5.091569   4.693086   5.266437   3.493602   3.854832
    11  H    4.479464   4.768925   4.818466   2.838338   2.782209
    12  H    5.060627   4.705397   4.840389   2.839412   2.755158
    13  C    3.529918   2.542730   1.951410   2.822027   3.361485
    14  O    4.652697   3.478257   3.082652   3.646244   4.019302
    15  P    2.823530   3.972717   2.396386   3.181693   3.108841
    16  C    3.842068   5.034147   3.559571   4.888716   4.926213
    17  C    3.209051   4.924008   3.567497   3.588427   3.240919
    18  C    4.411329   5.090095   3.572526   3.836402   3.312682
    19  H    4.852517   5.173702   3.729584   4.316355   3.966045
    20  H    5.184591   6.092146   4.539837   4.744411   4.087586
    21  H    4.520620   5.036618   3.672166   3.350978   2.595746
    22  H    4.307580   5.084461   3.691058   5.264735   5.391738
    23  H    3.597449   4.992035   3.695770   5.154821   5.359683
    24  H    4.742639   6.050210   4.530648   5.612477   5.447601
    25  H    2.897953   4.877982   3.700838   3.921802   3.840916
    26  H    3.332801   4.890860   3.691464   3.074830   2.511739
    27  H    4.267492   5.960178   4.533021   4.570119   4.052697
    28  C    2.479334   2.455778   1.960977   4.031457   4.850410
    29  O    3.382302   3.356680   3.089250   5.144063   5.972983
                    6          7          8          9         10
     6  C    0.000000
     7  C    1.518161   0.000000
     8  H    1.092990   2.176009   0.000000
     9  H    1.094431   2.173308   1.734784   0.000000
    10  H    2.154870   1.091791   2.507723   2.507754   0.000000
    11  H    2.167175   1.090995   2.543599   3.082647   1.767351
    12  H    2.168341   1.090744   3.084693   2.538221   1.767628
    13  C    3.757866   4.965379   4.274084   3.433811   5.723351
    14  O    4.446772   5.487342   5.105323   3.961728   6.202023
    15  P    4.638052   5.627694   4.821440   5.096423   6.609143
    16  C    6.270691   7.368386   6.296414   6.646721   8.305961
    17  C    4.865267   5.531222   4.907596   5.638538   6.509225
    18  C    5.345850   6.073230   5.848230   5.711130   7.131045
    19  H    5.781004   6.618242   6.322735   5.953772   7.637147
    20  H    6.248397   6.863625   6.714315   6.702978   7.942180
    21  H    4.787725   5.315306   5.438979   5.177290   6.387686
    22  H    6.629859   7.815374   6.715358   6.838314   8.731771
    23  H    6.397517   7.559751   6.234531   6.803799   8.424485
    24  H    7.044114   8.013091   7.113355   7.498238   8.996354
    25  H    5.005059   5.754568   4.804641   5.807400   6.631805
    26  H    4.246817   4.679109   4.395432   5.119497   5.676555
    27  H    5.879744   6.437106   5.971654   6.655320   7.440698
    28  C    4.842951   6.315059   4.641865   4.792502   6.955165
    29  O    5.872131   7.361815   5.570762   5.775203   7.942707
                   11         12         13         14         15
    11  H    0.000000
    12  H    1.759768   0.000000
    13  C    5.535323   4.906878   0.000000
    14  O    6.153877   5.230842   1.132476   0.000000
    15  P    5.557523   5.803943   3.303616   4.192122   0.000000
    16  C    7.287624   7.598767   4.408781   5.220465   1.819296
    17  C    5.113355   5.831762   4.818396   5.734612   1.812973
    18  C    6.049358   5.919371   3.519967   3.981590   1.814932
    19  H    6.747653   6.401858   3.205992   3.452051   2.408418
    20  H    6.708256   6.701599   4.603494   5.028449   2.434157
    21  H    5.303464   5.036104   3.459232   3.825110   2.396667
    22  H    7.870909   7.979302   4.153542   4.828186   2.416542
    23  H    7.444403   7.935423   4.899535   5.822607   2.413723
    24  H    7.830202   8.189207   5.277039   6.004760   2.437586
    25  H    5.298412   6.237107   5.274181   6.292278   2.402999
    26  H    4.171281   4.943052   4.836042   5.700661   2.400406
    27  H    5.951619   6.650987   5.603393   6.431252   2.426908
    28  C    6.628418   6.735470   3.030976   3.995066   3.247754
    29  O    7.672645   7.823177   4.005469   4.856935   4.137520
                   16         17         18         19         20
    16  C    0.000000
    17  C    2.841431   0.000000
    18  C    2.847208   2.860342   0.000000
    19  H    3.049827   3.818805   1.091327   0.000000
    20  H    3.015218   2.980256   1.091886   1.777905   0.000000
    21  H    3.807857   3.116666   1.089621   1.774330   1.782231
    22  H    1.091228   3.810536   3.087417   2.889498   3.374527
    23  H    1.091202   3.066396   3.813056   4.074870   4.007528
    24  H    1.091811   2.990289   2.987649   3.285384   2.745831
    25  H    3.056578   1.090393   3.818880   4.682643   3.976482
    26  H    3.804938   1.088809   3.103606   4.126489   3.322846
    27  H    2.986506   1.091873   2.988953   3.972487   2.697683
    28  C    3.365198   4.554730   4.608438   4.511502   5.431797
    29  O    3.807520   5.385690   5.499806   5.322163   6.235920
                   21         22         23         24         25
    21  H    0.000000
    22  H    4.089722   0.000000
    23  H    4.682430   1.769952   0.000000
    24  H    3.997124   1.777161   1.776604   0.000000
    25  H    4.128430   4.075839   2.879847   3.313006   0.000000
    26  H    2.967181   4.684526   4.079308   3.991723   1.771767
    27  H    3.363486   3.989014   3.322347   2.723439   1.780905
    28  C    5.081930   3.179844   3.150993   4.456519   4.411154
    29  O    6.082573   3.486639   3.398335   4.854877   5.122033
                   26         27         28         29
    26  H    0.000000
    27  H    1.781009   0.000000
    28  C    5.054607   5.373989   0.000000
    29  O    5.998159   6.122030   1.131608   0.000000
 Stoichiometry    C8H16O3PRh
 Framework group  C1[X(C8H16O3PRh)]
 Deg. of freedom    81
 Full point group                 C1      NOp   1
 RotChk:  IX=0 Diff= 1.52D-03
 Largest Abelian subgroup         C1      NOp   1
 Largest concise Abelian subgroup C1      NOp   1
                         Standard orientation:                         
 ---------------------------------------------------------------------
 Center     Atomic      Atomic             Coordinates (Angstroms)
 Number     Number       Type             X           Y           Z
 ---------------------------------------------------------------------
      1          1           0        0.138451   -0.417165   -1.776216
      2          1           0        0.913820   -1.992070   -0.628272
      3         45           0       -0.012656   -0.761190   -0.224257
      4          6           0        1.767670    0.337224   -0.124444
      5          8           0        1.811543    1.455359    0.332901
      6          6           0        3.039640   -0.318127   -0.637101
      7          6           0        4.280238    0.554362   -0.570063
      8          1           0        2.830100   -0.649873   -1.657230
      9          1           0        3.164815   -1.239945   -0.060591
     10          1           0        5.145204    0.011214   -0.955852
     11          1           0        4.157862    1.462453   -1.162233
     12          1           0        4.498266    0.857396    0.454806
     13          6           0        0.200358   -1.173888    1.671082
     14          8           0        0.389709   -1.414408    2.761401
     15         15           0       -1.273405    1.264491   -0.001105
     16          6           0       -3.063499    1.072231   -0.262708
     17          6           0       -0.831765    2.580484   -1.167290
     18          6           0       -1.177255    2.064973    1.624921
     19          1           0       -1.582428    1.393587    2.383914
     20          1           0       -1.739764    3.000692    1.640002
     21          1           0       -0.130658    2.264660    1.853027
     22          1           0       -3.465151    0.354160    0.454110
     23          1           0       -3.245838    0.692463   -1.269311
     24          1           0       -3.585394    2.023716   -0.142905
     25          1           0       -0.984852    2.222632   -2.185850
     26          1           0        0.219735    2.831897   -1.038276
     27          1           0       -1.442651    3.469858   -0.999903
     28          6           0       -1.538870   -1.895124   -0.704149
     29          8           0       -2.361254   -2.582489   -1.067124
 ---------------------------------------------------------------------
 Rotational constants (GHZ):           0.6179765           0.4464389           0.3602935
 Leave Link  202 at Tue Oct  4 18:42:52 2022, MaxMem=  2952790016 cpu:               0.1 elap:               0.0
 (Enter /mnt/data/applications/G16/g16/l301.exe)
 Basis read from rwf:  (5D, 7F)
 Pseudo-potential data read from rwf file.
 There are   573 symmetry adapted cartesian basis functions of A   symmetry.
 There are   510 symmetry adapted basis functions of A   symmetry.
   510 basis functions,   823 primitive gaussians,   573 cartesian basis functions
    60 alpha electrons       60 beta electrons
       nuclear repulsion energy      1115.7445215358 Hartrees.
 IExCor= 4639 DFT=T Ex+Corr=wB97XD ExCW=0 ScaHFX=  1.000000
 ScaDFX=  1.000000  1.000000  1.000000  1.000000 ScalE2=  1.000000  1.000000
 IRadAn=      5 IRanWt=     -1 IRanGd=            0 ICorTp=0 IEmpDi=121
 HFx  wShort=  0.000000 wLong=  0.200000 cFull=  0.222036 cShort=  0.000000 cLong=  0.777964
 DFx  wShort=  0.000000 wLong=  0.200000 cFull=  0.000000 cShort=  0.000000 cLong=  1.000000
 NAtoms=   29 NActive=   29 NUniq=   29 SFac= 1.00D+00 NAtFMM=   60 NAOKFM=F Big=F
 Integral buffers will be    131072 words long.
 Raffenetti 2 integral format.
 Two-electron integral symmetry is turned on.
 R6Disp:  Grimme-D2 Dispersion energy=       -0.0243180399 Hartrees.
 Nuclear repulsion after empirical dispersion term =     1115.7202034959 Hartrees.
 No density basis found on file   724.
 ------------------------------------------------------------------------------
 Polarizable Continuum Model (PCM)
 =================================
 Model                : PCM.
 Atomic radii         : SMD-Coulomb.
 Polarization charges : Total charges.
 Charge compensation  : None.
 Solution method      : On-the-fly selection.
 Cavity type          : VdW (van der Waals Surface) (Alpha=1.000).
 Cavity algorithm     : GePol (No added spheres)
                        Default sphere list used, NSphG=   29.
                        Lebedev-Laikov grids with approx.  5.0 points / Ang**2.
                        Smoothing algorithm: York/Karplus (Gamma=1.0000).
                        Polarization charges: spherical gaussians, with
                                              point-specific exponents (IZeta= 3).
                        Self-potential: point-specific (ISelfS= 7).
                        Self-field    : sphere-specific E.n sum rule (ISelfD= 2).
 1st derivatives      : Analytical E(r).r(x)/FMM algorithm (CHGder, D1EAlg=3).
                        Cavity 1st derivative terms included.
 Solvent              : Toluene, Eps=   2.374100 Eps(inf)=   2.238315
 ------------------------------------------------------------------------------
 GePol: Number of generator spheres                  =      29
 GePol: Total number of spheres                      =      29
 GePol: Number of exposed spheres                    =      29 (100.00%)
 GePol: Number of points                             =    2546
 GePol: Average weight of points                     =       0.12
 GePol: Minimum weight of points                     =   0.11D-08
 GePol: Maximum weight of points                     =    0.20615
 GePol: Number of points with low weight             =     145
 GePol: Fraction of low-weight points (<1% of avg)   =       5.70%
 GePol: Cavity surface area                          =    306.646 Ang**2
 GePol: Cavity volume                                =    292.751 Ang**3
 ------------------------------------------------------------------------------
 Atomic radii for non-electrostatic terms: SMD-CDS.
 ------------------------------------------------------------------------------
 PCM non-electrostatic energy =        -0.0005690418 Hartrees.
 Nuclear repulsion after PCM non-electrostatic terms =     1115.7196344541 Hartrees.
 Leave Link  301 at Tue Oct  4 18:42:52 2022, MaxMem=  2952790016 cpu:               1.9 elap:               0.2
 (Enter /mnt/data/applications/G16/g16/l302.exe)
 NPDir=0 NMtPBC=     1 NCelOv=     1 NCel=       1 NClECP=     1 NCelD=      1
         NCelK=      1 NCelE2=     1 NClLst=     1 CellRange=     0.0.
 One-electron integrals computed using PRISM.
 One-electron integral symmetry used in STVInt
   1 Symmetry operations used in ECPInt.
 ECPInt:  NShTT=   22578 NPrTT=   66767 LenC2=   20931 LenP2D=   46144.
 LDataN:  DoStor=T MaxTD1= 7 Len=  274
 NBasis=   510 RedAO= T EigKep=  1.36D-04  NBF=   510
 NBsUse=   510 1.00D-06 EigRej= -1.00D+00 NBFU=   510
 Precomputing XC quadrature grid using
 IXCGrd= 4 IRadAn=           5 IRanWt=          -1 IRanGd=           0 AccXCQ= 0.00D+00.
 Defaulting to unpruned grid for atomic number  45.
 Generated NRdTot=       0 NPtTot=           0 NUsed=           0 NTot=          32
 NSgBfM=   570   570   570   570   570 MxSgAt=    29 MxSgA2=    29.
 Leave Link  302 at Tue Oct  4 18:42:54 2022, MaxMem=  2952790016 cpu:              19.8 elap:               1.7
 (Enter /mnt/data/applications/G16/g16/l303.exe)
 DipDrv:  MaxL=1.
 Leave Link  303 at Tue Oct  4 18:42:54 2022, MaxMem=  2952790016 cpu:               1.2 elap:               0.1
 (Enter /mnt/data/applications/G16/g16/l401.exe)
 Initial guess from the checkpoint file:  "I8.chk"
 B after Tr=    -0.000000    0.000000    0.000000
         Rot=    1.000000    0.000012    0.000174   -0.000494 Ang=   0.06 deg.
 Guess basis will be translated and rotated to current coordinates.
 JPrj=2 DoOrth=T DoCkMO=T.
 Leave Link  401 at Tue Oct  4 18:42:55 2022, MaxMem=  2952790016 cpu:              12.3 elap:               1.1
 (Enter /mnt/data/applications/G16/g16/l502.exe)
 Integral symmetry usage will be decided dynamically.
 Closed shell SCF:
 Using DIIS extrapolation, IDIIS=  1040.
 NGot=  2952790016 LenX=  2952121135 LenY=  2951792233
 Requested convergence on RMS density matrix=1.00D-08 within 128 cycles.
 Requested convergence on MAX density matrix=1.00D-06.
 Requested convergence on             energy=1.00D-06.
 No special actions if energy rises.
 Fock matrices will be formed incrementally for  20 cycles.

 Cycle   1  Pass 1  IDiag  1:
 FoFJK:  IHMeth= 1 ICntrl=       0 DoSepK=T KAlg= 0 I1Cent=           0 FoldK=F
 IRaf=         1 NMat=       1 IRICut=       1 DoRegI=T DoRafI=F ISym2E= 0 IDoP0=0 IntGTp=1.
 FoFCou: FMM=F IPFlag=           0 FMFlag=      100000 FMFlg1=           0
         NFxFlg=           0 DoJE=T BraDBF=F KetDBF=F FulRan=T
         wScrn=  0.000000 ICntrl=       500 IOpCl=  0 I1Cent=           0 NGrid=           0
         NMat0=    1 NMatS0=      1 NMatT0=    0 NMatD0=    1 NMtDS0=    0 NMtDT0=    0
 Symmetry not used in FoFCou.
 Defaulting to unpruned grid for atomic number  45.
 Defaulting to unpruned grid for atomic number  45.
 Defaulting to unpruned grid for atomic number  45.
 Defaulting to unpruned grid for atomic number  45.
 Defaulting to unpruned grid for atomic number  45.
 Defaulting to unpruned grid for atomic number  45.
 Defaulting to unpruned grid for atomic number  45.
 Defaulting to unpruned grid for atomic number  45.
 Defaulting to unpruned grid for atomic number  45.
 Defaulting to unpruned grid for atomic number  45.
 Defaulting to unpruned grid for atomic number  45.
 Defaulting to unpruned grid for atomic number  45.
 Inv3:  Mode=1 IEnd=    19446348.
 Iteration    1 A*A^-1 deviation from unit magnitude is 2.89D-15 for    383.
 Iteration    1 A*A^-1 deviation from orthogonality  is 1.23D-15 for   1345    359.
 Iteration    1 A^-1*A deviation from unit magnitude is 2.89D-15 for    383.
 Iteration    1 A^-1*A deviation from orthogonality  is 1.26D-15 for   2487   1330.
 E= -992.224935934458    
 DIIS: error= 1.44D-04 at cycle   1 NSaved=   1.
 NSaved= 1 IEnMin= 1 EnMin= -992.224935934458     IErMin= 1 ErrMin= 1.44D-04
 ErrMax= 1.44D-04  0.00D+00 EMaxC= 1.00D-01 BMatC= 1.74D-05 BMatP= 1.74D-05
 IDIUse=3 WtCom= 9.99D-01 WtEn= 1.44D-03
 Coeff-Com:  0.100D+01
 Coeff-En:   0.100D+01
 Coeff:      0.100D+01
 Gap=     1.474 Goal=   None    Shift=    0.000
 RMSDP=8.85D-06 MaxDP=4.75D-04              OVMax= 7.34D-04

 Cycle   2  Pass 1  IDiag  1:
 RMSU=  8.84D-06    CP:  1.00D+00
 E= -992.224951513118     Delta-E=       -0.000015578660 Rises=F Damp=F
 DIIS: error= 2.22D-05 at cycle   2 NSaved=   2.
 NSaved= 2 IEnMin= 2 EnMin= -992.224951513118     IErMin= 2 ErrMin= 2.22D-05
 ErrMax= 2.22D-05  0.00D+00 EMaxC= 1.00D-01 BMatC= 4.76D-07 BMatP= 1.74D-05
 IDIUse=1 WtCom= 1.00D+00 WtEn= 0.00D+00
 Coeff-Com: -0.876D-01 0.109D+01
 Coeff:     -0.876D-01 0.109D+01
 Gap=     0.326 Goal=   None    Shift=    0.000
 RMSDP=2.65D-06 MaxDP=1.71D-04 DE=-1.56D-05 OVMax= 2.67D-04

 Cycle   3  Pass 1  IDiag  1:
 RMSU=  2.39D-06    CP:  1.00D+00  1.13D+00
 E= -992.224952421779     Delta-E=       -0.000000908662 Rises=F Damp=F
 DIIS: error= 1.42D-05 at cycle   3 NSaved=   3.
 NSaved= 3 IEnMin= 3 EnMin= -992.224952421779     IErMin= 3 ErrMin= 1.42D-05
 ErrMax= 1.42D-05  0.00D+00 EMaxC= 1.00D-01 BMatC= 2.56D-07 BMatP= 4.76D-07
 IDIUse=1 WtCom= 1.00D+00 WtEn= 0.00D+00
 Coeff-Com: -0.515D-01 0.473D+00 0.579D+00
 Coeff:     -0.515D-01 0.473D+00 0.579D+00
 Gap=     0.326 Goal=   None    Shift=    0.000
 RMSDP=1.10D-06 MaxDP=1.24D-04 DE=-9.09D-07 OVMax= 1.35D-04

 Cycle   4  Pass 1  IDiag  1:
 RMSU=  1.00D-06    CP:  1.00D+00  1.16D+00  8.54D-01
 E= -992.224952533750     Delta-E=       -0.000000111971 Rises=F Damp=F
 DIIS: error= 1.52D-05 at cycle   4 NSaved=   4.
 NSaved= 4 IEnMin= 4 EnMin= -992.224952533750     IErMin= 3 ErrMin= 1.42D-05
 ErrMax= 1.52D-05  0.00D+00 EMaxC= 1.00D-01 BMatC= 1.64D-07 BMatP= 2.56D-07
 IDIUse=1 WtCom= 1.00D+00 WtEn= 0.00D+00
 Coeff-Com: -0.699D-02-0.391D-01 0.453D+00 0.593D+00
 Coeff:     -0.699D-02-0.391D-01 0.453D+00 0.593D+00
 Gap=     0.326 Goal=   None    Shift=    0.000
 RMSDP=7.25D-07 MaxDP=9.54D-05 DE=-1.12D-07 OVMax= 9.15D-05

 Cycle   5  Pass 1  IDiag  1:
 RMSU=  5.68D-07    CP:  1.00D+00  1.17D+00  9.55D-01  6.76D-01
 E= -992.224952653593     Delta-E=       -0.000000119843 Rises=F Damp=F
 DIIS: error= 5.60D-06 at cycle   5 NSaved=   5.
 NSaved= 5 IEnMin= 5 EnMin= -992.224952653593     IErMin= 5 ErrMin= 5.60D-06
 ErrMax= 5.60D-06  0.00D+00 EMaxC= 1.00D-01 BMatC= 2.55D-08 BMatP= 1.64D-07
 IDIUse=1 WtCom= 1.00D+00 WtEn= 0.00D+00
 Coeff-Com:  0.329D-02-0.100D+00 0.202D+00 0.384D+00 0.511D+00
 Coeff:      0.329D-02-0.100D+00 0.202D+00 0.384D+00 0.511D+00
 Gap=     0.326 Goal=   None    Shift=    0.000
 RMSDP=3.06D-07 MaxDP=3.73D-05 DE=-1.20D-07 OVMax= 2.79D-05

 Cycle   6  Pass 1  IDiag  1:
 RMSU=  1.59D-07    CP:  1.00D+00  1.17D+00  1.01D+00  8.51D-01  7.65D-01
 E= -992.224952674621     Delta-E=       -0.000000021028 Rises=F Damp=F
 DIIS: error= 9.77D-07 at cycle   6 NSaved=   6.
 NSaved= 6 IEnMin= 6 EnMin= -992.224952674621     IErMin= 6 ErrMin= 9.77D-07
 ErrMax= 9.77D-07  0.00D+00 EMaxC= 1.00D-01 BMatC= 1.57D-09 BMatP= 2.55D-08
 IDIUse=1 WtCom= 1.00D+00 WtEn= 0.00D+00
 Coeff-Com:  0.267D-02-0.400D-01 0.111D-01 0.672D-01 0.222D+00 0.737D+00
 Coeff:      0.267D-02-0.400D-01 0.111D-01 0.672D-01 0.222D+00 0.737D+00
 Gap=     0.326 Goal=   None    Shift=    0.000
 RMSDP=1.37D-07 MaxDP=1.01D-05 DE=-2.10D-08 OVMax= 1.25D-05

 Cycle   7  Pass 1  IDiag  1:
 RMSU=  7.32D-08    CP:  1.00D+00  1.17D+00  1.06D+00  8.75D-01  8.08D-01
                    CP:  8.73D-01
 E= -992.224952676508     Delta-E=       -0.000000001887 Rises=F Damp=F
 DIIS: error= 3.87D-07 at cycle   7 NSaved=   7.
 NSaved= 7 IEnMin= 7 EnMin= -992.224952676508     IErMin= 7 ErrMin= 3.87D-07
 ErrMax= 3.87D-07  0.00D+00 EMaxC= 1.00D-01 BMatC= 1.67D-10 BMatP= 1.57D-09
 IDIUse=1 WtCom= 1.00D+00 WtEn= 0.00D+00
 Coeff-Com:  0.437D-03 0.195D-02-0.278D-01-0.361D-01-0.335D-02 0.254D+00
 Coeff-Com:  0.810D+00
 Coeff:      0.437D-03 0.195D-02-0.278D-01-0.361D-01-0.335D-02 0.254D+00
 Coeff:      0.810D+00
 Gap=     0.326 Goal=   None    Shift=    0.000
 RMSDP=4.63D-08 MaxDP=3.13D-06 DE=-1.89D-09 OVMax= 7.49D-06

 Cycle   8  Pass 1  IDiag  1:
 RMSU=  2.20D-08    CP:  1.00D+00  1.17D+00  1.06D+00  8.94D-01  8.54D-01
                    CP:  1.02D+00  1.04D+00
 E= -992.224952676795     Delta-E=       -0.000000000287 Rises=F Damp=F
 DIIS: error= 1.03D-07 at cycle   8 NSaved=   8.
 NSaved= 8 IEnMin= 8 EnMin= -992.224952676795     IErMin= 8 ErrMin= 1.03D-07
 ErrMax= 1.03D-07  0.00D+00 EMaxC= 1.00D-01 BMatC= 1.34D-11 BMatP= 1.67D-10
 IDIUse=1 WtCom= 1.00D+00 WtEn= 0.00D+00
 Coeff-Com: -0.175D-03 0.555D-02-0.103D-01-0.182D-01-0.259D-01-0.492D-02
 Coeff-Com:  0.221D+00 0.833D+00
 Coeff:     -0.175D-03 0.555D-02-0.103D-01-0.182D-01-0.259D-01-0.492D-02
 Coeff:      0.221D+00 0.833D+00
 Gap=     0.326 Goal=   None    Shift=    0.000
 RMSDP=1.61D-08 MaxDP=8.74D-07 DE=-2.87D-10 OVMax= 3.12D-06

 Cycle   9  Pass 1  IDiag  1:
 RMSU=  8.42D-09    CP:  1.00D+00  1.17D+00  1.06D+00  8.99D-01  8.63D-01
                    CP:  1.06D+00  1.17D+00  1.17D+00
 E= -992.224952676851     Delta-E=       -0.000000000055 Rises=F Damp=F
 DIIS: error= 5.16D-08 at cycle   9 NSaved=   9.
 NSaved= 9 IEnMin= 9 EnMin= -992.224952676851     IErMin= 9 ErrMin= 5.16D-08
 ErrMax= 5.16D-08  0.00D+00 EMaxC= 1.00D-01 BMatC= 2.38D-12 BMatP= 1.34D-11
 IDIUse=1 WtCom= 1.00D+00 WtEn= 0.00D+00
 Coeff-Com: -0.102D-03 0.205D-02-0.211D-02-0.447D-02-0.987D-02-0.190D-01
 Coeff-Com:  0.268D-01 0.307D+00 0.700D+00
 Coeff:     -0.102D-03 0.205D-02-0.211D-02-0.447D-02-0.987D-02-0.190D-01
 Coeff:      0.268D-01 0.307D+00 0.700D+00
 Gap=     0.326 Goal=   None    Shift=    0.000
 RMSDP=5.31D-09 MaxDP=2.72D-07 DE=-5.55D-11 OVMax= 1.30D-06

 Error on total polarization charges =  0.02896
 SCF Done:  E(RwB97XD) =  -992.224952677     A.U. after    9 cycles
            NFock=  9  Conv=0.53D-08     -V/T= 2.0800
 KE= 9.187364843826D+02 PE=-4.538209234743D+03 EE= 1.511528163230D+03
 SMD-CDS (non-electrostatic) energy       (kcal/mol) =      -0.36
 (included in total energy above)
 Leave Link  502 at Tue Oct  4 18:52:52 2022, MaxMem=  2952790016 cpu:            7108.3 elap:             597.2
 (Enter /mnt/data/applications/G16/g16/l701.exe)
 ... and contract with generalized density number  0.
 Compute integral first derivatives.
 R6Disp: Adding Grimme-D2 dispersion energy 1st derivatives to the gradient.
   1 Symmetry operations used in ECPInt.
 ECPInt:  NShTT=   22578 NPrTT=   66767 LenC2=   20931 LenP2D=   46144.
 LDataN:  DoStor=T MaxTD1= 8 Len=  415
 D1PCM: PCM CHGder 1st derivatives, ID1Alg=3 FixD1E=F DoIter=F DoCFld=F I1PDM=0.
 GePol: Maximum number of non-zero 1st derivatives   =     419
 Leave Link  701 at Tue Oct  4 18:53:04 2022, MaxMem=  2952790016 cpu:             137.7 elap:              11.5
 (Enter /mnt/data/applications/G16/g16/l702.exe)
 L702 exits ... SP integral derivatives will be done elsewhere.
 Leave Link  702 at Tue Oct  4 18:53:04 2022, MaxMem=  2952790016 cpu:               0.2 elap:               0.0
 (Enter /mnt/data/applications/G16/g16/l703.exe)
 Integral derivatives from FoFJK, PRISM(SPDF).
 Compute integral first derivatives, UseDBF=F ICtDFT=           0.
 Calling FoFJK, ICntrl=      2127 FMM=F ISym2X=0 I1Cent= 0 IOpClX= 0 NMat=1 NMatS=1 NMatT=0.
 FoFJK:  IHMeth= 1 ICntrl=    2127 DoSepK=T KAlg= 0 I1Cent=           0 FoldK=F
 IRaf=         1 NMat=       1 IRICut=       1 DoRegI=T DoRafI=F ISym2E= 0 IDoP0=0 IntGTp=1.
 FoFCou: FMM=F IPFlag=           0 FMFlag=      100000 FMFlg1=         800
         NFxFlg=           0 DoJE=F BraDBF=F KetDBF=F FulRan=T
         wScrn=  0.000000 ICntrl=      2527 IOpCl=  0 I1Cent=           0 NGrid=           0
         NMat0=    1 NMatS0=      1 NMatT0=    0 NMatD0=    1 NMtDS0=    0 NMtDT0=    0
 Symmetry not used in FoFCou.
 Defaulting to unpruned grid for atomic number  45.
 Defaulting to unpruned grid for atomic number  45.
 Defaulting to unpruned grid for atomic number  45.
 Defaulting to unpruned grid for atomic number  45.
 Defaulting to unpruned grid for atomic number  45.
 Defaulting to unpruned grid for atomic number  45.
 Defaulting to unpruned grid for atomic number  45.
 Defaulting to unpruned grid for atomic number  45.
 Defaulting to unpruned grid for atomic number  45.
 Defaulting to unpruned grid for atomic number  45.
 Defaulting to unpruned grid for atomic number  45.
 Defaulting to unpruned grid for atomic number  45.
 Leave Link  703 at Tue Oct  4 18:57:34 2022, MaxMem=  2952790016 cpu:            3235.2 elap:             270.3
 (Enter /mnt/data/applications/G16/g16/l716.exe)
 Dipole        =-1.51134707D+00 8.31372834D-01 9.98301556D-02
 ***** Axes restored to original set *****
 -------------------------------------------------------------------
 Center     Atomic                   Forces (Hartrees/Bohr)
 Number     Number              X              Y              Z
 -------------------------------------------------------------------
      1        1          -0.000004019   -0.000020496    0.000032913
      2        1          -0.000029661   -0.000005559    0.000007946
      3       45          -0.000001485   -0.000010773   -0.000066243
      4        6          -0.000013756    0.000055572    0.000042736
      5        8          -0.000007896   -0.000039555   -0.000020454
      6        6          -0.000012062   -0.000019358   -0.000008798
      7        6           0.000002907    0.000004714    0.000003892
      8        1           0.000003805   -0.000001796    0.000006281
      9        1          -0.000000545    0.000004231    0.000003456
     10        1           0.000002678    0.000000428    0.000001886
     11        1           0.000000579   -0.000001182    0.000001285
     12        1          -0.000000272   -0.000000737    0.000001471
     13        6           0.000038275    0.000017140    0.000027121
     14        8          -0.000007123   -0.000000381   -0.000003250
     15       15           0.000012808   -0.000036167    0.000023296
     16        6          -0.000010863    0.000015444   -0.000004196
     17        6           0.000005062   -0.000007114    0.000002975
     18        6          -0.000015178    0.000029336   -0.000001833
     19        1           0.000001715   -0.000001724   -0.000000704
     20        1          -0.000003094   -0.000001744   -0.000001805
     21        1          -0.000001509   -0.000001174   -0.000004110
     22        1          -0.000000198   -0.000004142   -0.000002645
     23        1          -0.000000633   -0.000002388   -0.000003053
     24        1           0.000000756   -0.000002353   -0.000003349
     25        1          -0.000000172    0.000001064   -0.000003082
     26        1           0.000000815    0.000011489   -0.000014657
     27        1           0.000007018    0.000002199    0.000001557
     28        6           0.000040225    0.000032000   -0.000023287
     29        8          -0.000008176   -0.000016974    0.000004652
 -------------------------------------------------------------------
 Cartesian Forces:  Max     0.000066243 RMS     0.000016984
 Leave Link  716 at Tue Oct  4 18:57:34 2022, MaxMem=  2952790016 cpu:               0.2 elap:               0.0
 (Enter /mnt/data/applications/G16/g16/l103.exe)

 GradGradGradGradGradGradGradGradGradGradGradGradGradGradGradGradGradGrad
 Berny optimization.
 Using GEDIIS/GDIIS optimizer.
 FormGI is forming the generalized inverse of G from B-inverse, IUseBI=4.
 Internal  Forces:  Max     0.000045121 RMS     0.000010168
 Search for a local minimum.
 Step number   5 out of a maximum of  161
 All quantities printed in internal units (Hartrees-Bohrs-Radians)
 RMS Force = .10168D-04 SwitMx=.10000D-02 MixMth= 2
 Mixed Optimization -- En-DIIS/RFO-DIIS
 Swapping is turned off.
 Update second derivatives using D2CorX and points    1    2    3    4    5
 DE= -2.93D-06 DEPred=-2.66D-06 R= 1.10D+00
 TightC=F SS=  1.41D+00  RLast= 1.02D-02 DXNew= 1.4142D-01 3.0712D-02
 Trust test= 1.10D+00 RLast= 1.02D-02 DXMaxT set to 8.41D-02
 ITU=  1  1 -1  1  0
     Eigenvalues ---    0.00226   0.00234   0.00500   0.00525   0.00907
     Eigenvalues ---    0.00963   0.00985   0.02142   0.03706   0.03809
     Eigenvalues ---    0.03920   0.04110   0.05184   0.05232   0.05252
     Eigenvalues ---    0.05321   0.05443   0.05591   0.05683   0.05927
     Eigenvalues ---    0.05940   0.06007   0.06061   0.06137   0.06271
     Eigenvalues ---    0.06280   0.06370   0.07565   0.07941   0.09345
     Eigenvalues ---    0.09942   0.11048   0.11923   0.12767   0.13273
     Eigenvalues ---    0.13704   0.14032   0.14200   0.14630   0.15940
     Eigenvalues ---    0.15998   0.16000   0.16000   0.16000   0.16000
     Eigenvalues ---    0.16000   0.16000   0.16000   0.16004   0.16010
     Eigenvalues ---    0.16064   0.16484   0.16856   0.20206   0.20611
     Eigenvalues ---    0.21897   0.21950   0.24635   0.24874   0.24975
     Eigenvalues ---    0.25071   0.25124   0.30363   0.30545   0.34312
     Eigenvalues ---    0.34483   0.34597   0.34598   0.34604   0.34607
     Eigenvalues ---    0.34659   0.34671   0.34674   0.34697   0.34725
     Eigenvalues ---    0.34767   0.34858   0.34994   0.99236   1.47628
     Eigenvalues ---    1.48297
 En-DIIS/RFO-DIIS/Sim-DIIS IScMMF=       -3 using points:     5    4    3    2    1
 RFO step:  Lambda=-1.45225852D-07.
 NNeg= 0 NGDIIS= 5 SimSw=  2.50D-03 Rises=F DC= -2.93D-06 SmlDif=  1.00D-05
 NRisDI= 0 DoIntr=F SqrtH=F CThrHd= 10.0 CDAdj=  3.0
 RMS Error=  0.2714870826D-03 NUsed= 5 OKEnD=F EnDIS=F
 InvSVX:  RCond= 1.44D-05 Info=           0 Equed=N FErr=  5.15D-15 BErr=  1.11D-16
 DidBck=F Rises=F RFO-DIIS coefs:    0.67003    0.19241    0.02857    0.03838    0.07061
 Iteration  1 RMS(Cart)=  0.00039837 RMS(Int)=  0.00000052
 Iteration  2 RMS(Cart)=  0.00000007 RMS(Int)=  0.00000052
 ITry= 1 IFail=0 DXMaxC= 1.62D-03 DCOld= 1.00D+10 DXMaxT= 8.41D-02 DXLimC= 3.00D+00 Rises=F
 Variable       Old X    -DE/DX   Delta X   Delta X   Delta X     New X
                                 (Linear)    (Quad)   (Total)
    R1        3.01751  -0.00004   0.00013  -0.00036  -0.00023   3.01728
    R2        3.00974  -0.00001   0.00002  -0.00009  -0.00008   3.00967
    R3        3.95763  -0.00002   0.00005  -0.00017  -0.00012   3.95751
    R4        3.68763   0.00002  -0.00003   0.00012   0.00009   3.68772
    R5        4.52851   0.00000  -0.00004   0.00005   0.00001   4.52853
    R6        3.70571  -0.00003   0.00004  -0.00018  -0.00014   3.70557
    R7        2.28439  -0.00005   0.00003  -0.00008  -0.00005   2.28434
    R8        2.87227   0.00000   0.00001  -0.00001  -0.00000   2.87226
    R9        2.86891   0.00001  -0.00000   0.00002   0.00002   2.86892
   R10        2.06545  -0.00000   0.00000  -0.00001  -0.00001   2.06544
   R11        2.06818  -0.00000   0.00001  -0.00001  -0.00001   2.06817
   R12        2.06319   0.00000  -0.00000   0.00000   0.00000   2.06319
   R13        2.06168  -0.00000  -0.00000  -0.00000  -0.00000   2.06168
   R14        2.06121  -0.00000   0.00000  -0.00000  -0.00000   2.06120
   R15        2.14007  -0.00001  -0.00000  -0.00000  -0.00000   2.14007
   R16        3.43797   0.00001  -0.00001   0.00005   0.00004   3.43801
   R17        3.42602   0.00001  -0.00002   0.00008   0.00005   3.42608
   R18        3.42972   0.00001  -0.00002   0.00005   0.00003   3.42976
   R19        2.06212   0.00000   0.00000   0.00000   0.00000   2.06212
   R20        2.06207   0.00000  -0.00000   0.00000   0.00000   2.06208
   R21        2.06322  -0.00000  -0.00000  -0.00000  -0.00000   2.06322
   R22        2.06054   0.00000  -0.00000   0.00000   0.00000   2.06054
   R23        2.05755   0.00000   0.00001  -0.00001   0.00000   2.05755
   R24        2.06334  -0.00000   0.00000  -0.00000  -0.00000   2.06334
   R25        2.06231   0.00000  -0.00000   0.00000   0.00000   2.06231
   R26        2.06337  -0.00000  -0.00000   0.00000  -0.00000   2.06336
   R27        2.05908  -0.00000   0.00000  -0.00001  -0.00000   2.05908
   R28        2.13843   0.00002  -0.00000   0.00001   0.00001   2.13844
    A1        1.43529   0.00000   0.00003  -0.00005  -0.00002   1.43527
    A2        1.42314   0.00001   0.00000  -0.00000   0.00000   1.42314
    A3        1.52896   0.00001  -0.00006   0.00021   0.00015   1.52911
    A4        1.53117  -0.00002  -0.00002  -0.00006  -0.00008   1.53109
    A5        1.49364   0.00003  -0.00003   0.00026   0.00023   1.49388
    A6        1.59023  -0.00001   0.00005  -0.00015  -0.00010   1.59013
    A7        1.51454  -0.00003   0.00015  -0.00041  -0.00025   1.51428
    A8        1.54263  -0.00002   0.00010  -0.00027  -0.00017   1.54246
    A9        1.57025  -0.00001  -0.00011   0.00011   0.00000   1.57025
   A10        1.71707  -0.00000  -0.00004   0.00003  -0.00001   1.71707
   A11        1.77252   0.00003  -0.00006   0.00028   0.00022   1.77274
   A12        1.67310   0.00001  -0.00002   0.00005   0.00003   1.67313
   A13        2.13413   0.00001  -0.00003   0.00005   0.00003   2.13415
   A14        2.05917  -0.00002   0.00005  -0.00015  -0.00010   2.05907
   A15        2.08984   0.00002  -0.00003   0.00010   0.00007   2.08991
   A16        2.00553  -0.00000   0.00002  -0.00004  -0.00002   2.00551
   A17        1.86005   0.00000  -0.00001   0.00004   0.00003   1.86008
   A18        1.85585  -0.00000   0.00001  -0.00003  -0.00002   1.85583
   A19        1.95229  -0.00000  -0.00001   0.00002   0.00001   1.95230
   A20        1.94694   0.00000  -0.00001   0.00000  -0.00001   1.94693
   A21        1.83167  -0.00000  -0.00000   0.00000   0.00000   1.83168
   A22        1.92399   0.00000   0.00001  -0.00000   0.00000   1.92399
   A23        1.94199  -0.00000  -0.00001   0.00001   0.00000   1.94199
   A24        1.94389  -0.00000   0.00000  -0.00001  -0.00001   1.94389
   A25        1.88720  -0.00000   0.00000  -0.00001  -0.00001   1.88720
   A26        1.88795  -0.00000   0.00000  -0.00001  -0.00000   1.88795
   A27        1.87672   0.00000  -0.00000   0.00001   0.00001   1.87673
   A28        1.99867   0.00000  -0.00001   0.00007   0.00005   1.99872
   A29        2.01034  -0.00000  -0.00004   0.00004  -0.00000   2.01034
   A30        2.01350   0.00001  -0.00005   0.00017   0.00013   2.01362
   A31        1.79662  -0.00000   0.00008  -0.00016  -0.00008   1.79653
   A32        1.80037  -0.00001   0.00003  -0.00008  -0.00005   1.80032
   A33        1.81650  -0.00001   0.00002  -0.00009  -0.00008   1.81642
   A34        1.91479  -0.00000   0.00001  -0.00002  -0.00001   1.91478
   A35        1.91117   0.00000   0.00001  -0.00002  -0.00001   1.91117
   A36        1.94170   0.00000  -0.00002   0.00004   0.00002   1.94173
   A37        1.89172  -0.00000   0.00000  -0.00002  -0.00002   1.89170
   A38        1.90227   0.00000  -0.00000   0.00001   0.00001   1.90229
   A39        1.90143  -0.00000   0.00000  -0.00000  -0.00000   1.90143
   A40        1.90545   0.00000  -0.00001   0.00002   0.00001   1.90547
   A41        1.90355   0.00002  -0.00004   0.00018   0.00014   1.90369
   A42        1.93516  -0.00000   0.00001  -0.00005  -0.00003   1.93513
   A43        1.89869  -0.00001  -0.00000  -0.00003  -0.00003   1.89866
   A44        1.90919   0.00000   0.00001  -0.00003  -0.00001   1.90918
   A45        1.91141  -0.00001   0.00003  -0.00010  -0.00008   1.91133
   A46        1.90931  -0.00000   0.00001  -0.00003  -0.00002   1.90929
   A47        1.94234   0.00000  -0.00002   0.00006   0.00003   1.94237
   A48        1.89575  -0.00000   0.00001  -0.00005  -0.00003   1.89572
   A49        1.90323   0.00000   0.00000   0.00001   0.00001   1.90323
   A50        1.90049   0.00000   0.00000  -0.00001  -0.00001   1.90048
   A51        1.91228   0.00000   0.00000   0.00002   0.00002   1.91230
   A52        3.02553  -0.00000   0.00008  -0.00020  -0.00012   3.02541
   A53        2.96425   0.00001  -0.00003   0.00016   0.00013   2.96438
   A54        2.95431  -0.00001  -0.00001  -0.00006  -0.00008   2.95423
   A55        3.08786   0.00001  -0.00012   0.00018   0.00006   3.08792
   A56        3.20213   0.00001   0.00011   0.00012   0.00023   3.20235
   A57        2.97300  -0.00001   0.00010  -0.00028  -0.00018   2.97282
   A58        3.19432  -0.00002   0.00014  -0.00035  -0.00022   3.19411
   A59        3.03178   0.00000   0.00012  -0.00013  -0.00001   3.03178
   A60        3.16568   0.00000   0.00011  -0.00005   0.00007   3.16574
   A61        3.06465   0.00002   0.00003   0.00010   0.00013   3.06479
    D1        1.86632   0.00000  -0.00038   0.00013  -0.00025   1.86607
    D2       -1.28639   0.00001  -0.00040   0.00011  -0.00029  -1.28668
    D3       -2.97189   0.00000  -0.00034   0.00004  -0.00030  -2.97219
    D4        0.15859   0.00000  -0.00036   0.00002  -0.00034   0.15825
    D5       -1.37941  -0.00000  -0.00030  -0.00010  -0.00040  -1.37981
    D6        1.75107  -0.00000  -0.00032  -0.00012  -0.00044   1.75063
    D7        0.33774  -0.00001  -0.00034  -0.00007  -0.00041   0.33733
    D8       -2.81497  -0.00001  -0.00035  -0.00009  -0.00044  -2.81541
    D9        1.56362  -0.00001  -0.00032  -0.00008  -0.00040   1.56323
   D10       -0.51512  -0.00000  -0.00038   0.00005  -0.00032  -0.51545
   D11       -2.63323  -0.00000  -0.00032   0.00001  -0.00032  -2.63355
   D12        2.98666   0.00000  -0.00031  -0.00009  -0.00039   2.98626
   D13        0.90791   0.00001  -0.00037   0.00005  -0.00032   0.90759
   D14       -1.21020   0.00001  -0.00032  -0.00000  -0.00032  -1.21051
   D15       -1.75429  -0.00002  -0.00022  -0.00034  -0.00056  -1.75485
   D16        2.45015  -0.00002  -0.00028  -0.00021  -0.00049   2.44966
   D17        0.33205  -0.00002  -0.00023  -0.00026  -0.00049   0.33156
   D18        0.03700   0.00001  -0.00029  -0.00004  -0.00033   0.03667
   D19       -2.04175   0.00001  -0.00035   0.00009  -0.00026  -2.04201
   D20        2.12333   0.00001  -0.00030   0.00004  -0.00026   2.12308
   D21        3.11116  -0.00000   0.00001  -0.00002  -0.00001   3.11115
   D22        0.93814  -0.00000   0.00002  -0.00006  -0.00003   0.93811
   D23       -1.00912  -0.00000   0.00003  -0.00007  -0.00004  -1.00916
   D24       -0.04126   0.00000  -0.00000  -0.00005  -0.00005  -0.04130
   D25       -2.21428   0.00000   0.00001  -0.00008  -0.00007  -2.21435
   D26        2.12165  -0.00000   0.00001  -0.00009  -0.00008   2.12157
   D27       -3.14105  -0.00000  -0.00001   0.00005   0.00004  -3.14101
   D28       -1.04741  -0.00000  -0.00001   0.00005   0.00004  -1.04737
   D29        1.04631  -0.00000  -0.00002   0.00007   0.00005   1.04636
   D30       -1.01739   0.00000  -0.00002   0.00010   0.00008  -1.01732
   D31        1.07625   0.00000  -0.00002   0.00009   0.00007   1.07632
   D32       -3.11322   0.00000  -0.00003   0.00011   0.00008  -3.11313
   D33        1.02828   0.00000  -0.00003   0.00012   0.00008   1.02837
   D34        3.12192   0.00000  -0.00003   0.00011   0.00008   3.12200
   D35       -1.06754   0.00000  -0.00004   0.00013   0.00009  -1.06745
   D36        1.02945   0.00000   0.00001  -0.00004  -0.00003   1.02943
   D37       -1.04467   0.00000  -0.00000   0.00001   0.00000  -1.04466
   D38        3.13571   0.00000  -0.00000  -0.00000  -0.00000   3.13571
   D39       -3.05849   0.00000   0.00001  -0.00006  -0.00006  -3.05855
   D40        1.15057   0.00000  -0.00001  -0.00002  -0.00003   1.15055
   D41       -0.95223   0.00000  -0.00001  -0.00003  -0.00003  -0.95227
   D42       -1.17251  -0.00001   0.00006  -0.00024  -0.00018  -1.17270
   D43        3.03655  -0.00001   0.00004  -0.00019  -0.00015   3.03640
   D44        0.93374  -0.00001   0.00004  -0.00020  -0.00016   0.93358
   D45        1.04323   0.00000  -0.00004   0.00026   0.00022   1.04345
   D46       -1.02928  -0.00000  -0.00001   0.00017   0.00016  -1.02912
   D47       -3.13538  -0.00000  -0.00003   0.00022   0.00019  -3.13519
   D48       -1.14445  -0.00000  -0.00006   0.00027   0.00021  -1.14424
   D49        3.06622  -0.00000  -0.00003   0.00019   0.00016   3.06638
   D50        0.96013  -0.00000  -0.00004   0.00023   0.00019   0.96031
   D51       -3.01819   0.00001  -0.00012   0.00044   0.00032  -3.01788
   D52        1.19248   0.00001  -0.00009   0.00035   0.00026   1.19274
   D53       -0.91362   0.00001  -0.00010   0.00039   0.00029  -0.91333
   D54       -1.07936   0.00000  -0.00006   0.00019   0.00012  -1.07924
   D55        3.09960  -0.00000  -0.00005   0.00016   0.00010   3.09971
   D56        0.99301  -0.00000  -0.00005   0.00013   0.00007   0.99308
   D57        1.11308   0.00001  -0.00009   0.00032   0.00023   1.11331
   D58       -0.99114   0.00001  -0.00008   0.00029   0.00021  -0.99093
   D59       -3.09774   0.00000  -0.00008   0.00026   0.00019  -3.09755
   D60        2.98402   0.00000   0.00001   0.00009   0.00010   2.98413
   D61        0.87980   0.00000   0.00002   0.00006   0.00008   0.87988
   D62       -1.22680  -0.00000   0.00002   0.00003   0.00005  -1.22674
         Item               Value     Threshold  Converged?
 Maximum Force            0.000045     0.000450     YES
 RMS     Force            0.000010     0.000300     YES
 Maximum Displacement     0.001618     0.001800     YES
 RMS     Displacement     0.000398     0.001200     YES
 Predicted change in Energy=-6.772070D-08
 Optimization completed.
    -- Stationary point found.
                           ----------------------------
                           !   Optimized Parameters   !
                           ! (Angstroms and Degrees)  !
 --------------------------                            --------------------------
 ! Name  Definition              Value          Derivative Info.                !
 --------------------------------------------------------------------------------
 ! R1    R(1,3)                  1.5968         -DE/DX =    0.0                 !
 ! R2    R(2,3)                  1.5927         -DE/DX =    0.0                 !
 ! R3    R(3,4)                  2.0943         -DE/DX =    0.0                 !
 ! R4    R(3,13)                 1.9514         -DE/DX =    0.0                 !
 ! R5    R(3,15)                 2.3964         -DE/DX =    0.0                 !
 ! R6    R(3,28)                 1.961          -DE/DX =    0.0                 !
 ! R7    R(4,5)                  1.2088         -DE/DX =    0.0                 !
 ! R8    R(4,6)                  1.5199         -DE/DX =    0.0                 !
 ! R9    R(6,7)                  1.5182         -DE/DX =    0.0                 !
 ! R10   R(6,8)                  1.093          -DE/DX =    0.0                 !
 ! R11   R(6,9)                  1.0944         -DE/DX =    0.0                 !
 ! R12   R(7,10)                 1.0918         -DE/DX =    0.0                 !
 ! R13   R(7,11)                 1.091          -DE/DX =    0.0                 !
 ! R14   R(7,12)                 1.0907         -DE/DX =    0.0                 !
 ! R15   R(13,14)                1.1325         -DE/DX =    0.0                 !
 ! R16   R(15,16)                1.8193         -DE/DX =    0.0                 !
 ! R17   R(15,17)                1.813          -DE/DX =    0.0                 !
 ! R18   R(15,18)                1.8149         -DE/DX =    0.0                 !
 ! R19   R(16,22)                1.0912         -DE/DX =    0.0                 !
 ! R20   R(16,23)                1.0912         -DE/DX =    0.0                 !
 ! R21   R(16,24)                1.0918         -DE/DX =    0.0                 !
 ! R22   R(17,25)                1.0904         -DE/DX =    0.0                 !
 ! R23   R(17,26)                1.0888         -DE/DX =    0.0                 !
 ! R24   R(17,27)                1.0919         -DE/DX =    0.0                 !
 ! R25   R(18,19)                1.0913         -DE/DX =    0.0                 !
 ! R26   R(18,20)                1.0919         -DE/DX =    0.0                 !
 ! R27   R(18,21)                1.0896         -DE/DX =    0.0                 !
 ! R28   R(28,29)                1.1316         -DE/DX =    0.0                 !
 ! A1    A(1,3,2)               82.2362         -DE/DX =    0.0                 !
 ! A2    A(1,3,4)               81.5398         -DE/DX =    0.0                 !
 ! A3    A(1,3,15)              87.6028         -DE/DX =    0.0                 !
 ! A4    A(1,3,28)              87.7296         -DE/DX =    0.0                 !
 ! A5    A(2,3,4)               85.5795         -DE/DX =    0.0                 !
 ! A6    A(2,3,13)              91.1137         -DE/DX =    0.0                 !
 ! A7    A(2,3,28)              86.7766         -DE/DX =    0.0                 !
 ! A8    A(4,3,13)              88.3861         -DE/DX =    0.0                 !
 ! A9    A(4,3,15)              89.9684         -DE/DX =    0.0                 !
 ! A10   A(13,3,15)             98.3811         -DE/DX =    0.0                 !
 ! A11   A(13,3,28)            101.5577         -DE/DX =    0.0                 !
 ! A12   A(15,3,28)             95.8615         -DE/DX =    0.0                 !
 ! A13   A(3,4,5)              122.2766         -DE/DX =    0.0                 !
 ! A14   A(3,4,6)              117.9815         -DE/DX =    0.0                 !
 ! A15   A(5,4,6)              119.7389         -DE/DX =    0.0                 !
 ! A16   A(4,6,7)              114.9083         -DE/DX =    0.0                 !
 ! A17   A(4,6,8)              106.573          -DE/DX =    0.0                 !
 ! A18   A(4,6,9)              106.3323         -DE/DX =    0.0                 !
 ! A19   A(7,6,8)              111.8582         -DE/DX =    0.0                 !
 ! A20   A(7,6,9)              111.5514         -DE/DX =    0.0                 !
 ! A21   A(8,6,9)              104.9472         -DE/DX =    0.0                 !
 ! A22   A(6,7,10)             110.2363         -DE/DX =    0.0                 !
 ! A23   A(6,7,11)             111.2676         -DE/DX =    0.0                 !
 ! A24   A(6,7,12)             111.3768         -DE/DX =    0.0                 !
 ! A25   A(10,7,11)            108.1287         -DE/DX =    0.0                 !
 ! A26   A(10,7,12)            108.1716         -DE/DX =    0.0                 !
 ! A27   A(11,7,12)            107.5281         -DE/DX =    0.0                 !
 ! A28   A(3,15,16)            114.5155         -DE/DX =    0.0                 !
 ! A29   A(3,15,17)            115.1842         -DE/DX =    0.0                 !
 ! A30   A(3,15,18)            115.3649         -DE/DX =    0.0                 !
 ! A31   A(16,15,17)           102.9385         -DE/DX =    0.0                 !
 ! A32   A(16,15,18)           103.1537         -DE/DX =    0.0                 !
 ! A33   A(17,15,18)           104.0777         -DE/DX =    0.0                 !
 ! A34   A(15,16,22)           109.7094         -DE/DX =    0.0                 !
 ! A35   A(15,16,23)           109.5022         -DE/DX =    0.0                 !
 ! A36   A(15,16,24)           111.2515         -DE/DX =    0.0                 !
 ! A37   A(22,16,23)           108.3876         -DE/DX =    0.0                 !
 ! A38   A(22,16,24)           108.9923         -DE/DX =    0.0                 !
 ! A39   A(23,16,24)           108.9439         -DE/DX =    0.0                 !
 ! A40   A(15,17,25)           109.1744         -DE/DX =    0.0                 !
 ! A41   A(15,17,26)           109.0651         -DE/DX =    0.0                 !
 ! A42   A(15,17,27)           110.8764         -DE/DX =    0.0                 !
 ! A43   A(25,17,26)           108.787          -DE/DX =    0.0                 !
 ! A44   A(25,17,27)           109.3887         -DE/DX =    0.0                 !
 ! A45   A(26,17,27)           109.5158         -DE/DX =    0.0                 !
 ! A46   A(15,18,19)           109.3953         -DE/DX =    0.0                 !
 ! A47   A(15,18,20)           111.2879         -DE/DX =    0.0                 !
 ! A48   A(15,18,21)           108.6187         -DE/DX =    0.0                 !
 ! A49   A(19,18,20)           109.0468         -DE/DX =    0.0                 !
 ! A50   A(19,18,21)           108.8902         -DE/DX =    0.0                 !
 ! A51   A(20,18,21)           109.5657         -DE/DX =    0.0                 !
 ! A52   L(1,3,13,2,-1)        173.35           -DE/DX =    0.0                 !
 ! A53   L(2,3,15,1,-1)        169.839          -DE/DX =    0.0                 !
 ! A54   L(4,3,28,1,-1)        169.2694         -DE/DX =    0.0                 !
 ! A55   L(3,13,14,12,-1)      176.9211         -DE/DX =    0.0                 !
 ! A56   L(3,28,29,16,-1)      183.4684         -DE/DX =    0.0                 !
 ! A57   L(1,3,13,2,-2)        170.3404         -DE/DX =    0.0                 !
 ! A58   L(2,3,15,1,-2)        183.0212         -DE/DX =    0.0                 !
 ! A59   L(4,3,28,1,-2)        173.7083         -DE/DX =    0.0                 !
 ! A60   L(3,13,14,12,-2)      181.38           -DE/DX =    0.0                 !
 ! A61   L(3,28,29,16,-2)      175.5917         -DE/DX =    0.0                 !
 ! D1    D(1,3,4,5)            106.9322         -DE/DX =    0.0                 !
 ! D2    D(1,3,4,6)            -73.7049         -DE/DX =    0.0                 !
 ! D3    D(2,3,4,5)           -170.2766         -DE/DX =    0.0                 !
 ! D4    D(2,3,4,6)              9.0864         -DE/DX =    0.0                 !
 ! D5    D(13,3,4,5)           -79.0342         -DE/DX =    0.0                 !
 ! D6    D(13,3,4,6)           100.3287         -DE/DX =    0.0                 !
 ! D7    D(15,3,4,5)            19.3511         -DE/DX =    0.0                 !
 ! D8    D(15,3,4,6)          -161.286          -DE/DX =    0.0                 !
 ! D9    D(1,3,15,16)           89.5891         -DE/DX =    0.0                 !
 ! D10   D(1,3,15,17)          -29.5143         -DE/DX =    0.0                 !
 ! D11   D(1,3,15,18)         -150.8728         -DE/DX =    0.0                 !
 ! D12   D(4,3,15,16)          171.1228         -DE/DX =    0.0                 !
 ! D13   D(4,3,15,17)           52.0194         -DE/DX =    0.0                 !
 ! D14   D(4,3,15,18)          -69.3391         -DE/DX =    0.0                 !
 ! D15   D(13,3,15,16)        -100.5132         -DE/DX =    0.0                 !
 ! D16   D(13,3,15,17)         140.3834         -DE/DX =    0.0                 !
 ! D17   D(13,3,15,18)          19.0249         -DE/DX =    0.0                 !
 ! D18   D(28,3,15,16)           2.1199         -DE/DX =    0.0                 !
 ! D19   D(28,3,15,17)        -116.9835         -DE/DX =    0.0                 !
 ! D20   D(28,3,15,18)         121.658          -DE/DX =    0.0                 !
 ! D21   D(3,4,6,7)            178.2565         -DE/DX =    0.0                 !
 ! D22   D(3,4,6,8)             53.7514         -DE/DX =    0.0                 !
 ! D23   D(3,4,6,9)            -57.8181         -DE/DX =    0.0                 !
 ! D24   D(5,4,6,7)             -2.3639         -DE/DX =    0.0                 !
 ! D25   D(5,4,6,8)           -126.8689         -DE/DX =    0.0                 !
 ! D26   D(5,4,6,9)            121.5615         -DE/DX =    0.0                 !
 ! D27   D(4,6,7,10)          -179.9692         -DE/DX =    0.0                 !
 ! D28   D(4,6,7,11)           -60.0124         -DE/DX =    0.0                 !
 ! D29   D(4,6,7,12)            59.9491         -DE/DX =    0.0                 !
 ! D30   D(8,6,7,10)           -58.2923         -DE/DX =    0.0                 !
 ! D31   D(8,6,7,11)            61.6645         -DE/DX =    0.0                 !
 ! D32   D(8,6,7,12)          -178.3741         -DE/DX =    0.0                 !
 ! D33   D(9,6,7,10)            58.9162         -DE/DX =    0.0                 !
 ! D34   D(9,6,7,11)           178.873          -DE/DX =    0.0                 !
 ! D35   D(9,6,7,12)           -61.1656         -DE/DX =    0.0                 !
 ! D36   D(3,15,16,22)          58.9833         -DE/DX =    0.0                 !
 ! D37   D(3,15,16,23)         -59.8551         -DE/DX =    0.0                 !
 ! D38   D(3,15,16,24)         179.663          -DE/DX =    0.0                 !
 ! D39   D(17,15,16,22)       -175.2385         -DE/DX =    0.0                 !
 ! D40   D(17,15,16,23)         65.9231         -DE/DX =    0.0                 !
 ! D41   D(17,15,16,24)        -54.5588         -DE/DX =    0.0                 !
 ! D42   D(18,15,16,22)        -67.1801         -DE/DX =    0.0                 !
 ! D43   D(18,15,16,23)        173.9815         -DE/DX =    0.0                 !
 ! D44   D(18,15,16,24)         53.4996         -DE/DX =    0.0                 !
 ! D45   D(3,15,17,25)          59.7727         -DE/DX =    0.0                 !
 ! D46   D(3,15,17,26)         -58.9736         -DE/DX =    0.0                 !
 ! D47   D(3,15,17,27)        -179.6439         -DE/DX =    0.0                 !
 ! D48   D(16,15,17,25)        -65.5723         -DE/DX =    0.0                 !
 ! D49   D(16,15,17,26)        175.6814         -DE/DX =    0.0                 !
 ! D50   D(16,15,17,27)         55.0111         -DE/DX =    0.0                 !
 ! D51   D(18,15,17,25)       -172.9297         -DE/DX =    0.0                 !
 ! D52   D(18,15,17,26)         68.324          -DE/DX =    0.0                 !
 ! D53   D(18,15,17,27)        -52.3463         -DE/DX =    0.0                 !
 ! D54   D(3,15,18,19)         -61.8426         -DE/DX =    0.0                 !
 ! D55   D(3,15,18,20)         177.5942         -DE/DX =    0.0                 !
 ! D56   D(3,15,18,21)          56.8951         -DE/DX =    0.0                 !
 ! D57   D(16,15,18,19)         63.7749         -DE/DX =    0.0                 !
 ! D58   D(16,15,18,20)        -56.7883         -DE/DX =    0.0                 !
 ! D59   D(16,15,18,21)       -177.4874         -DE/DX =    0.0                 !
 ! D60   D(17,15,18,19)        170.972          -DE/DX =    0.0                 !
 ! D61   D(17,15,18,20)         50.4089         -DE/DX =    0.0                 !
 ! D62   D(17,15,18,21)        -70.2902         -DE/DX =    0.0                 !
 --------------------------------------------------------------------------------
 Lowest energy point so far.  Saving SCF results.
 Largest change from initial coordinates is atom   10       0.012 Angstoms.
 GradGradGradGradGradGradGradGradGradGradGradGradGradGradGradGradGradGrad

 Leave Link  103 at Tue Oct  4 18:57:35 2022, MaxMem=  2952790016 cpu:               0.6 elap:               0.1
 (Enter /mnt/data/applications/G16/g16/l202.exe)
                          Input orientation:                          
 ---------------------------------------------------------------------
 Center     Atomic      Atomic             Coordinates (Angstroms)
 Number     Number       Type             X           Y           Z
 ---------------------------------------------------------------------
      1          1           0        0.139445   -0.417789   -1.773340
      2          1           0        0.917043   -1.990997   -0.624578
      3         45           0       -0.012040   -0.761804   -0.221416
      4          6           0        1.766128    0.340012   -0.120632
      5          8           0        1.807572    1.458316    0.336527
      6          6           0        3.039683   -0.313018   -0.632316
      7          6           0        4.278574    0.561841   -0.564622
      8          1           0        2.831451   -0.645357   -1.652521
      9          1           0        3.166225   -1.234486   -0.055545
     10          1           0        5.144828    0.020264   -0.949731
     11          1           0        4.154867    1.469584   -1.157048
     12          1           0        4.495344    0.865485    0.460333
     13          6           0        0.200497   -1.173733    1.674143
     14          8           0        0.389581   -1.413684    2.764635
     15         15           0       -1.276785    1.261520    0.000507
     16          6           0       -3.066336    1.065807   -0.262249
     17          6           0       -0.836872    2.578127   -1.165638
     18          6           0       -1.183239    2.062494    1.626442
     19          1           0       -1.587639    1.390485    2.385295
     20          1           0       -1.747536    2.997145    1.640969
     21          1           0       -0.137175    2.264215    1.855205
     22          1           0       -3.467100    0.347111    0.454441
     23          1           0       -3.247284    0.685500   -1.268900
     24          1           0       -3.590119    2.016321   -0.142976
     25          1           0       -0.988601    2.219789   -2.184230
     26          1           0        0.214062    2.831562   -1.035973
     27          1           0       -1.449559    3.466370   -0.998828
     28          6           0       -1.535776   -1.898729   -0.702104
     29          8           0       -2.356611   -2.587726   -1.065493
 ---------------------------------------------------------------------
                    Distance matrix (angstroms):
                    1          2          3          4          5
     1  H    0.000000
     2  H    2.097451   0.000000
     3  Rh   1.596798   1.592687   0.000000
     4  C    2.439632   2.531504   2.094287   0.000000
     5  O    3.279323   3.689787   2.924247   1.208849   0.000000
     6  C    3.118380   2.705785   3.111794   1.519937   2.365244
     7  C    4.421885   4.221430   4.503243   2.561000   2.778775
     8  H    2.704308   2.555851   3.185446   2.110106   3.070843
     9  H    3.574803   2.440272   3.217502   2.107973   3.041520
    10  H    5.091569   4.693086   5.266437   3.493602   3.854832
    11  H    4.479464   4.768925   4.818466   2.838338   2.782209
    12  H    5.060627   4.705397   4.840389   2.839412   2.755158
    13  C    3.529918   2.542730   1.951410   2.822027   3.361485
    14  O    4.652697   3.478257   3.082652   3.646244   4.019302
    15  P    2.823530   3.972717   2.396386   3.181693   3.108841
    16  C    3.842068   5.034147   3.559571   4.888716   4.926213
    17  C    3.209051   4.924008   3.567497   3.588427   3.240919
    18  C    4.411329   5.090095   3.572526   3.836402   3.312682
    19  H    4.852517   5.173702   3.729584   4.316355   3.966045
    20  H    5.184591   6.092146   4.539837   4.744411   4.087586
    21  H    4.520620   5.036618   3.672166   3.350978   2.595746
    22  H    4.307580   5.084461   3.691058   5.264735   5.391738
    23  H    3.597449   4.992035   3.695770   5.154821   5.359683
    24  H    4.742639   6.050210   4.530648   5.612477   5.447601
    25  H    2.897953   4.877982   3.700838   3.921802   3.840916
    26  H    3.332801   4.890860   3.691464   3.074830   2.511739
    27  H    4.267492   5.960178   4.533021   4.570119   4.052697
    28  C    2.479334   2.455778   1.960977   4.031457   4.850410
    29  O    3.382302   3.356680   3.089250   5.144063   5.972983
                    6          7          8          9         10
     6  C    0.000000
     7  C    1.518161   0.000000
     8  H    1.092990   2.176009   0.000000
     9  H    1.094431   2.173308   1.734784   0.000000
    10  H    2.154870   1.091791   2.507723   2.507754   0.000000
    11  H    2.167175   1.090995   2.543599   3.082647   1.767351
    12  H    2.168341   1.090744   3.084693   2.538221   1.767628
    13  C    3.757866   4.965379   4.274084   3.433811   5.723351
    14  O    4.446772   5.487342   5.105323   3.961728   6.202023
    15  P    4.638052   5.627694   4.821440   5.096423   6.609143
    16  C    6.270691   7.368386   6.296414   6.646721   8.305961
    17  C    4.865267   5.531222   4.907596   5.638538   6.509225
    18  C    5.345850   6.073230   5.848230   5.711130   7.131045
    19  H    5.781004   6.618242   6.322735   5.953772   7.637147
    20  H    6.248397   6.863625   6.714315   6.702978   7.942180
    21  H    4.787725   5.315306   5.438979   5.177290   6.387686
    22  H    6.629859   7.815374   6.715358   6.838314   8.731771
    23  H    6.397517   7.559751   6.234531   6.803799   8.424485
    24  H    7.044114   8.013091   7.113355   7.498238   8.996354
    25  H    5.005059   5.754568   4.804641   5.807400   6.631805
    26  H    4.246817   4.679109   4.395432   5.119497   5.676555
    27  H    5.879744   6.437106   5.971654   6.655320   7.440698
    28  C    4.842951   6.315059   4.641865   4.792502   6.955165
    29  O    5.872131   7.361815   5.570762   5.775203   7.942707
                   11         12         13         14         15
    11  H    0.000000
    12  H    1.759768   0.000000
    13  C    5.535323   4.906878   0.000000
    14  O    6.153877   5.230842   1.132476   0.000000
    15  P    5.557523   5.803943   3.303616   4.192122   0.000000
    16  C    7.287624   7.598767   4.408781   5.220465   1.819296
    17  C    5.113355   5.831762   4.818396   5.734612   1.812973
    18  C    6.049358   5.919371   3.519967   3.981590   1.814932
    19  H    6.747653   6.401858   3.205992   3.452051   2.408418
    20  H    6.708256   6.701599   4.603494   5.028449   2.434157
    21  H    5.303464   5.036104   3.459232   3.825110   2.396667
    22  H    7.870909   7.979302   4.153542   4.828186   2.416542
    23  H    7.444403   7.935423   4.899535   5.822607   2.413723
    24  H    7.830202   8.189207   5.277039   6.004760   2.437586
    25  H    5.298412   6.237107   5.274181   6.292278   2.402999
    26  H    4.171281   4.943052   4.836042   5.700661   2.400406
    27  H    5.951619   6.650987   5.603393   6.431252   2.426908
    28  C    6.628418   6.735470   3.030976   3.995066   3.247754
    29  O    7.672645   7.823177   4.005469   4.856935   4.137520
                   16         17         18         19         20
    16  C    0.000000
    17  C    2.841431   0.000000
    18  C    2.847208   2.860342   0.000000
    19  H    3.049827   3.818805   1.091327   0.000000
    20  H    3.015218   2.980256   1.091886   1.777905   0.000000
    21  H    3.807857   3.116666   1.089621   1.774330   1.782231
    22  H    1.091228   3.810536   3.087417   2.889498   3.374527
    23  H    1.091202   3.066396   3.813056   4.074870   4.007528
    24  H    1.091811   2.990289   2.987649   3.285384   2.745831
    25  H    3.056578   1.090393   3.818880   4.682643   3.976482
    26  H    3.804938   1.088809   3.103606   4.126489   3.322846
    27  H    2.986506   1.091873   2.988953   3.972487   2.697683
    28  C    3.365198   4.554730   4.608438   4.511502   5.431797
    29  O    3.807520   5.385690   5.499806   5.322163   6.235920
                   21         22         23         24         25
    21  H    0.000000
    22  H    4.089722   0.000000
    23  H    4.682430   1.769952   0.000000
    24  H    3.997124   1.777161   1.776604   0.000000
    25  H    4.128430   4.075839   2.879847   3.313006   0.000000
    26  H    2.967181   4.684526   4.079308   3.991723   1.771767
    27  H    3.363486   3.989014   3.322347   2.723439   1.780905
    28  C    5.081930   3.179844   3.150993   4.456519   4.411154
    29  O    6.082573   3.486639   3.398335   4.854877   5.122033
                   26         27         28         29
    26  H    0.000000
    27  H    1.781009   0.000000
    28  C    5.054607   5.373989   0.000000
    29  O    5.998159   6.122030   1.131608   0.000000
 Stoichiometry    C8H16O3PRh
 Framework group  C1[X(C8H16O3PRh)]
 Deg. of freedom    81
 Full point group                 C1      NOp   1
 RotChk:  IX=0 Diff= 2.78D-16
 Largest Abelian subgroup         C1      NOp   1
 Largest concise Abelian subgroup C1      NOp   1
                         Standard orientation:                         
 ---------------------------------------------------------------------
 Center     Atomic      Atomic             Coordinates (Angstroms)
 Number     Number       Type             X           Y           Z
 ---------------------------------------------------------------------
      1          1           0        0.138451   -0.417165   -1.776216
      2          1           0        0.913820   -1.992070   -0.628272
      3         45           0       -0.012656   -0.761190   -0.224257
      4          6           0        1.767670    0.337224   -0.124444
      5          8           0        1.811543    1.455359    0.332901
      6          6           0        3.039640   -0.318127   -0.637101
      7          6           0        4.280238    0.554362   -0.570063
      8          1           0        2.830100   -0.649873   -1.657230
      9          1           0        3.164815   -1.239945   -0.060591
     10          1           0        5.145204    0.011214   -0.955852
     11          1           0        4.157862    1.462453   -1.162233
     12          1           0        4.498266    0.857396    0.454806
     13          6           0        0.200358   -1.173888    1.671082
     14          8           0        0.389709   -1.414408    2.761401
     15         15           0       -1.273405    1.264491   -0.001105
     16          6           0       -3.063499    1.072231   -0.262708
     17          6           0       -0.831765    2.580484   -1.167290
     18          6           0       -1.177255    2.064973    1.624921
     19          1           0       -1.582428    1.393587    2.383914
     20          1           0       -1.739764    3.000692    1.640002
     21          1           0       -0.130658    2.264660    1.853027
     22          1           0       -3.465151    0.354160    0.454110
     23          1           0       -3.245838    0.692463   -1.269311
     24          1           0       -3.585394    2.023716   -0.142905
     25          1           0       -0.984852    2.222632   -2.185850
     26          1           0        0.219735    2.831897   -1.038276
     27          1           0       -1.442651    3.469858   -0.999903
     28          6           0       -1.538870   -1.895124   -0.704149
     29          8           0       -2.361254   -2.582489   -1.067124
 ---------------------------------------------------------------------
 Rotational constants (GHZ):           0.6179765           0.4464389           0.3602935
 Leave Link  202 at Tue Oct  4 18:57:35 2022, MaxMem=  2952790016 cpu:               0.1 elap:               0.0
 (Enter /mnt/data/applications/G16/g16/l601.exe)
 Copying SCF densities to generalized density rwf, IOpCl= 0 IROHF=0.

 **********************************************************************

            Population analysis using the SCF density.

 **********************************************************************

 Orbital symmetries:
       Occupied  (A) (A) (A) (A) (A) (A) (A) (A) (A) (A) (A) (A)
                 (A) (A) (A) (A) (A) (A) (A) (A) (A) (A) (A) (A)
                 (A) (A) (A) (A) (A) (A) (A) (A) (A) (A) (A) (A)
                 (A) (A) (A) (A) (A) (A) (A) (A) (A) (A) (A) (A)
                 (A) (A) (A) (A) (A) (A) (A) (A) (A) (A) (A) (A)
       Virtual   (A) (A) (A) (A) (A) (A) (A) (A) (A) (A) (A) (A)
                 (A) (A) (A) (A) (A) (A) (A) (A) (A) (A) (A) (A)
                 (A) (A) (A) (A) (A) (A) (A) (A) (A) (A) (A) (A)
                 (A) (A) (A) (A) (A) (A) (A) (A) (A) (A) (A) (A)
                 (A) (A) (A) (A) (A) (A) (A) (A) (A) (A) (A) (A)
                 (A) (A) (A) (A) (A) (A) (A) (A) (A) (A) (A) (A)
                 (A) (A) (A) (A) (A) (A) (A) (A) (A) (A) (A) (A)
                 (A) (A) (A) (A) (A) (A) (A) (A) (A) (A) (A) (A)
                 (A) (A) (A) (A) (A) (A) (A) (A) (A) (A) (A) (A)
                 (A) (A) (A) (A) (A) (A) (A) (A) (A) (A) (A) (A)
                 (A) (A) (A) (A) (A) (A) (A) (A) (A) (A) (A) (A)
                 (A) (A) (A) (A) (A) (A) (A) (A) (A) (A) (A) (A)
                 (A) (A) (A) (A) (A) (A) (A) (A) (A) (A) (A) (A)
                 (A) (A) (A) (A) (A) (A) (A) (A) (A) (A) (A) (A)
                 (A) (A) (A) (A) (A) (A) (A) (A) (A) (A) (A) (A)
                 (A) (A) (A) (A) (A) (A) (A) (A) (A) (A) (A) (A)
                 (A) (A) (A) (A) (A) (A) (A) (A) (A) (A) (A) (A)
                 (A) (A) (A) (A) (A) (A) (A) (A) (A) (A) (A) (A)
                 (A) (A) (A) (A) (A) (A) (A) (A) (A) (A) (A) (A)
                 (A) (A) (A) (A) (A) (A) (A) (A) (A) (A) (A) (A)
                 (A) (A) (A) (A) (A) (A) (A) (A) (A) (A) (A) (A)
                 (A) (A) (A) (A) (A) (A) (A) (A) (A) (A) (A) (A)
                 (A) (A) (A) (A) (A) (A) (A) (A) (A) (A) (A) (A)
                 (A) (A) (A) (A) (A) (A) (A) (A) (A) (A) (A) (A)
                 (A) (A) (A) (A) (A) (A) (A) (A) (A) (A) (A) (A)
                 (A) (A) (A) (A) (A) (A) (A) (A) (A) (A) (A) (A)
                 (A) (A) (A) (A) (A) (A) (A) (A) (A) (A) (A) (A)
                 (A) (A) (A) (A) (A) (A) (A) (A) (A) (A) (A) (A)
                 (A) (A) (A) (A) (A) (A) (A) (A) (A) (A) (A) (A)
                 (A) (A) (A) (A) (A) (A) (A) (A) (A) (A) (A) (A)
                 (A) (A) (A) (A) (A) (A) (A) (A) (A) (A) (A) (A)
                 (A) (A) (A) (A) (A) (A) (A) (A) (A) (A) (A) (A)
                 (A) (A) (A) (A) (A) (A) (A) (A) (A) (A) (A) (A)
                 (A) (A) (A) (A) (A) (A) (A) (A) (A) (A) (A) (A)
                 (A) (A) (A) (A) (A) (A) (A) (A) (A) (A) (A) (A)
                 (A) (A) (A) (A) (A) (A) (A) (A) (A) (A) (A) (A)
                 (A) (A) (A) (A) (A) (A) (A) (A) (A) (A) (A) (A)
                 (A) (A) (A) (A) (A) (A)
 The electronic state is 1-A.
 Alpha  occ. eigenvalues --  -77.24296 -19.34154 -19.34004 -19.22552 -10.42003
 Alpha  occ. eigenvalues --  -10.41869 -10.35563 -10.28741 -10.28216 -10.28036
 Alpha  occ. eigenvalues --  -10.27004 -10.25798  -6.68708  -4.83404  -4.83372
 Alpha  occ. eigenvalues --   -4.83093  -3.38013  -2.12854  -2.12374  -2.11912
 Alpha  occ. eigenvalues --   -1.25796  -1.25618  -1.13149  -0.88178  -0.85984
 Alpha  occ. eigenvalues --   -0.80104  -0.79802  -0.73523  -0.67882  -0.66971
 Alpha  occ. eigenvalues --   -0.64207  -0.60341  -0.57629  -0.56903  -0.56643
 Alpha  occ. eigenvalues --   -0.56391  -0.56340  -0.56016  -0.53871  -0.53406
 Alpha  occ. eigenvalues --   -0.52899  -0.52593  -0.52276  -0.49808  -0.49490
 Alpha  occ. eigenvalues --   -0.49049  -0.47867  -0.45693  -0.45276  -0.44291
 Alpha  occ. eigenvalues --   -0.42890  -0.42705  -0.42116  -0.41238  -0.39102
 Alpha  occ. eigenvalues --   -0.37492  -0.36833  -0.36522  -0.32617  -0.28333
 Alpha virt. eigenvalues --    0.04250   0.04649   0.05012   0.06513   0.06618
 Alpha virt. eigenvalues --    0.06824   0.07338   0.07761   0.09087   0.09303
 Alpha virt. eigenvalues --    0.09618   0.13148   0.13335   0.14144   0.15441
 Alpha virt. eigenvalues --    0.16337   0.16620   0.17562   0.18064   0.18525
 Alpha virt. eigenvalues --    0.18583   0.19622   0.19876   0.20386   0.20756
 Alpha virt. eigenvalues --    0.21402   0.22054   0.22319   0.22995   0.23787
 Alpha virt. eigenvalues --    0.24214   0.25241   0.25844   0.25922   0.26366
 Alpha virt. eigenvalues --    0.27106   0.27474   0.27786   0.28592   0.29812
 Alpha virt. eigenvalues --    0.30015   0.31606   0.33187   0.33237   0.34195
 Alpha virt. eigenvalues --    0.35352   0.35779   0.36428   0.37673   0.38898
 Alpha virt. eigenvalues --    0.40599   0.41317   0.41794   0.42599   0.43189
 Alpha virt. eigenvalues --    0.44057   0.44935   0.45716   0.46706   0.46902
 Alpha virt. eigenvalues --    0.48504   0.48962   0.49253   0.49510   0.49646
 Alpha virt. eigenvalues --    0.50506   0.51110   0.51224   0.51568   0.52312
 Alpha virt. eigenvalues --    0.52763   0.53085   0.53313   0.54489   0.55023
 Alpha virt. eigenvalues --    0.55175   0.55821   0.56200   0.57127   0.57570
 Alpha virt. eigenvalues --    0.57668   0.57945   0.58739   0.58901   0.60051
 Alpha virt. eigenvalues --    0.60197   0.61212   0.62513   0.63498   0.63921
 Alpha virt. eigenvalues --    0.65344   0.66305   0.66899   0.67902   0.68380
 Alpha virt. eigenvalues --    0.69306   0.69793   0.71516   0.72122   0.72779
 Alpha virt. eigenvalues --    0.73842   0.74151   0.75628   0.77129   0.77484
 Alpha virt. eigenvalues --    0.78900   0.79452   0.80448   0.80671   0.81924
 Alpha virt. eigenvalues --    0.83282   0.84796   0.85359   0.85837   0.87437
 Alpha virt. eigenvalues --    0.88660   0.90453   0.91729   0.92041   0.92377
 Alpha virt. eigenvalues --    0.93786   0.94463   0.95493   0.97140   0.98008
 Alpha virt. eigenvalues --    0.98290   0.99279   1.01666   1.02847   1.03486
 Alpha virt. eigenvalues --    1.04948   1.06740   1.07648   1.09798   1.10997
 Alpha virt. eigenvalues --    1.11654   1.12304   1.12843   1.13656   1.14670
 Alpha virt. eigenvalues --    1.14846   1.16298   1.17071   1.17507   1.19498
 Alpha virt. eigenvalues --    1.19701   1.20916   1.22508   1.24937   1.25876
 Alpha virt. eigenvalues --    1.27071   1.28351   1.30337   1.31904   1.34618
 Alpha virt. eigenvalues --    1.37297   1.41841   1.48766   1.49478   1.50674
 Alpha virt. eigenvalues --    1.51270   1.52810   1.53796   1.54775   1.55679
 Alpha virt. eigenvalues --    1.56868   1.57540   1.58770   1.59009   1.59623
 Alpha virt. eigenvalues --    1.59902   1.60767   1.61028   1.61946   1.62379
 Alpha virt. eigenvalues --    1.62707   1.63147   1.63343   1.63654   1.64333
 Alpha virt. eigenvalues --    1.64555   1.65076   1.66195   1.66804   1.67278
 Alpha virt. eigenvalues --    1.67993   1.68495   1.69294   1.69890   1.70694
 Alpha virt. eigenvalues --    1.70981   1.72283   1.72547   1.72800   1.73999
 Alpha virt. eigenvalues --    1.76002   1.76312   1.76344   1.77932   1.78883
 Alpha virt. eigenvalues --    1.80108   1.82728   1.83689   1.84837   1.88746
 Alpha virt. eigenvalues --    1.90004   1.94317   1.94975   1.96926   1.98139
 Alpha virt. eigenvalues --    1.98919   1.99664   1.99962   2.01818   2.03346
 Alpha virt. eigenvalues --    2.05617   2.05796   2.08405   2.10212   2.11225
 Alpha virt. eigenvalues --    2.11654   2.13034   2.14332   2.15287   2.15451
 Alpha virt. eigenvalues --    2.15872   2.16384   2.18304   2.18507   2.20948
 Alpha virt. eigenvalues --    2.21680   2.22367   2.24250   2.26691   2.28846
 Alpha virt. eigenvalues --    2.29994   2.32177   2.33956   2.34950   2.35671
 Alpha virt. eigenvalues --    2.37438   2.38921   2.40611   2.41618   2.41971
 Alpha virt. eigenvalues --    2.42343   2.43192   2.44158   2.44522   2.46407
 Alpha virt. eigenvalues --    2.48697   2.50133   2.50457   2.52066   2.52646
 Alpha virt. eigenvalues --    2.54381   2.55669   2.57175   2.58957   2.59798
 Alpha virt. eigenvalues --    2.62364   2.63697   2.64324   2.65449   2.66270
 Alpha virt. eigenvalues --    2.66938   2.67103   2.68377   2.69548   2.70818
 Alpha virt. eigenvalues --    2.72136   2.73480   2.74105   2.74552   2.75015
 Alpha virt. eigenvalues --    2.75441   2.76138   2.78005   2.79889   2.82204
 Alpha virt. eigenvalues --    2.84776   2.86352   2.86898   2.87146   2.89444
 Alpha virt. eigenvalues --    2.89595   2.91296   2.92987   2.93176   2.94242
 Alpha virt. eigenvalues --    2.94990   2.97580   2.98078   2.98379   2.99845
 Alpha virt. eigenvalues --    3.01166   3.02314   3.03981   3.04342   3.06254
 Alpha virt. eigenvalues --    3.07122   3.07792   3.10767   3.11479   3.12590
 Alpha virt. eigenvalues --    3.14166   3.15065   3.16077   3.16692   3.17692
 Alpha virt. eigenvalues --    3.18119   3.18709   3.19653   3.21008   3.22630
 Alpha virt. eigenvalues --    3.23904   3.24378   3.25177   3.25660   3.26642
 Alpha virt. eigenvalues --    3.29058   3.30086   3.30990   3.31463   3.33001
 Alpha virt. eigenvalues --    3.34311   3.35973   3.36599   3.37688   3.38506
 Alpha virt. eigenvalues --    3.38762   3.41145   3.42058   3.43019   3.43539
 Alpha virt. eigenvalues --    3.43982   3.44606   3.45856   3.47379   3.48380
 Alpha virt. eigenvalues --    3.50489   3.53393   3.54461   3.55953   3.57025
 Alpha virt. eigenvalues --    3.58950   3.61043   3.62890   3.63635   3.64410
 Alpha virt. eigenvalues --    3.65757   3.67160   3.69350   3.69909   3.70426
 Alpha virt. eigenvalues --    3.71251   3.71890   3.73000   3.73468   3.74266
 Alpha virt. eigenvalues --    3.76068   3.77361   3.77935   3.80269   3.81957
 Alpha virt. eigenvalues --    3.85297   3.87343   3.90804   3.98195   4.00672
 Alpha virt. eigenvalues --    4.01854   4.02349   4.09443   4.14638   4.20304
 Alpha virt. eigenvalues --    4.30463   4.32883   4.34770   4.34906   4.36199
 Alpha virt. eigenvalues --    4.36564   4.40223   4.40536   4.41763   4.43877
 Alpha virt. eigenvalues --    4.49759   4.50711   4.51157   4.53626   4.54934
 Alpha virt. eigenvalues --    4.62524   4.67392   4.70627   4.94029   4.97479
 Alpha virt. eigenvalues --    5.17603   5.17605   5.17745   5.17769   5.29265
 Alpha virt. eigenvalues --    5.30710   5.57098   5.57578   5.58347   5.60435
 Alpha virt. eigenvalues --    5.64342   5.69540   6.21755   6.29553   6.30691
 Alpha virt. eigenvalues --    6.32639   6.33038   6.33560   6.33991   6.34249
 Alpha virt. eigenvalues --    6.34859   6.42813   6.44344   6.50967   6.58471
 Alpha virt. eigenvalues --    6.63284   6.65473   6.80043   6.80603   6.81148
 Alpha virt. eigenvalues --    6.81947   6.93756   7.12416   7.16484   7.16906
 Alpha virt. eigenvalues --    7.20738   7.82728   7.90281   7.94450  15.70457
 Alpha virt. eigenvalues --   22.41582  22.42313  22.43688  22.46840  22.59795
 Alpha virt. eigenvalues --   22.69270  22.83010  23.16481  38.37175  38.41464
 Alpha virt. eigenvalues --   38.57162  43.91413  43.96527  44.08644  49.77300
          Condensed to atoms (all electrons):
               1          2          3          4          5          6
     1  H    0.640610   0.017112   0.353735   0.002577  -0.002813  -0.005935
     2  H    0.017112   0.618911   0.343359  -0.005796   0.000212  -0.002367
     3  Rh   0.353735   0.343359  16.013673   0.218826  -0.041920  -0.085428
     4  C    0.002577  -0.005796   0.218826   5.023614   0.472314   0.242777
     5  O   -0.002813   0.000212  -0.041920   0.472314   8.035407  -0.093797
     6  C   -0.005935  -0.002367  -0.085428   0.242777  -0.093797   5.207684
     7  C    0.001039   0.001247   0.020853  -0.025945   0.020256   0.241632
     8  H   -0.003351  -0.004015  -0.005723  -0.036334   0.000944   0.421203
     9  H   -0.000231  -0.004886  -0.007058  -0.022805   0.000564   0.403644
    10  H   -0.000012  -0.000054  -0.000615   0.011124   0.001071  -0.052422
    11  H   -0.000034  -0.000016  -0.000207  -0.007075   0.001595  -0.031030
    12  H   -0.000016  -0.000016   0.001033  -0.008648   0.001721  -0.026811
    13  C   -0.014124  -0.007226   0.139949   0.008123  -0.008655  -0.005622
    14  O    0.000195  -0.001284  -0.002684  -0.003846   0.000559   0.000647
    15  P   -0.003703  -0.011158   0.269383  -0.030505   0.017675  -0.000250
    16  C   -0.001580   0.000064  -0.025744   0.000447   0.001339   0.000240
    17  C   -0.001527   0.000260  -0.024698  -0.002261  -0.011226  -0.000003
    18  C    0.001050   0.000396  -0.020162   0.001520  -0.015640  -0.000589
    19  H   -0.000055  -0.000024  -0.006849  -0.000028   0.000364   0.000014
    20  H   -0.000008  -0.000007   0.005735  -0.000170   0.000181   0.000010
    21  H    0.000020  -0.000020  -0.003965  -0.004327   0.013232   0.000847
    22  H    0.000021  -0.000021  -0.001047  -0.000018  -0.000011  -0.000002
    23  H   -0.000296   0.000008  -0.005345   0.000065  -0.000019  -0.000007
    24  H   -0.000027  -0.000008   0.005619  -0.000094  -0.000012  -0.000002
    25  H    0.000137  -0.000004  -0.006561  -0.000302   0.000439   0.000186
    26  H   -0.001158  -0.000025  -0.006657   0.000793   0.007854  -0.000051
    27  H    0.000026  -0.000005   0.007451  -0.000112  -0.000046  -0.000043
    28  C   -0.008013   0.004010   0.143757  -0.018096   0.000815   0.001800
    29  O   -0.000905  -0.001550  -0.009147   0.000272  -0.000002  -0.000025
               7          8          9         10         11         12
     1  H    0.001039  -0.003351  -0.000231  -0.000012  -0.000034  -0.000016
     2  H    0.001247  -0.004015  -0.004886  -0.000054  -0.000016  -0.000016
     3  Rh   0.020853  -0.005723  -0.007058  -0.000615  -0.000207   0.001033
     4  C   -0.025945  -0.036334  -0.022805   0.011124  -0.007075  -0.008648
     5  O    0.020256   0.000944   0.000564   0.001071   0.001595   0.001721
     6  C    0.241632   0.421203   0.403644  -0.052422  -0.031030  -0.026811
     7  C    4.906132  -0.029827  -0.028958   0.422668   0.414362   0.410715
     8  H   -0.029827   0.539128  -0.030739  -0.003567  -0.005940   0.006115
     9  H   -0.028958  -0.030739   0.549658  -0.003195   0.006424  -0.005602
    10  H    0.422668  -0.003567  -0.003195   0.552766  -0.025198  -0.025573
    11  H    0.414362  -0.005940   0.006424  -0.025198   0.552598  -0.024940
    12  H    0.410715   0.006115  -0.005602  -0.025573  -0.024940   0.551278
    13  C   -0.000097   0.000635   0.000653  -0.000000   0.000034   0.000019
    14  O   -0.000072   0.000000  -0.000077  -0.000000  -0.000001  -0.000010
    15  P   -0.000446   0.000282   0.000433   0.000005  -0.000000  -0.000010
    16  C   -0.000009  -0.000005  -0.000003  -0.000000  -0.000000  -0.000000
    17  C   -0.000070   0.000095  -0.000035  -0.000002  -0.000036   0.000017
    18  C    0.000079  -0.000003  -0.000002   0.000000   0.000006   0.000000
    19  H   -0.000003  -0.000001   0.000001  -0.000000   0.000000  -0.000000
    20  H   -0.000001   0.000000   0.000000   0.000000   0.000000   0.000000
    21  H   -0.000112  -0.000009  -0.000020  -0.000000  -0.000011  -0.000018
    22  H   -0.000000   0.000000   0.000000   0.000000   0.000000   0.000000
    23  H    0.000000   0.000001   0.000000  -0.000000   0.000000   0.000000
    24  H    0.000000   0.000000   0.000000   0.000000   0.000000   0.000000
    25  H   -0.000011  -0.000003  -0.000002  -0.000000  -0.000002  -0.000001
    26  H    0.000039  -0.000087   0.000024   0.000002   0.000079  -0.000015
    27  H    0.000003  -0.000000   0.000001   0.000000   0.000001   0.000000
    28  C   -0.000112   0.000011   0.000185  -0.000000  -0.000001  -0.000002
    29  O    0.000000   0.000001  -0.000001  -0.000000  -0.000000   0.000000
              13         14         15         16         17         18
     1  H   -0.014124   0.000195  -0.003703  -0.001580  -0.001527   0.001050
     2  H   -0.007226  -0.001284  -0.011158   0.000064   0.000260   0.000396
     3  Rh   0.139949  -0.002684   0.269383  -0.025744  -0.024698  -0.020162
     4  C    0.008123  -0.003846  -0.030505   0.000447  -0.002261   0.001520
     5  O   -0.008655   0.000559   0.017675   0.001339  -0.011226  -0.015640
     6  C   -0.005622   0.000647  -0.000250   0.000240  -0.000003  -0.000589
     7  C   -0.000097  -0.000072  -0.000446  -0.000009  -0.000070   0.000079
     8  H    0.000635   0.000000   0.000282  -0.000005   0.000095  -0.000003
     9  H    0.000653  -0.000077   0.000433  -0.000003  -0.000035  -0.000002
    10  H   -0.000000  -0.000000   0.000005  -0.000000  -0.000002   0.000000
    11  H    0.000034  -0.000001  -0.000000  -0.000000  -0.000036   0.000006
    12  H    0.000019  -0.000010  -0.000010  -0.000000   0.000017   0.000000
    13  C    5.277122   0.556569   0.010084  -0.000770   0.000196  -0.003978
    14  O    0.556569   7.535735  -0.002576   0.000058  -0.000008   0.001037
    15  P    0.010084  -0.002576  13.732850   0.327287   0.330812   0.320609
    16  C   -0.000770   0.000058   0.327287   5.036504  -0.034355  -0.033572
    17  C    0.000196  -0.000008   0.330812  -0.034355   5.024898  -0.035822
    18  C   -0.003978   0.001037   0.320609  -0.033572  -0.035822   5.035028
    19  H    0.001434   0.000212  -0.021272  -0.000526   0.004416   0.393476
    20  H    0.000234  -0.000019  -0.026610  -0.004361  -0.004403   0.394067
    21  H   -0.001162  -0.000064  -0.022975   0.004535  -0.000715   0.398805
    22  H   -0.000563  -0.000019  -0.022809   0.398892   0.004082  -0.001335
    23  H    0.000118  -0.000002  -0.022063   0.400469  -0.001708   0.003974
    24  H    0.000053  -0.000003  -0.027794   0.395822  -0.004334  -0.004848
    25  H   -0.000081   0.000000  -0.021431  -0.000110   0.394937   0.004189
    26  H    0.000299  -0.000006  -0.020768   0.004121   0.399936  -0.000921
    27  H    0.000015  -0.000000  -0.027856  -0.005716   0.397249  -0.005145
    28  C    0.012369  -0.001642  -0.022093   0.002333   0.000656  -0.000001
    29  O   -0.001153   0.000071  -0.001497   0.000844   0.000024   0.000022
              19         20         21         22         23         24
     1  H   -0.000055  -0.000008   0.000020   0.000021  -0.000296  -0.000027
     2  H   -0.000024  -0.000007  -0.000020  -0.000021   0.000008  -0.000008
     3  Rh  -0.006849   0.005735  -0.003965  -0.001047  -0.005345   0.005619
     4  C   -0.000028  -0.000170  -0.004327  -0.000018   0.000065  -0.000094
     5  O    0.000364   0.000181   0.013232  -0.000011  -0.000019  -0.000012
     6  C    0.000014   0.000010   0.000847  -0.000002  -0.000007  -0.000002
     7  C   -0.000003  -0.000001  -0.000112  -0.000000   0.000000   0.000000
     8  H   -0.000001   0.000000  -0.000009   0.000000   0.000001   0.000000
     9  H    0.000001   0.000000  -0.000020   0.000000   0.000000   0.000000
    10  H   -0.000000   0.000000  -0.000000   0.000000  -0.000000   0.000000
    11  H    0.000000   0.000000  -0.000011   0.000000   0.000000   0.000000
    12  H   -0.000000   0.000000  -0.000018   0.000000   0.000000   0.000000
    13  C    0.001434   0.000234  -0.001162  -0.000563   0.000118   0.000053
    14  O    0.000212  -0.000019  -0.000064  -0.000019  -0.000002  -0.000003
    15  P   -0.021272  -0.026610  -0.022975  -0.022809  -0.022063  -0.027794
    16  C   -0.000526  -0.004361   0.004535   0.398892   0.400469   0.395822
    17  C    0.004416  -0.004403  -0.000715   0.004082  -0.001708  -0.004334
    18  C    0.393476   0.394067   0.398805  -0.001335   0.003974  -0.004848
    19  H    0.509297  -0.020954  -0.013153   0.000834  -0.000126  -0.000314
    20  H   -0.020954   0.518674  -0.017453  -0.000100  -0.000148   0.003685
    21  H   -0.013153  -0.017453   0.464507  -0.000143  -0.000073  -0.000146
    22  H    0.000834  -0.000100  -0.000143   0.496462  -0.016704  -0.018935
    23  H   -0.000126  -0.000148  -0.000073  -0.016704   0.493131  -0.018405
    24  H   -0.000314   0.003685  -0.000146  -0.018935  -0.018405   0.512384
    25  H   -0.000100  -0.000075  -0.000022  -0.000108   0.000910  -0.000232
    26  H   -0.000082  -0.000114   0.000678  -0.000075  -0.000098  -0.000094
    27  H   -0.000106   0.003393  -0.000328  -0.000086  -0.000262   0.003659
    28  C   -0.000025  -0.000008   0.000138  -0.000646  -0.000534   0.000321
    29  O   -0.000012  -0.000001  -0.000001  -0.000126   0.000016  -0.000011
              25         26         27         28         29
     1  H    0.000137  -0.001158   0.000026  -0.008013  -0.000905
     2  H   -0.000004  -0.000025  -0.000005   0.004010  -0.001550
     3  Rh  -0.006561  -0.006657   0.007451   0.143757  -0.009147
     4  C   -0.000302   0.000793  -0.000112  -0.018096   0.000272
     5  O    0.000439   0.007854  -0.000046   0.000815  -0.000002
     6  C    0.000186  -0.000051  -0.000043   0.001800  -0.000025
     7  C   -0.000011   0.000039   0.000003  -0.000112   0.000000
     8  H   -0.000003  -0.000087  -0.000000   0.000011   0.000001
     9  H   -0.000002   0.000024   0.000001   0.000185  -0.000001
    10  H   -0.000000   0.000002   0.000000  -0.000000  -0.000000
    11  H   -0.000002   0.000079   0.000001  -0.000001  -0.000000
    12  H   -0.000001  -0.000015   0.000000  -0.000002   0.000000
    13  C   -0.000081   0.000299   0.000015   0.012369  -0.001153
    14  O    0.000000  -0.000006  -0.000000  -0.001642   0.000071
    15  P   -0.021431  -0.020768  -0.027856  -0.022093  -0.001497
    16  C   -0.000110   0.004121  -0.005716   0.002333   0.000844
    17  C    0.394937   0.399936   0.397249   0.000656   0.000024
    18  C    0.004189  -0.000921  -0.005145  -0.000001   0.000022
    19  H   -0.000100  -0.000082  -0.000106  -0.000025  -0.000012
    20  H   -0.000075  -0.000114   0.003393  -0.000008  -0.000001
    21  H   -0.000022   0.000678  -0.000328   0.000138  -0.000001
    22  H   -0.000108  -0.000075  -0.000086  -0.000646  -0.000126
    23  H    0.000910  -0.000098  -0.000262  -0.000534   0.000016
    24  H   -0.000232  -0.000094   0.003659   0.000321  -0.000011
    25  H    0.500347  -0.012310  -0.021868   0.000070  -0.000015
    26  H   -0.012310   0.470970  -0.019087  -0.000027  -0.000001
    27  H   -0.021868  -0.019087   0.521349  -0.000004  -0.000001
    28  C    0.000070  -0.000027  -0.000004   5.274675   0.557128
    29  O   -0.000015  -0.000001  -0.000001   0.557128   7.535760
 Mulliken charges:
               1
     1  H    0.027268
     2  H    0.052904
     3  Rh  -0.269563
     4  C    0.183909
     5  O   -0.402401
     6  C   -0.216298
     7  C   -0.353365
     8  H    0.151189
     9  H    0.142026
    10  H    0.123003
    11  H    0.119393
    12  H    0.120765
    13  C    0.035525
    14  O   -0.082770
    15  P    0.276396
    16  C   -0.466204
    17  C   -0.436372
    18  C   -0.432240
    19  H    0.153582
    20  H    0.148454
    21  H    0.181959
    22  H    0.162457
    23  H    0.167099
    24  H    0.153716
    25  H    0.162023
    26  H    0.176782
    27  H    0.147518
    28  C    0.052934
    29  O   -0.079689
 Sum of Mulliken charges =  -0.00000
 Mulliken charges with hydrogens summed into heavy atoms:
               1
     3  Rh  -0.189391
     4  C    0.183909
     5  O   -0.402401
     6  C    0.076917
     7  C    0.009796
    13  C    0.035525
    14  O   -0.082770
    15  P    0.276396
    16  C    0.017067
    17  C    0.049952
    18  C    0.051754
    28  C    0.052934
    29  O   -0.079689
 Electronic spatial extent (au):  <R**2>=           3514.4450
 Charge=             -0.0000 electrons
 Dipole moment (field-independent basis, Debye):
    X=             -3.8415    Y=              2.1131    Z=              0.2537  Tot=              4.3916
 Quadrupole moment (field-independent basis, Debye-Ang):
   XX=            -98.0418   YY=           -103.0450   ZZ=           -103.6890
   XY=             -9.4887   XZ=             -2.6143   YZ=             -2.4176
 Traceless Quadrupole moment (field-independent basis, Debye-Ang):
   XX=              3.5501   YY=             -1.4531   ZZ=             -2.0970
   XY=             -9.4887   XZ=             -2.6143   YZ=             -2.4176
 Octapole moment (field-independent basis, Debye-Ang**2):
  XXX=            -18.3944  YYY=            -19.8537  ZZZ=             -9.2852  XYY=            -16.9531
  XXY=            -10.0800  XXZ=             -0.7843  XZZ=             -6.9868  YZZ=             -3.2420
  YYZ=              1.5449  XYZ=              0.9785
 Hexadecapole moment (field-independent basis, Debye-Ang**3):
 XXXX=          -2455.4117 YYYY=          -1420.7512 ZZZZ=           -819.4762 XXXY=            -48.7016
 XXXZ=              0.1152 YYYX=            -30.8039 YYYZ=             -9.9365 ZZZX=             12.7976
 ZZZY=             16.0896 XXYY=           -662.9283 XXZZ=           -529.9033 YYZZ=           -378.6028
 XXYZ=            -11.6442 YYXZ=             -8.5616 ZZXY=              6.8903
 N-N= 1.115719634454D+03 E-N=-4.538209247558D+03  KE= 9.187364843826D+02
 No NMR shielding tensors so no spin-rotation constants.
 Leave Link  601 at Tue Oct  4 18:57:35 2022, MaxMem=  2952790016 cpu:               6.8 elap:               0.7
 (Enter /mnt/data/applications/G16/g16/l9999.exe)
 1\1\GINC-KIMIK2155\FOpt\RwB97XD\Gen\C8H16O3P1Rh1\DGARAY\04-Oct-2022\0\
 \#p opt=(maxstep=5) freq pseudo=read WB97XD gen scrf(smd,solvent=tolue
 ne)\\Auto-generated job for I8\\0,1\H,0.1394449889,-0.417788999,-1.773
 3404314\H,0.917042813,-1.9909972218,-0.6245775345\Rh,-0.012040453,-0.7
 618036612,-0.2214157928\C,1.7661282556,0.3400118502,-0.1206317694\O,1.
 8075717596,1.4583159494,0.336527039\C,3.0396826486,-0.3130182127,-0.63
 23159256\C,4.27857422,0.5618405139,-0.5646218065\H,2.8314514583,-0.645
 35693,-1.652520587\H,3.1662254931,-1.2344859846,-0.0555453464\H,5.1448
 275557,0.0202641977,-0.9497306036\H,4.1548665178,1.4695837482,-1.15704
 82082\H,4.4953441276,0.8654846332,0.4603334863\C,0.200497418,-1.173732
 7231,1.6741430362\O,0.3895805322,-1.4136835005,2.764634928\P,-1.276785
 0236,1.2615197812,0.0005069575\C,-3.0663359078,1.0658068039,-0.2622486
 955\C,-0.8368720221,2.5781265127,-1.1656377394\C,-1.183238864,2.062494
 4669,1.6264423296\H,-1.5876394097,1.3904849336,2.3852951657\H,-1.74753
 58093,2.9971454702,1.6409691627\H,-0.1371749503,2.2642145899,1.8552053
 41\H,-3.4670998159,0.3471114832,0.4544410715\H,-3.2472839846,0.6855004
 7,-1.2688996109\H,-3.590118624,2.0163212849,-0.1429760921\H,-0.9886007
 255,2.219788859,-2.1842295379\H,0.2140624148,2.8315622994,-1.035973099
 3\H,-1.4495585445,3.4663695856,-0.9988284316\C,-1.5357764011,-1.898728
 6478,-0.7021042341\O,-2.3566106676,-2.5877255523,-1.0654930715\\Versio
 n=AM64L-G16RevA.03\State=1-A\HF=-992.2249527\RMSD=5.309e-09\RMSF=1.698
 e-05\Dipole=-1.5129907,0.8285173,0.0986652\Quadrupole=2.6688173,-1.107
 8355,-1.5609818,-7.0466907,-1.9361161,-1.8058648\PG=C01 [X(C8H16O3P1Rh
 1)]\\@


 THE POLHOLDE ROLLS WITHOUT SLIPPING ON THE HERPOLHOLDE LYING IN
 THE INVARIABLE PLANE.
 H.GOLDSTEIN, "CLASSICAL MECHANICS", PG 161
 Leave Link 9999 at Tue Oct  4 18:57:35 2022, MaxMem=  2952790016 cpu:               0.4 elap:               0.0
 Job cpu time:       0 days 17 hours 35 minutes 32.2 seconds.
 Elapsed time:       0 days  1 hours 28 minutes 30.6 seconds.
 File lengths (MBytes):  RWF=    269 Int=      0 D2E=      0 Chk=     23 Scr=      1
 Normal termination of Gaussian 16 at Tue Oct  4 18:57:36 2022.
 (Enter /mnt/data/applications/G16/g16/l1.exe)
 Link1:  Proceeding to internal job step number  2.
 -------------------------------------------------------------------
 #P Geom=AllCheck Guess=TCheck SCRF=Check GenChk RwB97XD/ChkBas Freq
 -------------------------------------------------------------------
 1/8=5,10=4,29=7,30=1,38=1,40=1/1,3;
 2/12=2,40=1/2;
 3/5=7,6=2,11=2,14=-4,16=1,17=8,25=1,30=1,67=1,70=2,71=2,74=-58,82=7,116=1,140=1/1,2,3;
 4/5=101/1;
 5/5=2,38=6,98=1/2;
 8/6=4,10=90,11=11/1;
 11/6=1,8=1,9=11,15=111,16=1/1,2,10;
 10/6=1/2;
 6/7=2,8=2,9=2,10=2,28=1/1;
 7/8=1,10=1,25=1/1,2,3,16;
 1/8=5,10=4,30=1/3;
 99//99;
 Leave Link    1 at Tue Oct  4 18:57:36 2022, MaxMem=  2952790016 cpu:               0.6 elap:               0.0
 (Enter /mnt/data/applications/G16/g16/l101.exe)
 Structure from the checkpoint file:  "I8.chk"
 -------------------------
 Auto-generated job for I8
 -------------------------
 Charge =  0 Multiplicity = 1
 Redundant internal coordinates found in file.  (old form).
 H,0,0.1394449889,-0.417788999,-1.7733404314
 H,0,0.917042813,-1.9909972218,-0.6245775345
 Rh,0,-0.012040453,-0.7618036612,-0.2214157928
 C,0,1.7661282556,0.3400118502,-0.1206317694
 O,0,1.8075717596,1.4583159494,0.336527039
 C,0,3.0396826486,-0.3130182127,-0.6323159256
 C,0,4.27857422,0.5618405139,-0.5646218065
 H,0,2.8314514583,-0.64535693,-1.652520587
 H,0,3.1662254931,-1.2344859846,-0.0555453464
 H,0,5.1448275557,0.0202641977,-0.9497306036
 H,0,4.1548665178,1.4695837482,-1.1570482082
 H,0,4.4953441276,0.8654846332,0.4603334863
 C,0,0.200497418,-1.1737327231,1.6741430362
 O,0,0.3895805322,-1.4136835005,2.764634928
 P,0,-1.2767850236,1.2615197812,0.0005069575
 C,0,-3.0663359078,1.0658068039,-0.2622486955
 C,0,-0.8368720221,2.5781265127,-1.1656377394
 C,0,-1.183238864,2.0624944669,1.6264423296
 H,0,-1.5876394097,1.3904849336,2.3852951657
 H,0,-1.7475358093,2.9971454702,1.6409691627
 H,0,-0.1371749503,2.2642145899,1.855205341
 H,0,-3.4670998159,0.3471114832,0.4544410715
 H,0,-3.2472839846,0.68550047,-1.2688996109
 H,0,-3.590118624,2.0163212849,-0.1429760921
 H,0,-0.9886007255,2.219788859,-2.1842295379
 H,0,0.2140624148,2.8315622994,-1.0359730993
 H,0,-1.4495585445,3.4663695856,-0.9988284316
 C,0,-1.5357764011,-1.8987286478,-0.7021042341
 O,0,-2.3566106676,-2.5877255523,-1.0654930715
 Recover connectivity data from disk.
 ITRead=  0  0  0  0  0  0  0  0  0  0  0  0  0  0  0  0  0  0  0  0
 ITRead=  0  0  0  0  0  0  0  0  0
 MicOpt= -1 -1 -1 -1 -1 -1 -1 -1 -1 -1 -1 -1 -1 -1 -1 -1 -1 -1 -1 -1
 MicOpt= -1 -1 -1 -1 -1 -1 -1 -1 -1
 NAtoms=     29 NQM=       29 NQMF=       0 NMMI=      0 NMMIF=      0
                NMic=       0 NMicF=      0.
                    Isotopes and Nuclear Properties:
 (Nuclear quadrupole moments (NQMom) in fm**2, nuclear magnetic moments (NMagM)
  in nuclear magnetons)

  Atom         1           2           3           4           5           6           7           8           9          10
 IAtWgt=           1           1         103          12          16          12          12           1           1           1
 AtmWgt=   1.0078250   1.0078250 102.9048000  12.0000000  15.9949146  12.0000000  12.0000000   1.0078250   1.0078250   1.0078250
 NucSpn=           1           1           1           0           0           0           0           1           1           1
 AtZEff=   1.0000000   1.0000000 229.5000000   3.6000000   5.6000000   3.6000000   3.6000000   1.0000000   1.0000000   1.0000000
 NQMom=    0.0000000   0.0000000   0.0000000   0.0000000   0.0000000   0.0000000   0.0000000   0.0000000   0.0000000   0.0000000
 NMagM=    2.7928460   2.7928460  -0.0884000   0.0000000   0.0000000   0.0000000   0.0000000   2.7928460   2.7928460   2.7928460
 AtZNuc=   1.0000000   1.0000000  45.0000000   6.0000000   8.0000000   6.0000000   6.0000000   1.0000000   1.0000000   1.0000000

  Atom        11          12          13          14          15          16          17          18          19          20
 IAtWgt=           1           1          12          16          31          12          12          12           1           1
 AtmWgt=   1.0078250   1.0078250  12.0000000  15.9949146  30.9737634  12.0000000  12.0000000  12.0000000   1.0078250   1.0078250
 NucSpn=           1           1           0           0           1           0           0           0           1           1
 AtZEff=   1.0000000   1.0000000   3.6000000   5.6000000  12.9400000   3.6000000   3.6000000   3.6000000   1.0000000   1.0000000
 NQMom=    0.0000000   0.0000000   0.0000000   0.0000000   0.0000000   0.0000000   0.0000000   0.0000000   0.0000000   0.0000000
 NMagM=    2.7928460   2.7928460   0.0000000   0.0000000   1.1316000   0.0000000   0.0000000   0.0000000   2.7928460   2.7928460
 AtZNuc=   1.0000000   1.0000000   6.0000000   8.0000000  15.0000000   6.0000000   6.0000000   6.0000000   1.0000000   1.0000000

  Atom        21          22          23          24          25          26          27          28          29
 IAtWgt=           1           1           1           1           1           1           1          12          16
 AtmWgt=   1.0078250   1.0078250   1.0078250   1.0078250   1.0078250   1.0078250   1.0078250  12.0000000  15.9949146
 NucSpn=           1           1           1           1           1           1           1           0           0
 AtZEff=   1.0000000   1.0000000   1.0000000   1.0000000   1.0000000   1.0000000   1.0000000   3.6000000   5.6000000
 NQMom=    0.0000000   0.0000000   0.0000000   0.0000000   0.0000000   0.0000000   0.0000000   0.0000000   0.0000000
 NMagM=    2.7928460   2.7928460   2.7928460   2.7928460   2.7928460   2.7928460   2.7928460   0.0000000   0.0000000
 AtZNuc=   1.0000000   1.0000000   1.0000000   1.0000000   1.0000000   1.0000000   1.0000000   6.0000000   8.0000000
 Leave Link  101 at Tue Oct  4 18:57:36 2022, MaxMem=  2952790016 cpu:               4.6 elap:               0.4
 (Enter /mnt/data/applications/G16/g16/l103.exe)

 GradGradGradGradGradGradGradGradGradGradGradGradGradGradGradGradGradGrad
 Berny optimization.
 Initialization pass.
                           ----------------------------
                           !    Initial Parameters    !
                           ! (Angstroms and Degrees)  !
 --------------------------                            --------------------------
 ! Name  Definition              Value          Derivative Info.                !
 --------------------------------------------------------------------------------
 ! R1    R(1,3)                  1.5968         calculate D2E/DX2 analytically  !
 ! R2    R(2,3)                  1.5927         calculate D2E/DX2 analytically  !
 ! R3    R(3,4)                  2.0943         calculate D2E/DX2 analytically  !
 ! R4    R(3,13)                 1.9514         calculate D2E/DX2 analytically  !
 ! R5    R(3,15)                 2.3964         calculate D2E/DX2 analytically  !
 ! R6    R(3,28)                 1.961          calculate D2E/DX2 analytically  !
 ! R7    R(4,5)                  1.2088         calculate D2E/DX2 analytically  !
 ! R8    R(4,6)                  1.5199         calculate D2E/DX2 analytically  !
 ! R9    R(6,7)                  1.5182         calculate D2E/DX2 analytically  !
 ! R10   R(6,8)                  1.093          calculate D2E/DX2 analytically  !
 ! R11   R(6,9)                  1.0944         calculate D2E/DX2 analytically  !
 ! R12   R(7,10)                 1.0918         calculate D2E/DX2 analytically  !
 ! R13   R(7,11)                 1.091          calculate D2E/DX2 analytically  !
 ! R14   R(7,12)                 1.0907         calculate D2E/DX2 analytically  !
 ! R15   R(13,14)                1.1325         calculate D2E/DX2 analytically  !
 ! R16   R(15,16)                1.8193         calculate D2E/DX2 analytically  !
 ! R17   R(15,17)                1.813          calculate D2E/DX2 analytically  !
 ! R18   R(15,18)                1.8149         calculate D2E/DX2 analytically  !
 ! R19   R(16,22)                1.0912         calculate D2E/DX2 analytically  !
 ! R20   R(16,23)                1.0912         calculate D2E/DX2 analytically  !
 ! R21   R(16,24)                1.0918         calculate D2E/DX2 analytically  !
 ! R22   R(17,25)                1.0904         calculate D2E/DX2 analytically  !
 ! R23   R(17,26)                1.0888         calculate D2E/DX2 analytically  !
 ! R24   R(17,27)                1.0919         calculate D2E/DX2 analytically  !
 ! R25   R(18,19)                1.0913         calculate D2E/DX2 analytically  !
 ! R26   R(18,20)                1.0919         calculate D2E/DX2 analytically  !
 ! R27   R(18,21)                1.0896         calculate D2E/DX2 analytically  !
 ! R28   R(28,29)                1.1316         calculate D2E/DX2 analytically  !
 ! A1    A(1,3,2)               82.2362         calculate D2E/DX2 analytically  !
 ! A2    A(1,3,4)               81.5398         calculate D2E/DX2 analytically  !
 ! A3    A(1,3,15)              87.6028         calculate D2E/DX2 analytically  !
 ! A4    A(1,3,28)              87.7296         calculate D2E/DX2 analytically  !
 ! A5    A(2,3,4)               85.5795         calculate D2E/DX2 analytically  !
 ! A6    A(2,3,13)              91.1137         calculate D2E/DX2 analytically  !
 ! A7    A(2,3,28)              86.7766         calculate D2E/DX2 analytically  !
 ! A8    A(4,3,13)              88.3861         calculate D2E/DX2 analytically  !
 ! A9    A(4,3,15)              89.9684         calculate D2E/DX2 analytically  !
 ! A10   A(13,3,15)             98.3811         calculate D2E/DX2 analytically  !
 ! A11   A(13,3,28)            101.5577         calculate D2E/DX2 analytically  !
 ! A12   A(15,3,28)             95.8615         calculate D2E/DX2 analytically  !
 ! A13   A(3,4,5)              122.2766         calculate D2E/DX2 analytically  !
 ! A14   A(3,4,6)              117.9815         calculate D2E/DX2 analytically  !
 ! A15   A(5,4,6)              119.7389         calculate D2E/DX2 analytically  !
 ! A16   A(4,6,7)              114.9083         calculate D2E/DX2 analytically  !
 ! A17   A(4,6,8)              106.573          calculate D2E/DX2 analytically  !
 ! A18   A(4,6,9)              106.3323         calculate D2E/DX2 analytically  !
 ! A19   A(7,6,8)              111.8582         calculate D2E/DX2 analytically  !
 ! A20   A(7,6,9)              111.5514         calculate D2E/DX2 analytically  !
 ! A21   A(8,6,9)              104.9472         calculate D2E/DX2 analytically  !
 ! A22   A(6,7,10)             110.2363         calculate D2E/DX2 analytically  !
 ! A23   A(6,7,11)             111.2676         calculate D2E/DX2 analytically  !
 ! A24   A(6,7,12)             111.3768         calculate D2E/DX2 analytically  !
 ! A25   A(10,7,11)            108.1287         calculate D2E/DX2 analytically  !
 ! A26   A(10,7,12)            108.1716         calculate D2E/DX2 analytically  !
 ! A27   A(11,7,12)            107.5281         calculate D2E/DX2 analytically  !
 ! A28   A(3,15,16)            114.5155         calculate D2E/DX2 analytically  !
 ! A29   A(3,15,17)            115.1842         calculate D2E/DX2 analytically  !
 ! A30   A(3,15,18)            115.3649         calculate D2E/DX2 analytically  !
 ! A31   A(16,15,17)           102.9385         calculate D2E/DX2 analytically  !
 ! A32   A(16,15,18)           103.1537         calculate D2E/DX2 analytically  !
 ! A33   A(17,15,18)           104.0777         calculate D2E/DX2 analytically  !
 ! A34   A(15,16,22)           109.7094         calculate D2E/DX2 analytically  !
 ! A35   A(15,16,23)           109.5022         calculate D2E/DX2 analytically  !
 ! A36   A(15,16,24)           111.2515         calculate D2E/DX2 analytically  !
 ! A37   A(22,16,23)           108.3876         calculate D2E/DX2 analytically  !
 ! A38   A(22,16,24)           108.9923         calculate D2E/DX2 analytically  !
 ! A39   A(23,16,24)           108.9439         calculate D2E/DX2 analytically  !
 ! A40   A(15,17,25)           109.1744         calculate D2E/DX2 analytically  !
 ! A41   A(15,17,26)           109.0651         calculate D2E/DX2 analytically  !
 ! A42   A(15,17,27)           110.8764         calculate D2E/DX2 analytically  !
 ! A43   A(25,17,26)           108.787          calculate D2E/DX2 analytically  !
 ! A44   A(25,17,27)           109.3887         calculate D2E/DX2 analytically  !
 ! A45   A(26,17,27)           109.5158         calculate D2E/DX2 analytically  !
 ! A46   A(15,18,19)           109.3953         calculate D2E/DX2 analytically  !
 ! A47   A(15,18,20)           111.2879         calculate D2E/DX2 analytically  !
 ! A48   A(15,18,21)           108.6187         calculate D2E/DX2 analytically  !
 ! A49   A(19,18,20)           109.0468         calculate D2E/DX2 analytically  !
 ! A50   A(19,18,21)           108.8902         calculate D2E/DX2 analytically  !
 ! A51   A(20,18,21)           109.5657         calculate D2E/DX2 analytically  !
 ! A52   L(1,3,13,2,-1)        173.35           calculate D2E/DX2 analytically  !
 ! A53   L(2,3,15,1,-1)        169.839          calculate D2E/DX2 analytically  !
 ! A54   L(4,3,28,1,-1)        169.2694         calculate D2E/DX2 analytically  !
 ! A55   L(3,13,14,12,-1)      176.9211         calculate D2E/DX2 analytically  !
 ! A56   L(3,28,29,16,-1)      183.4684         calculate D2E/DX2 analytically  !
 ! A57   L(1,3,13,2,-2)        170.3404         calculate D2E/DX2 analytically  !
 ! A58   L(2,3,15,1,-2)        183.0212         calculate D2E/DX2 analytically  !
 ! A59   L(4,3,28,1,-2)        173.7083         calculate D2E/DX2 analytically  !
 ! A60   L(3,13,14,12,-2)      181.38           calculate D2E/DX2 analytically  !
 ! A61   L(3,28,29,16,-2)      175.5917         calculate D2E/DX2 analytically  !
 ! D1    D(1,3,4,5)            106.9322         calculate D2E/DX2 analytically  !
 ! D2    D(1,3,4,6)            -73.7049         calculate D2E/DX2 analytically  !
 ! D3    D(2,3,4,5)           -170.2766         calculate D2E/DX2 analytically  !
 ! D4    D(2,3,4,6)              9.0864         calculate D2E/DX2 analytically  !
 ! D5    D(13,3,4,5)           -79.0342         calculate D2E/DX2 analytically  !
 ! D6    D(13,3,4,6)           100.3287         calculate D2E/DX2 analytically  !
 ! D7    D(15,3,4,5)            19.3511         calculate D2E/DX2 analytically  !
 ! D8    D(15,3,4,6)          -161.286          calculate D2E/DX2 analytically  !
 ! D9    D(1,3,15,16)           89.5891         calculate D2E/DX2 analytically  !
 ! D10   D(1,3,15,17)          -29.5143         calculate D2E/DX2 analytically  !
 ! D11   D(1,3,15,18)         -150.8728         calculate D2E/DX2 analytically  !
 ! D12   D(4,3,15,16)          171.1228         calculate D2E/DX2 analytically  !
 ! D13   D(4,3,15,17)           52.0194         calculate D2E/DX2 analytically  !
 ! D14   D(4,3,15,18)          -69.3391         calculate D2E/DX2 analytically  !
 ! D15   D(13,3,15,16)        -100.5132         calculate D2E/DX2 analytically  !
 ! D16   D(13,3,15,17)         140.3834         calculate D2E/DX2 analytically  !
 ! D17   D(13,3,15,18)          19.0249         calculate D2E/DX2 analytically  !
 ! D18   D(28,3,15,16)           2.1199         calculate D2E/DX2 analytically  !
 ! D19   D(28,3,15,17)        -116.9835         calculate D2E/DX2 analytically  !
 ! D20   D(28,3,15,18)         121.658          calculate D2E/DX2 analytically  !
 ! D21   D(3,4,6,7)            178.2565         calculate D2E/DX2 analytically  !
 ! D22   D(3,4,6,8)             53.7514         calculate D2E/DX2 analytically  !
 ! D23   D(3,4,6,9)            -57.8181         calculate D2E/DX2 analytically  !
 ! D24   D(5,4,6,7)             -2.3639         calculate D2E/DX2 analytically  !
 ! D25   D(5,4,6,8)           -126.8689         calculate D2E/DX2 analytically  !
 ! D26   D(5,4,6,9)            121.5615         calculate D2E/DX2 analytically  !
 ! D27   D(4,6,7,10)          -179.9692         calculate D2E/DX2 analytically  !
 ! D28   D(4,6,7,11)           -60.0124         calculate D2E/DX2 analytically  !
 ! D29   D(4,6,7,12)            59.9491         calculate D2E/DX2 analytically  !
 ! D30   D(8,6,7,10)           -58.2923         calculate D2E/DX2 analytically  !
 ! D31   D(8,6,7,11)            61.6645         calculate D2E/DX2 analytically  !
 ! D32   D(8,6,7,12)          -178.3741         calculate D2E/DX2 analytically  !
 ! D33   D(9,6,7,10)            58.9162         calculate D2E/DX2 analytically  !
 ! D34   D(9,6,7,11)           178.873          calculate D2E/DX2 analytically  !
 ! D35   D(9,6,7,12)           -61.1656         calculate D2E/DX2 analytically  !
 ! D36   D(3,15,16,22)          58.9833         calculate D2E/DX2 analytically  !
 ! D37   D(3,15,16,23)         -59.8551         calculate D2E/DX2 analytically  !
 ! D38   D(3,15,16,24)         179.663          calculate D2E/DX2 analytically  !
 ! D39   D(17,15,16,22)       -175.2385         calculate D2E/DX2 analytically  !
 ! D40   D(17,15,16,23)         65.9231         calculate D2E/DX2 analytically  !
 ! D41   D(17,15,16,24)        -54.5588         calculate D2E/DX2 analytically  !
 ! D42   D(18,15,16,22)        -67.1801         calculate D2E/DX2 analytically  !
 ! D43   D(18,15,16,23)        173.9815         calculate D2E/DX2 analytically  !
 ! D44   D(18,15,16,24)         53.4996         calculate D2E/DX2 analytically  !
 ! D45   D(3,15,17,25)          59.7727         calculate D2E/DX2 analytically  !
 ! D46   D(3,15,17,26)         -58.9736         calculate D2E/DX2 analytically  !
 ! D47   D(3,15,17,27)        -179.6439         calculate D2E/DX2 analytically  !
 ! D48   D(16,15,17,25)        -65.5723         calculate D2E/DX2 analytically  !
 ! D49   D(16,15,17,26)        175.6814         calculate D2E/DX2 analytically  !
 ! D50   D(16,15,17,27)         55.0111         calculate D2E/DX2 analytically  !
 ! D51   D(18,15,17,25)       -172.9297         calculate D2E/DX2 analytically  !
 ! D52   D(18,15,17,26)         68.324          calculate D2E/DX2 analytically  !
 ! D53   D(18,15,17,27)        -52.3463         calculate D2E/DX2 analytically  !
 ! D54   D(3,15,18,19)         -61.8426         calculate D2E/DX2 analytically  !
 ! D55   D(3,15,18,20)         177.5942         calculate D2E/DX2 analytically  !
 ! D56   D(3,15,18,21)          56.8951         calculate D2E/DX2 analytically  !
 ! D57   D(16,15,18,19)         63.7749         calculate D2E/DX2 analytically  !
 ! D58   D(16,15,18,20)        -56.7883         calculate D2E/DX2 analytically  !
 ! D59   D(16,15,18,21)       -177.4874         calculate D2E/DX2 analytically  !
 ! D60   D(17,15,18,19)        170.972          calculate D2E/DX2 analytically  !
 ! D61   D(17,15,18,20)         50.4089         calculate D2E/DX2 analytically  !
 ! D62   D(17,15,18,21)        -70.2902         calculate D2E/DX2 analytically  !
 --------------------------------------------------------------------------------
 Trust Radius=5.00D-02 FncErr=1.00D-07 GrdErr=1.00D-07 EigMax=2.50D+02 EigMin=1.00D-04
 Number of steps in this run=      2 maximum allowed number of steps=      2.
 GradGradGradGradGradGradGradGradGradGradGradGradGradGradGradGradGradGrad

 Leave Link  103 at Tue Oct  4 18:57:36 2022, MaxMem=  2952790016 cpu:               0.1 elap:               0.0
 (Enter /mnt/data/applications/G16/g16/l202.exe)
                          Input orientation:                          
 ---------------------------------------------------------------------
 Center     Atomic      Atomic             Coordinates (Angstroms)
 Number     Number       Type             X           Y           Z
 ---------------------------------------------------------------------
      1          1           0        0.139445   -0.417789   -1.773340
      2          1           0        0.917043   -1.990997   -0.624578
      3         45           0       -0.012040   -0.761804   -0.221416
      4          6           0        1.766128    0.340012   -0.120632
      5          8           0        1.807572    1.458316    0.336527
      6          6           0        3.039683   -0.313018   -0.632316
      7          6           0        4.278574    0.561841   -0.564622
      8          1           0        2.831451   -0.645357   -1.652521
      9          1           0        3.166225   -1.234486   -0.055545
     10          1           0        5.144828    0.020264   -0.949731
     11          1           0        4.154867    1.469584   -1.157048
     12          1           0        4.495344    0.865485    0.460333
     13          6           0        0.200497   -1.173733    1.674143
     14          8           0        0.389581   -1.413684    2.764635
     15         15           0       -1.276785    1.261520    0.000507
     16          6           0       -3.066336    1.065807   -0.262249
     17          6           0       -0.836872    2.578127   -1.165638
     18          6           0       -1.183239    2.062494    1.626442
     19          1           0       -1.587639    1.390485    2.385295
     20          1           0       -1.747536    2.997145    1.640969
     21          1           0       -0.137175    2.264215    1.855205
     22          1           0       -3.467100    0.347111    0.454441
     23          1           0       -3.247284    0.685500   -1.268900
     24          1           0       -3.590119    2.016321   -0.142976
     25          1           0       -0.988601    2.219789   -2.184230
     26          1           0        0.214062    2.831562   -1.035973
     27          1           0       -1.449559    3.466370   -0.998828
     28          6           0       -1.535776   -1.898729   -0.702104
     29          8           0       -2.356611   -2.587726   -1.065493
 ---------------------------------------------------------------------
                    Distance matrix (angstroms):
                    1          2          3          4          5
     1  H    0.000000
     2  H    2.097451   0.000000
     3  Rh   1.596798   1.592687   0.000000
     4  C    2.439632   2.531504   2.094287   0.000000
     5  O    3.279323   3.689787   2.924247   1.208849   0.000000
     6  C    3.118380   2.705785   3.111794   1.519937   2.365244
     7  C    4.421885   4.221430   4.503243   2.561000   2.778775
     8  H    2.704308   2.555851   3.185446   2.110106   3.070843
     9  H    3.574803   2.440272   3.217502   2.107973   3.041520
    10  H    5.091569   4.693086   5.266437   3.493602   3.854832
    11  H    4.479464   4.768925   4.818466   2.838338   2.782209
    12  H    5.060627   4.705397   4.840389   2.839412   2.755158
    13  C    3.529918   2.542730   1.951410   2.822027   3.361485
    14  O    4.652697   3.478257   3.082652   3.646244   4.019302
    15  P    2.823530   3.972717   2.396386   3.181693   3.108841
    16  C    3.842068   5.034147   3.559571   4.888716   4.926213
    17  C    3.209051   4.924008   3.567497   3.588427   3.240919
    18  C    4.411329   5.090095   3.572526   3.836402   3.312682
    19  H    4.852517   5.173702   3.729584   4.316355   3.966045
    20  H    5.184591   6.092146   4.539837   4.744411   4.087586
    21  H    4.520620   5.036618   3.672166   3.350978   2.595746
    22  H    4.307580   5.084461   3.691058   5.264735   5.391738
    23  H    3.597449   4.992035   3.695770   5.154821   5.359683
    24  H    4.742639   6.050210   4.530648   5.612477   5.447601
    25  H    2.897953   4.877982   3.700838   3.921802   3.840916
    26  H    3.332801   4.890860   3.691464   3.074830   2.511739
    27  H    4.267492   5.960178   4.533021   4.570119   4.052697
    28  C    2.479334   2.455778   1.960977   4.031457   4.850410
    29  O    3.382302   3.356680   3.089250   5.144063   5.972983
                    6          7          8          9         10
     6  C    0.000000
     7  C    1.518161   0.000000
     8  H    1.092990   2.176009   0.000000
     9  H    1.094431   2.173308   1.734784   0.000000
    10  H    2.154870   1.091791   2.507723   2.507754   0.000000
    11  H    2.167175   1.090995   2.543599   3.082647   1.767351
    12  H    2.168341   1.090744   3.084693   2.538221   1.767628
    13  C    3.757866   4.965379   4.274084   3.433811   5.723351
    14  O    4.446772   5.487342   5.105323   3.961728   6.202023
    15  P    4.638052   5.627694   4.821440   5.096423   6.609143
    16  C    6.270691   7.368386   6.296414   6.646721   8.305961
    17  C    4.865267   5.531222   4.907596   5.638538   6.509225
    18  C    5.345850   6.073230   5.848230   5.711130   7.131045
    19  H    5.781004   6.618242   6.322735   5.953772   7.637147
    20  H    6.248397   6.863625   6.714315   6.702978   7.942180
    21  H    4.787725   5.315306   5.438979   5.177290   6.387686
    22  H    6.629859   7.815374   6.715358   6.838314   8.731771
    23  H    6.397517   7.559751   6.234531   6.803799   8.424485
    24  H    7.044114   8.013091   7.113355   7.498238   8.996354
    25  H    5.005059   5.754568   4.804641   5.807400   6.631805
    26  H    4.246817   4.679109   4.395432   5.119497   5.676555
    27  H    5.879744   6.437106   5.971654   6.655320   7.440698
    28  C    4.842951   6.315059   4.641865   4.792502   6.955165
    29  O    5.872131   7.361815   5.570762   5.775203   7.942707
                   11         12         13         14         15
    11  H    0.000000
    12  H    1.759768   0.000000
    13  C    5.535323   4.906878   0.000000
    14  O    6.153877   5.230842   1.132476   0.000000
    15  P    5.557523   5.803943   3.303616   4.192122   0.000000
    16  C    7.287624   7.598767   4.408781   5.220465   1.819296
    17  C    5.113355   5.831762   4.818396   5.734612   1.812973
    18  C    6.049358   5.919371   3.519967   3.981590   1.814932
    19  H    6.747653   6.401858   3.205992   3.452051   2.408418
    20  H    6.708256   6.701599   4.603494   5.028449   2.434157
    21  H    5.303464   5.036104   3.459232   3.825110   2.396667
    22  H    7.870909   7.979302   4.153542   4.828186   2.416542
    23  H    7.444403   7.935423   4.899535   5.822607   2.413723
    24  H    7.830202   8.189207   5.277039   6.004760   2.437586
    25  H    5.298412   6.237107   5.274181   6.292278   2.402999
    26  H    4.171281   4.943052   4.836042   5.700661   2.400406
    27  H    5.951619   6.650987   5.603393   6.431252   2.426908
    28  C    6.628418   6.735470   3.030976   3.995066   3.247754
    29  O    7.672645   7.823177   4.005469   4.856935   4.137520
                   16         17         18         19         20
    16  C    0.000000
    17  C    2.841431   0.000000
    18  C    2.847208   2.860342   0.000000
    19  H    3.049827   3.818805   1.091327   0.000000
    20  H    3.015218   2.980256   1.091886   1.777905   0.000000
    21  H    3.807857   3.116666   1.089621   1.774330   1.782231
    22  H    1.091228   3.810536   3.087417   2.889498   3.374527
    23  H    1.091202   3.066396   3.813056   4.074870   4.007528
    24  H    1.091811   2.990289   2.987649   3.285384   2.745831
    25  H    3.056578   1.090393   3.818880   4.682643   3.976482
    26  H    3.804938   1.088809   3.103606   4.126489   3.322846
    27  H    2.986506   1.091873   2.988953   3.972487   2.697683
    28  C    3.365198   4.554730   4.608438   4.511502   5.431797
    29  O    3.807520   5.385690   5.499806   5.322163   6.235920
                   21         22         23         24         25
    21  H    0.000000
    22  H    4.089722   0.000000
    23  H    4.682430   1.769952   0.000000
    24  H    3.997124   1.777161   1.776604   0.000000
    25  H    4.128430   4.075839   2.879847   3.313006   0.000000
    26  H    2.967181   4.684526   4.079308   3.991723   1.771767
    27  H    3.363486   3.989014   3.322347   2.723439   1.780905
    28  C    5.081930   3.179844   3.150993   4.456519   4.411154
    29  O    6.082573   3.486639   3.398335   4.854877   5.122033
                   26         27         28         29
    26  H    0.000000
    27  H    1.781009   0.000000
    28  C    5.054607   5.373989   0.000000
    29  O    5.998159   6.122030   1.131608   0.000000
 Stoichiometry    C8H16O3PRh
 Framework group  C1[X(C8H16O3PRh)]
 Deg. of freedom    81
 Full point group                 C1      NOp   1
 RotChk:  IX=0 Diff= 5.07D-16
 Largest Abelian subgroup         C1      NOp   1
 Largest concise Abelian subgroup C1      NOp   1
                         Standard orientation:                         
 ---------------------------------------------------------------------
 Center     Atomic      Atomic             Coordinates (Angstroms)
 Number     Number       Type             X           Y           Z
 ---------------------------------------------------------------------
      1          1           0        0.138451   -0.417165   -1.776216
      2          1           0        0.913820   -1.992070   -0.628272
      3         45           0       -0.012656   -0.761190   -0.224257
      4          6           0        1.767670    0.337224   -0.124444
      5          8           0        1.811543    1.455359    0.332901
      6          6           0        3.039640   -0.318127   -0.637101
      7          6           0        4.280238    0.554362   -0.570063
      8          1           0        2.830100   -0.649873   -1.657230
      9          1           0        3.164815   -1.239945   -0.060591
     10          1           0        5.145204    0.011214   -0.955852
     11          1           0        4.157862    1.462453   -1.162233
     12          1           0        4.498266    0.857396    0.454806
     13          6           0        0.200358   -1.173888    1.671082
     14          8           0        0.389709   -1.414408    2.761401
     15         15           0       -1.273405    1.264491   -0.001105
     16          6           0       -3.063499    1.072231   -0.262708
     17          6           0       -0.831765    2.580484   -1.167290
     18          6           0       -1.177255    2.064973    1.624921
     19          1           0       -1.582428    1.393587    2.383914
     20          1           0       -1.739764    3.000692    1.640002
     21          1           0       -0.130658    2.264660    1.853027
     22          1           0       -3.465151    0.354160    0.454110
     23          1           0       -3.245838    0.692463   -1.269311
     24          1           0       -3.585394    2.023716   -0.142905
     25          1           0       -0.984852    2.222632   -2.185850
     26          1           0        0.219735    2.831897   -1.038276
     27          1           0       -1.442651    3.469858   -0.999903
     28          6           0       -1.538870   -1.895124   -0.704149
     29          8           0       -2.361254   -2.582489   -1.067124
 ---------------------------------------------------------------------
 Rotational constants (GHZ):           0.6179765           0.4464389           0.3602935
 Leave Link  202 at Tue Oct  4 18:57:36 2022, MaxMem=  2952790016 cpu:               0.1 elap:               0.0
 (Enter /mnt/data/applications/G16/g16/l301.exe)
 Basis read from chk: "I8.chk" (5D, 7F)
 Pseudo-potential data read from chk file.
 There are   573 symmetry adapted cartesian basis functions of A   symmetry.
 There are   510 symmetry adapted basis functions of A   symmetry.
   510 basis functions,   823 primitive gaussians,   573 cartesian basis functions
    60 alpha electrons       60 beta electrons
       nuclear repulsion energy      1115.7445215358 Hartrees.
 IExCor= 4639 DFT=T Ex+Corr=wB97XD ExCW=0 ScaHFX=  1.000000
 ScaDFX=  1.000000  1.000000  1.000000  1.000000 ScalE2=  1.000000  1.000000
 IRadAn=      5 IRanWt=     -1 IRanGd=            0 ICorTp=0 IEmpDi=121
 HFx  wShort=  0.000000 wLong=  0.200000 cFull=  0.222036 cShort=  0.000000 cLong=  0.777964
 DFx  wShort=  0.000000 wLong=  0.200000 cFull=  0.000000 cShort=  0.000000 cLong=  1.000000
 NAtoms=   29 NActive=   29 NUniq=   29 SFac= 1.00D+00 NAtFMM=   60 NAOKFM=F Big=F
 Integral buffers will be    131072 words long.
 Raffenetti 2 integral format.
 Two-electron integral symmetry is turned on.
 R6Disp:  Grimme-D2 Dispersion energy=       -0.0243180399 Hartrees.
 Nuclear repulsion after empirical dispersion term =     1115.7202034959 Hartrees.
 No density basis found on file 20724.
 Force inversion solution in PCM.
 ------------------------------------------------------------------------------
 Polarizable Continuum Model (PCM)
 =================================
 Model                : PCM.
 Atomic radii         : SMD-Coulomb.
 Polarization charges : Total charges.
 Charge compensation  : None.
 Solution method      : Matrix inversion.
 Cavity type          : VdW (van der Waals Surface) (Alpha=1.000).
 Cavity algorithm     : GePol (No added spheres)
                        Default sphere list used, NSphG=   29.
                        Lebedev-Laikov grids with approx.  5.0 points / Ang**2.
                        Smoothing algorithm: York/Karplus (Gamma=1.0000).
                        Polarization charges: spherical gaussians, with
                                              point-specific exponents (IZeta= 3).
                        Self-potential: point-specific (ISelfS= 7).
                        Self-field    : sphere-specific E.n sum rule (ISelfD= 2).
 1st derivatives      : Analytical E(r).r(x)/FMM algorithm (CHGder, D1EAlg=3).
                        Cavity 1st derivative terms included.
 2nd derivatives      : Analytical E(r).r(xy)/FMM algorithm (CHGder, D2EAlg=3).
                        Cavity 2nd derivative terms included.
 Solvent              : Toluene, Eps=   2.374100 Eps(inf)=   2.238315
 ------------------------------------------------------------------------------
 GePol: Number of generator spheres                  =      29
 GePol: Total number of spheres                      =      29
 GePol: Number of exposed spheres                    =      29 (100.00%)
 GePol: Number of points                             =    2546
 GePol: Average weight of points                     =       0.12
 GePol: Minimum weight of points                     =   0.11D-08
 GePol: Maximum weight of points                     =    0.20615
 GePol: Number of points with low weight             =     145
 GePol: Fraction of low-weight points (<1% of avg)   =       5.70%
 GePol: Cavity surface area                          =    306.646 Ang**2
 GePol: Cavity volume                                =    292.751 Ang**3
 ------------------------------------------------------------------------------
 Atomic radii for non-electrostatic terms: SMD-CDS.
 ------------------------------------------------------------------------------
 PCM non-electrostatic energy =        -0.0005690418 Hartrees.
 Nuclear repulsion after PCM non-electrostatic terms =     1115.7196344541 Hartrees.
 Leave Link  301 at Tue Oct  4 18:57:36 2022, MaxMem=  2952790016 cpu:               1.9 elap:               0.2
 (Enter /mnt/data/applications/G16/g16/l302.exe)
 NPDir=0 NMtPBC=     1 NCelOv=     1 NCel=       1 NClECP=     1 NCelD=      1
         NCelK=      1 NCelE2=     1 NClLst=     1 CellRange=     0.0.
 One-electron integrals computed using PRISM.
 One-electron integral symmetry used in STVInt
   1 Symmetry operations used in ECPInt.
 ECPInt:  NShTT=   22578 NPrTT=   66767 LenC2=   20931 LenP2D=   46144.
 LDataN:  DoStor=T MaxTD1= 7 Len=  274
 NBasis=   510 RedAO= T EigKep=  1.36D-04  NBF=   510
 NBsUse=   510 1.00D-06 EigRej= -1.00D+00 NBFU=   510
 Precomputing XC quadrature grid using
 IXCGrd= 4 IRadAn=           5 IRanWt=          -1 IRanGd=           0 AccXCQ= 0.00D+00.
 Defaulting to unpruned grid for atomic number  45.
 Generated NRdTot=       0 NPtTot=           0 NUsed=           0 NTot=          32
 NSgBfM=   570   570   570   570   570 MxSgAt=    29 MxSgA2=    29.
 Leave Link  302 at Tue Oct  4 18:57:38 2022, MaxMem=  2952790016 cpu:              19.8 elap:               1.7
 (Enter /mnt/data/applications/G16/g16/l303.exe)
 DipDrv:  MaxL=1.
 Leave Link  303 at Tue Oct  4 18:57:38 2022, MaxMem=  2952790016 cpu:               1.2 elap:               0.1
 (Enter /mnt/data/applications/G16/g16/l401.exe)
 Initial guess from the checkpoint file:  "I8.chk"
 B after Tr=    -0.000000   -0.000000    0.000000
         Rot=    1.000000   -0.000000    0.000000   -0.000000 Ang=   0.00 deg.
 Guess basis will be translated and rotated to current coordinates.
 JPrj=2 DoOrth=T DoCkMO=T.
 Leave Link  401 at Tue Oct  4 18:57:40 2022, MaxMem=  2952790016 cpu:              17.3 elap:               1.5
 (Enter /mnt/data/applications/G16/g16/l502.exe)
 Integral symmetry usage will be decided dynamically.
 Closed shell SCF:
 Using DIIS extrapolation, IDIIS=  1040.
 NGot=  2952790016 LenX=  2952121135 LenY=  2951792233
 Requested convergence on RMS density matrix=1.00D-08 within 128 cycles.
 Requested convergence on MAX density matrix=1.00D-06.
 Requested convergence on             energy=1.00D-06.
 No special actions if energy rises.
 Fock matrices will be formed incrementally for  20 cycles.

 Cycle   1  Pass 1  IDiag  1:
 FoFJK:  IHMeth= 1 ICntrl=       0 DoSepK=T KAlg= 0 I1Cent=           0 FoldK=F
 IRaf=         1 NMat=       1 IRICut=       1 DoRegI=T DoRafI=F ISym2E= 0 IDoP0=0 IntGTp=1.
 FoFCou: FMM=F IPFlag=           0 FMFlag=      100000 FMFlg1=           0
         NFxFlg=           0 DoJE=T BraDBF=F KetDBF=F FulRan=T
         wScrn=  0.000000 ICntrl=       500 IOpCl=  0 I1Cent=           0 NGrid=           0
         NMat0=    1 NMatS0=      1 NMatT0=    0 NMatD0=    1 NMtDS0=    0 NMtDT0=    0
 Symmetry not used in FoFCou.
 Defaulting to unpruned grid for atomic number  45.
 Defaulting to unpruned grid for atomic number  45.
 Defaulting to unpruned grid for atomic number  45.
 Defaulting to unpruned grid for atomic number  45.
 Defaulting to unpruned grid for atomic number  45.
 Defaulting to unpruned grid for atomic number  45.
 Defaulting to unpruned grid for atomic number  45.
 Defaulting to unpruned grid for atomic number  45.
 Defaulting to unpruned grid for atomic number  45.
 Defaulting to unpruned grid for atomic number  45.
 Defaulting to unpruned grid for atomic number  45.
 Defaulting to unpruned grid for atomic number  45.
 Inv3:  Mode=1 IEnd=    19446348.
 Iteration    1 A*A^-1 deviation from unit magnitude is 2.66D-15 for    637.
 Iteration    1 A*A^-1 deviation from orthogonality  is 1.55D-15 for   1189    618.
 Iteration    1 A^-1*A deviation from unit magnitude is 2.66D-15 for    637.
 Iteration    1 A^-1*A deviation from orthogonality  is 1.35D-15 for   1558    702.
 E= -992.224952676907    
 DIIS: error= 3.00D-08 at cycle   1 NSaved=   1.
 NSaved= 1 IEnMin= 1 EnMin= -992.224952676907     IErMin= 1 ErrMin= 3.00D-08
 ErrMax= 3.00D-08  0.00D+00 EMaxC= 1.00D-01 BMatC= 7.58D-13 BMatP= 7.58D-13
 IDIUse=1 WtCom= 1.00D+00 WtEn= 0.00D+00
 Coeff-Com:  0.100D+01
 Coeff:      0.100D+01
 Gap=     0.326 Goal=   None    Shift=    0.000
 RMSDP=3.59D-09 MaxDP=1.82D-07              OVMax= 9.52D-07

 Error on total polarization charges =  0.02896
 SCF Done:  E(RwB97XD) =  -992.224952677     A.U. after    1 cycles
            NFock=  1  Conv=0.36D-08     -V/T= 2.0800
 KE= 9.187364799921D+02 PE=-4.538209243168D+03 EE= 1.511528176044D+03
 SMD-CDS (non-electrostatic) energy       (kcal/mol) =      -0.36
 (included in total energy above)
 Leave Link  502 at Tue Oct  4 18:59:09 2022, MaxMem=  2952790016 cpu:            1032.1 elap:              89.3
 (Enter /mnt/data/applications/G16/g16/l801.exe)
 DoSCS=F DFT=T ScalE2(SS,OS)=  1.000000  1.000000
 Range of M.O.s used for correlation:     1   510
 NBasis=   510 NAE=    60 NBE=    60 NFC=     0 NFV=     0
 NROrb=    510 NOA=    60 NOB=    60 NVA=   450 NVB=   450

 **** Warning!!: The largest alpha MO coefficient is  0.17580059D+02

 Leave Link  801 at Tue Oct  4 18:59:09 2022, MaxMem=  2952790016 cpu:               0.3 elap:               0.0
 (Enter /mnt/data/applications/G16/g16/l1101.exe)
 Using compressed storage, NAtomX=    29.
 Will process     30 centers per pass.
   1 Symmetry operations used in ECPInt.
 ECPInt:  NShTT=   22578 NPrTT=   66767 LenC2=   20931 LenP2D=   46144.
 LDataN:  DoStor=T MaxTD1= 8 Len=  415
 R6Disp: Adding Grimme-D2 dispersion energy 1st derivatives to the gradient.
 Leave Link 1101 at Tue Oct  4 18:59:13 2022, MaxMem=  2952790016 cpu:              41.0 elap:               3.5
 (Enter /mnt/data/applications/G16/g16/l1102.exe)
 Symmetrizing basis deriv contribution to polar:
 IMax=3 JMax=2 DiffMx= 0.00D+00
 Leave Link 1102 at Tue Oct  4 18:59:13 2022, MaxMem=  2952790016 cpu:               1.1 elap:               0.1
 (Enter /mnt/data/applications/G16/g16/l1110.exe)
 Forming Gx(P) for the SCF density, NAtomX=    29.
 Integral derivatives from FoFJK, PRISM(SPDF).
 Do as many integral derivatives as possible in FoFJK.
 G2DrvN: MDV=    2952787676.
 G2DrvN: will do    30 centers at a time, making    1 passes.
 Calling FoFCou, ICntrl=  3107 FMM=F I1Cent=   0 AccDes= 0.00D+00.
 FoFJK:  IHMeth= 1 ICntrl=    3107 DoSepK=T KAlg= 0 I1Cent=           0 FoldK=F
 IRaf=         1 NMat=       1 IRICut=       1 DoRegI=T DoRafI=F ISym2E= 0 IDoP0=0 IntGTp=1.
 FoFCou: FMM=F IPFlag=           0 FMFlag=      100000 FMFlg1=           0
         NFxFlg=           0 DoJE=F BraDBF=F KetDBF=F FulRan=T
         wScrn=  0.000000 ICntrl=      3507 IOpCl=  0 I1Cent=           0 NGrid=           0
         NMat0=    1 NMatS0=      1 NMatT0=    0 NMatD0=    1 NMtDS0=    0 NMtDT0=    0
 Symmetry not used in FoFCou.
 Defaulting to unpruned grid for atomic number  45.
 Defaulting to unpruned grid for atomic number  45.
 Defaulting to unpruned grid for atomic number  45.
 Defaulting to unpruned grid for atomic number  45.
 Defaulting to unpruned grid for atomic number  45.
 Defaulting to unpruned grid for atomic number  45.
 Defaulting to unpruned grid for atomic number  45.
 Defaulting to unpruned grid for atomic number  45.
 Defaulting to unpruned grid for atomic number  45.
 Defaulting to unpruned grid for atomic number  45.
 Defaulting to unpruned grid for atomic number  45.
 Defaulting to unpruned grid for atomic number  45.
 NEqPCM:  Using equilibrium solvation (IEInf=0, Eps=   2.3741, EpsInf=   2.2383)
 G2PCM: DoFxE=T DoFxN=T DoGrad=T DoDP/DQ/DG/TGxP=FFFF NFrqRd=   0 IEInf=0 SqF1=F DoCFld=F IF1Alg=4.
 GePol: Maximum number of non-zero 1st derivatives   =     419
 End of G2Drv F.D. properties file   721 does not exist.
 End of G2Drv F.D. properties file   722 does not exist.
 End of G2Drv F.D. properties file   788 does not exist.
 Leave Link 1110 at Tue Oct  4 19:17:45 2022, MaxMem=  2952790016 cpu:           13315.2 elap:            1112.6
 (Enter /mnt/data/applications/G16/g16/l1002.exe)
 Minotr:  Closed shell wavefunction.
          IDoAtm=11111111111111111111111111111
 NEqPCM:  Using equilibrium solvation (IEInf=0, Eps=   2.3741, EpsInf=   2.2383)
          Direct CPHF calculation.
          Differentiating once with respect to electric field.
                with respect to dipole field.
          Differentiating once with respect to nuclear coordinates.
          Requested convergence is 1.0D-08 RMS, and 1.0D-07 maximum.
          Secondary convergence is 1.0D-12 RMS, and 1.0D-12 maximum.
          NewPWx=T KeepS1=F KeepF1=F KeepIn=T MapXYZ=F SortEE=F KeepMc=T.
 Defaulting to unpruned grid for atomic number  45.
         8986 words used for storage of precomputed grid.
 Two-electron integrals replicated using symmetry.
          MDV=    2952790016 using IRadAn=       1.
          Solving linear equations simultaneously, MaxMat=     384.
 FoF2E skips out because all densities are zero.
 CalDSu exits because no D1Ps are significant.
 FoFJK:  IHMeth= 1 ICntrl=       0 DoSepK=T KAlg= 0 I1Cent=           0 FoldK=F
 IRaf=         1 NMat=      87 IRICut=       1 DoRegI=T DoRafI=F ISym2E= 2 IDoP0=3 IntGTp=3.
 Defaulting to unpruned grid for atomic number  45.
 Defaulting to unpruned grid for atomic number  45.
 Defaulting to unpruned grid for atomic number  45.
 Defaulting to unpruned grid for atomic number  45.
 Defaulting to unpruned grid for atomic number  45.
 Defaulting to unpruned grid for atomic number  45.
 Defaulting to unpruned grid for atomic number  45.
 Defaulting to unpruned grid for atomic number  45.
 Defaulting to unpruned grid for atomic number  45.
 Defaulting to unpruned grid for atomic number  45.
 Defaulting to unpruned grid for atomic number  45.
 Defaulting to unpruned grid for atomic number  45.
          There are    90 degrees of freedom in the 1st order CPHF.  IDoFFX=6 NUNeed=     3.
     87 vectors produced by pass  0 Test12= 3.00D-14 1.11D-09 XBig12= 8.40D+01 3.35D+00.
 AX will form    87 AO Fock derivatives at one time.
     87 vectors produced by pass  1 Test12= 3.00D-14 1.11D-09 XBig12= 8.19D+00 3.66D-01.
     87 vectors produced by pass  2 Test12= 3.00D-14 1.11D-09 XBig12= 3.14D-01 7.40D-02.
     87 vectors produced by pass  3 Test12= 3.00D-14 1.11D-09 XBig12= 6.49D-03 1.13D-02.
     87 vectors produced by pass  4 Test12= 3.00D-14 1.11D-09 XBig12= 9.31D-05 1.26D-03.
     87 vectors produced by pass  5 Test12= 3.00D-14 1.11D-09 XBig12= 8.65D-07 1.31D-04.
     87 vectors produced by pass  6 Test12= 3.00D-14 1.11D-09 XBig12= 6.17D-09 7.59D-06.
     44 vectors produced by pass  7 Test12= 3.00D-14 1.11D-09 XBig12= 4.17D-11 7.74D-07.
      8 vectors produced by pass  8 Test12= 3.00D-14 1.11D-09 XBig12= 2.89D-13 9.45D-08.
      3 vectors produced by pass  9 Test12= 3.00D-14 1.11D-09 XBig12= 2.69D-15 9.87D-09.
 InvSVY:  IOpt=1 It=  1 EMax= 2.39D-15
 Solved reduced A of dimension   664 with    90 vectors.
 FullF1:  Do perturbations      1 to       3.
 Isotropic polarizability for W=    0.000000      196.97 Bohr**3.
 End of Minotr F.D. properties file   721 does not exist.
 End of Minotr F.D. properties file   722 does not exist.
 End of Minotr F.D. properties file   788 does not exist.
 Leave Link 1002 at Tue Oct  4 20:21:08 2022, MaxMem=  2952790016 cpu:           45512.5 elap:            3802.7
 (Enter /mnt/data/applications/G16/g16/l601.exe)
 Copying SCF densities to generalized density rwf, IOpCl= 0 IROHF=0.

 **********************************************************************

            Population analysis using the SCF density.

 **********************************************************************

 Orbital symmetries:
       Occupied  (A) (A) (A) (A) (A) (A) (A) (A) (A) (A) (A) (A)
                 (A) (A) (A) (A) (A) (A) (A) (A) (A) (A) (A) (A)
                 (A) (A) (A) (A) (A) (A) (A) (A) (A) (A) (A) (A)
                 (A) (A) (A) (A) (A) (A) (A) (A) (A) (A) (A) (A)
                 (A) (A) (A) (A) (A) (A) (A) (A) (A) (A) (A) (A)
       Virtual   (A) (A) (A) (A) (A) (A) (A) (A) (A) (A) (A) (A)
                 (A) (A) (A) (A) (A) (A) (A) (A) (A) (A) (A) (A)
                 (A) (A) (A) (A) (A) (A) (A) (A) (A) (A) (A) (A)
                 (A) (A) (A) (A) (A) (A) (A) (A) (A) (A) (A) (A)
                 (A) (A) (A) (A) (A) (A) (A) (A) (A) (A) (A) (A)
                 (A) (A) (A) (A) (A) (A) (A) (A) (A) (A) (A) (A)
                 (A) (A) (A) (A) (A) (A) (A) (A) (A) (A) (A) (A)
                 (A) (A) (A) (A) (A) (A) (A) (A) (A) (A) (A) (A)
                 (A) (A) (A) (A) (A) (A) (A) (A) (A) (A) (A) (A)
                 (A) (A) (A) (A) (A) (A) (A) (A) (A) (A) (A) (A)
                 (A) (A) (A) (A) (A) (A) (A) (A) (A) (A) (A) (A)
                 (A) (A) (A) (A) (A) (A) (A) (A) (A) (A) (A) (A)
                 (A) (A) (A) (A) (A) (A) (A) (A) (A) (A) (A) (A)
                 (A) (A) (A) (A) (A) (A) (A) (A) (A) (A) (A) (A)
                 (A) (A) (A) (A) (A) (A) (A) (A) (A) (A) (A) (A)
                 (A) (A) (A) (A) (A) (A) (A) (A) (A) (A) (A) (A)
                 (A) (A) (A) (A) (A) (A) (A) (A) (A) (A) (A) (A)
                 (A) (A) (A) (A) (A) (A) (A) (A) (A) (A) (A) (A)
                 (A) (A) (A) (A) (A) (A) (A) (A) (A) (A) (A) (A)
                 (A) (A) (A) (A) (A) (A) (A) (A) (A) (A) (A) (A)
                 (A) (A) (A) (A) (A) (A) (A) (A) (A) (A) (A) (A)
                 (A) (A) (A) (A) (A) (A) (A) (A) (A) (A) (A) (A)
                 (A) (A) (A) (A) (A) (A) (A) (A) (A) (A) (A) (A)
                 (A) (A) (A) (A) (A) (A) (A) (A) (A) (A) (A) (A)
                 (A) (A) (A) (A) (A) (A) (A) (A) (A) (A) (A) (A)
                 (A) (A) (A) (A) (A) (A) (A) (A) (A) (A) (A) (A)
                 (A) (A) (A) (A) (A) (A) (A) (A) (A) (A) (A) (A)
                 (A) (A) (A) (A) (A) (A) (A) (A) (A) (A) (A) (A)
                 (A) (A) (A) (A) (A) (A) (A) (A) (A) (A) (A) (A)
                 (A) (A) (A) (A) (A) (A) (A) (A) (A) (A) (A) (A)
                 (A) (A) (A) (A) (A) (A) (A) (A) (A) (A) (A) (A)
                 (A) (A) (A) (A) (A) (A) (A) (A) (A) (A) (A) (A)
                 (A) (A) (A) (A) (A) (A) (A) (A) (A) (A) (A) (A)
                 (A) (A) (A) (A) (A) (A) (A) (A) (A) (A) (A) (A)
                 (A) (A) (A) (A) (A) (A) (A) (A) (A) (A) (A) (A)
                 (A) (A) (A) (A) (A) (A) (A) (A) (A) (A) (A) (A)
                 (A) (A) (A) (A) (A) (A) (A) (A) (A) (A) (A) (A)
                 (A) (A) (A) (A) (A) (A)
 The electronic state is 1-A.
 Alpha  occ. eigenvalues --  -77.24296 -19.34154 -19.34004 -19.22552 -10.42003
 Alpha  occ. eigenvalues --  -10.41869 -10.35563 -10.28741 -10.28216 -10.28036
 Alpha  occ. eigenvalues --  -10.27004 -10.25798  -6.68708  -4.83404  -4.83372
 Alpha  occ. eigenvalues --   -4.83093  -3.38013  -2.12854  -2.12374  -2.11912
 Alpha  occ. eigenvalues --   -1.25796  -1.25618  -1.13149  -0.88178  -0.85984
 Alpha  occ. eigenvalues --   -0.80104  -0.79802  -0.73523  -0.67882  -0.66971
 Alpha  occ. eigenvalues --   -0.64207  -0.60341  -0.57629  -0.56903  -0.56643
 Alpha  occ. eigenvalues --   -0.56391  -0.56340  -0.56016  -0.53871  -0.53406
 Alpha  occ. eigenvalues --   -0.52899  -0.52593  -0.52276  -0.49808  -0.49490
 Alpha  occ. eigenvalues --   -0.49049  -0.47867  -0.45693  -0.45276  -0.44291
 Alpha  occ. eigenvalues --   -0.42890  -0.42705  -0.42116  -0.41238  -0.39102
 Alpha  occ. eigenvalues --   -0.37492  -0.36833  -0.36522  -0.32617  -0.28333
 Alpha virt. eigenvalues --    0.04250   0.04649   0.05012   0.06513   0.06618
 Alpha virt. eigenvalues --    0.06824   0.07338   0.07761   0.09087   0.09303
 Alpha virt. eigenvalues --    0.09618   0.13148   0.13335   0.14144   0.15441
 Alpha virt. eigenvalues --    0.16337   0.16620   0.17562   0.18064   0.18525
 Alpha virt. eigenvalues --    0.18583   0.19622   0.19876   0.20386   0.20756
 Alpha virt. eigenvalues --    0.21402   0.22054   0.22319   0.22995   0.23787
 Alpha virt. eigenvalues --    0.24214   0.25241   0.25844   0.25922   0.26366
 Alpha virt. eigenvalues --    0.27106   0.27474   0.27786   0.28592   0.29812
 Alpha virt. eigenvalues --    0.30015   0.31606   0.33187   0.33237   0.34195
 Alpha virt. eigenvalues --    0.35352   0.35779   0.36428   0.37673   0.38898
 Alpha virt. eigenvalues --    0.40599   0.41317   0.41794   0.42599   0.43189
 Alpha virt. eigenvalues --    0.44057   0.44935   0.45716   0.46706   0.46902
 Alpha virt. eigenvalues --    0.48504   0.48962   0.49253   0.49510   0.49646
 Alpha virt. eigenvalues --    0.50506   0.51110   0.51224   0.51568   0.52312
 Alpha virt. eigenvalues --    0.52763   0.53085   0.53313   0.54489   0.55023
 Alpha virt. eigenvalues --    0.55175   0.55821   0.56200   0.57127   0.57570
 Alpha virt. eigenvalues --    0.57668   0.57945   0.58739   0.58901   0.60051
 Alpha virt. eigenvalues --    0.60197   0.61212   0.62513   0.63498   0.63921
 Alpha virt. eigenvalues --    0.65344   0.66305   0.66899   0.67902   0.68380
 Alpha virt. eigenvalues --    0.69306   0.69793   0.71516   0.72122   0.72779
 Alpha virt. eigenvalues --    0.73842   0.74151   0.75628   0.77129   0.77484
 Alpha virt. eigenvalues --    0.78900   0.79452   0.80448   0.80671   0.81924
 Alpha virt. eigenvalues --    0.83282   0.84796   0.85359   0.85837   0.87437
 Alpha virt. eigenvalues --    0.88660   0.90453   0.91729   0.92041   0.92377
 Alpha virt. eigenvalues --    0.93786   0.94463   0.95493   0.97140   0.98008
 Alpha virt. eigenvalues --    0.98290   0.99279   1.01666   1.02847   1.03486
 Alpha virt. eigenvalues --    1.04948   1.06740   1.07648   1.09798   1.10997
 Alpha virt. eigenvalues --    1.11654   1.12304   1.12843   1.13656   1.14670
 Alpha virt. eigenvalues --    1.14846   1.16298   1.17071   1.17507   1.19498
 Alpha virt. eigenvalues --    1.19701   1.20916   1.22508   1.24937   1.25876
 Alpha virt. eigenvalues --    1.27071   1.28351   1.30337   1.31904   1.34618
 Alpha virt. eigenvalues --    1.37297   1.41841   1.48766   1.49478   1.50674
 Alpha virt. eigenvalues --    1.51270   1.52810   1.53796   1.54775   1.55679
 Alpha virt. eigenvalues --    1.56868   1.57540   1.58770   1.59009   1.59623
 Alpha virt. eigenvalues --    1.59902   1.60767   1.61028   1.61946   1.62379
 Alpha virt. eigenvalues --    1.62707   1.63147   1.63343   1.63654   1.64333
 Alpha virt. eigenvalues --    1.64555   1.65076   1.66195   1.66804   1.67278
 Alpha virt. eigenvalues --    1.67993   1.68495   1.69294   1.69890   1.70694
 Alpha virt. eigenvalues --    1.70981   1.72283   1.72547   1.72800   1.73999
 Alpha virt. eigenvalues --    1.76002   1.76312   1.76344   1.77932   1.78883
 Alpha virt. eigenvalues --    1.80108   1.82728   1.83689   1.84837   1.88746
 Alpha virt. eigenvalues --    1.90004   1.94317   1.94975   1.96926   1.98139
 Alpha virt. eigenvalues --    1.98919   1.99664   1.99962   2.01818   2.03346
 Alpha virt. eigenvalues --    2.05617   2.05796   2.08405   2.10212   2.11225
 Alpha virt. eigenvalues --    2.11654   2.13034   2.14332   2.15287   2.15451
 Alpha virt. eigenvalues --    2.15872   2.16384   2.18304   2.18507   2.20948
 Alpha virt. eigenvalues --    2.21680   2.22367   2.24250   2.26691   2.28846
 Alpha virt. eigenvalues --    2.29994   2.32177   2.33956   2.34950   2.35671
 Alpha virt. eigenvalues --    2.37438   2.38921   2.40611   2.41618   2.41971
 Alpha virt. eigenvalues --    2.42343   2.43192   2.44158   2.44522   2.46407
 Alpha virt. eigenvalues --    2.48697   2.50133   2.50457   2.52066   2.52646
 Alpha virt. eigenvalues --    2.54381   2.55669   2.57175   2.58957   2.59798
 Alpha virt. eigenvalues --    2.62364   2.63697   2.64324   2.65449   2.66270
 Alpha virt. eigenvalues --    2.66938   2.67103   2.68377   2.69548   2.70818
 Alpha virt. eigenvalues --    2.72136   2.73480   2.74105   2.74552   2.75015
 Alpha virt. eigenvalues --    2.75441   2.76138   2.78005   2.79889   2.82204
 Alpha virt. eigenvalues --    2.84776   2.86352   2.86898   2.87146   2.89444
 Alpha virt. eigenvalues --    2.89595   2.91296   2.92987   2.93176   2.94242
 Alpha virt. eigenvalues --    2.94990   2.97580   2.98078   2.98379   2.99845
 Alpha virt. eigenvalues --    3.01166   3.02314   3.03981   3.04342   3.06254
 Alpha virt. eigenvalues --    3.07122   3.07792   3.10767   3.11479   3.12590
 Alpha virt. eigenvalues --    3.14166   3.15065   3.16077   3.16692   3.17692
 Alpha virt. eigenvalues --    3.18119   3.18709   3.19653   3.21008   3.22630
 Alpha virt. eigenvalues --    3.23904   3.24378   3.25177   3.25660   3.26642
 Alpha virt. eigenvalues --    3.29058   3.30086   3.30990   3.31463   3.33001
 Alpha virt. eigenvalues --    3.34311   3.35973   3.36599   3.37688   3.38506
 Alpha virt. eigenvalues --    3.38762   3.41145   3.42058   3.43019   3.43539
 Alpha virt. eigenvalues --    3.43982   3.44606   3.45856   3.47379   3.48380
 Alpha virt. eigenvalues --    3.50489   3.53393   3.54461   3.55953   3.57025
 Alpha virt. eigenvalues --    3.58950   3.61043   3.62890   3.63635   3.64410
 Alpha virt. eigenvalues --    3.65757   3.67160   3.69350   3.69909   3.70426
 Alpha virt. eigenvalues --    3.71251   3.71890   3.73000   3.73468   3.74266
 Alpha virt. eigenvalues --    3.76068   3.77361   3.77935   3.80269   3.81957
 Alpha virt. eigenvalues --    3.85297   3.87343   3.90804   3.98195   4.00672
 Alpha virt. eigenvalues --    4.01854   4.02349   4.09443   4.14638   4.20304
 Alpha virt. eigenvalues --    4.30463   4.32883   4.34770   4.34906   4.36199
 Alpha virt. eigenvalues --    4.36564   4.40223   4.40536   4.41763   4.43877
 Alpha virt. eigenvalues --    4.49759   4.50711   4.51157   4.53626   4.54934
 Alpha virt. eigenvalues --    4.62524   4.67392   4.70627   4.94029   4.97479
 Alpha virt. eigenvalues --    5.17603   5.17605   5.17745   5.17769   5.29265
 Alpha virt. eigenvalues --    5.30710   5.57098   5.57578   5.58347   5.60435
 Alpha virt. eigenvalues --    5.64342   5.69540   6.21755   6.29553   6.30691
 Alpha virt. eigenvalues --    6.32639   6.33038   6.33560   6.33991   6.34249
 Alpha virt. eigenvalues --    6.34859   6.42813   6.44344   6.50967   6.58471
 Alpha virt. eigenvalues --    6.63285   6.65473   6.80043   6.80603   6.81148
 Alpha virt. eigenvalues --    6.81947   6.93756   7.12416   7.16484   7.16906
 Alpha virt. eigenvalues --    7.20738   7.82728   7.90281   7.94450  15.70457
 Alpha virt. eigenvalues --   22.41582  22.42313  22.43688  22.46840  22.59795
 Alpha virt. eigenvalues --   22.69270  22.83010  23.16481  38.37175  38.41464
 Alpha virt. eigenvalues --   38.57162  43.91413  43.96527  44.08644  49.77300
          Condensed to atoms (all electrons):
               1          2          3          4          5          6
     1  H    0.640610   0.017112   0.353735   0.002578  -0.002813  -0.005935
     2  H    0.017112   0.618911   0.343359  -0.005796   0.000212  -0.002367
     3  Rh   0.353735   0.343359  16.013673   0.218826  -0.041920  -0.085428
     4  C    0.002578  -0.005796   0.218826   5.023613   0.472314   0.242777
     5  O   -0.002813   0.000212  -0.041920   0.472314   8.035408  -0.093797
     6  C   -0.005935  -0.002367  -0.085428   0.242777  -0.093797   5.207684
     7  C    0.001039   0.001247   0.020853  -0.025945   0.020256   0.241632
     8  H   -0.003351  -0.004015  -0.005723  -0.036334   0.000944   0.421203
     9  H   -0.000231  -0.004886  -0.007058  -0.022805   0.000564   0.403644
    10  H   -0.000012  -0.000054  -0.000615   0.011124   0.001071  -0.052422
    11  H   -0.000034  -0.000016  -0.000207  -0.007075   0.001595  -0.031030
    12  H   -0.000016  -0.000016   0.001033  -0.008648   0.001721  -0.026811
    13  C   -0.014124  -0.007226   0.139949   0.008123  -0.008655  -0.005622
    14  O    0.000195  -0.001284  -0.002684  -0.003846   0.000559   0.000647
    15  P   -0.003703  -0.011158   0.269383  -0.030505   0.017675  -0.000250
    16  C   -0.001580   0.000064  -0.025744   0.000447   0.001339   0.000240
    17  C   -0.001527   0.000260  -0.024698  -0.002261  -0.011226  -0.000003
    18  C    0.001050   0.000396  -0.020162   0.001520  -0.015640  -0.000589
    19  H   -0.000055  -0.000024  -0.006849  -0.000028   0.000364   0.000014
    20  H   -0.000008  -0.000007   0.005735  -0.000170   0.000181   0.000010
    21  H    0.000020  -0.000020  -0.003965  -0.004327   0.013232   0.000847
    22  H    0.000021  -0.000021  -0.001047  -0.000018  -0.000011  -0.000002
    23  H   -0.000296   0.000008  -0.005345   0.000065  -0.000019  -0.000007
    24  H   -0.000027  -0.000008   0.005619  -0.000094  -0.000012  -0.000002
    25  H    0.000137  -0.000004  -0.006561  -0.000302   0.000439   0.000186
    26  H   -0.001158  -0.000025  -0.006657   0.000793   0.007854  -0.000051
    27  H    0.000026  -0.000005   0.007451  -0.000112  -0.000046  -0.000043
    28  C   -0.008013   0.004010   0.143757  -0.018096   0.000815   0.001800
    29  O   -0.000905  -0.001550  -0.009147   0.000272  -0.000002  -0.000025
               7          8          9         10         11         12
     1  H    0.001039  -0.003351  -0.000231  -0.000012  -0.000034  -0.000016
     2  H    0.001247  -0.004015  -0.004886  -0.000054  -0.000016  -0.000016
     3  Rh   0.020853  -0.005723  -0.007058  -0.000615  -0.000207   0.001033
     4  C   -0.025945  -0.036334  -0.022805   0.011124  -0.007075  -0.008648
     5  O    0.020256   0.000944   0.000564   0.001071   0.001595   0.001721
     6  C    0.241632   0.421203   0.403644  -0.052422  -0.031030  -0.026811
     7  C    4.906132  -0.029827  -0.028958   0.422668   0.414362   0.410715
     8  H   -0.029827   0.539128  -0.030739  -0.003567  -0.005940   0.006115
     9  H   -0.028958  -0.030739   0.549658  -0.003195   0.006424  -0.005602
    10  H    0.422668  -0.003567  -0.003195   0.552766  -0.025198  -0.025573
    11  H    0.414362  -0.005940   0.006424  -0.025198   0.552598  -0.024940
    12  H    0.410715   0.006115  -0.005602  -0.025573  -0.024940   0.551277
    13  C   -0.000097   0.000635   0.000653  -0.000000   0.000034   0.000019
    14  O   -0.000072   0.000000  -0.000077  -0.000000  -0.000001  -0.000010
    15  P   -0.000446   0.000282   0.000433   0.000005  -0.000000  -0.000010
    16  C   -0.000009  -0.000005  -0.000003  -0.000000  -0.000000  -0.000000
    17  C   -0.000070   0.000095  -0.000035  -0.000002  -0.000036   0.000017
    18  C    0.000079  -0.000003  -0.000002   0.000000   0.000006   0.000000
    19  H   -0.000003  -0.000001   0.000001  -0.000000   0.000000  -0.000000
    20  H   -0.000001   0.000000   0.000000   0.000000   0.000000   0.000000
    21  H   -0.000112  -0.000009  -0.000020  -0.000000  -0.000011  -0.000018
    22  H   -0.000000   0.000000   0.000000   0.000000   0.000000   0.000000
    23  H    0.000000   0.000001   0.000000  -0.000000   0.000000   0.000000
    24  H    0.000000   0.000000   0.000000   0.000000   0.000000   0.000000
    25  H   -0.000011  -0.000003  -0.000002  -0.000000  -0.000002  -0.000001
    26  H    0.000039  -0.000087   0.000024   0.000002   0.000079  -0.000015
    27  H    0.000003  -0.000000   0.000001   0.000000   0.000001   0.000000
    28  C   -0.000112   0.000011   0.000185  -0.000000  -0.000001  -0.000002
    29  O    0.000000   0.000001  -0.000001  -0.000000  -0.000000   0.000000
              13         14         15         16         17         18
     1  H   -0.014124   0.000195  -0.003703  -0.001580  -0.001527   0.001050
     2  H   -0.007226  -0.001284  -0.011158   0.000064   0.000260   0.000396
     3  Rh   0.139949  -0.002684   0.269383  -0.025744  -0.024698  -0.020162
     4  C    0.008123  -0.003846  -0.030505   0.000447  -0.002261   0.001520
     5  O   -0.008655   0.000559   0.017675   0.001339  -0.011226  -0.015640
     6  C   -0.005622   0.000647  -0.000250   0.000240  -0.000003  -0.000589
     7  C   -0.000097  -0.000072  -0.000446  -0.000009  -0.000070   0.000079
     8  H    0.000635   0.000000   0.000282  -0.000005   0.000095  -0.000003
     9  H    0.000653  -0.000077   0.000433  -0.000003  -0.000035  -0.000002
    10  H   -0.000000  -0.000000   0.000005  -0.000000  -0.000002   0.000000
    11  H    0.000034  -0.000001  -0.000000  -0.000000  -0.000036   0.000006
    12  H    0.000019  -0.000010  -0.000010  -0.000000   0.000017   0.000000
    13  C    5.277123   0.556569   0.010084  -0.000770   0.000196  -0.003978
    14  O    0.556569   7.535733  -0.002576   0.000058  -0.000008   0.001037
    15  P    0.010084  -0.002576  13.732850   0.327287   0.330812   0.320609
    16  C   -0.000770   0.000058   0.327287   5.036504  -0.034355  -0.033572
    17  C    0.000196  -0.000008   0.330812  -0.034355   5.024898  -0.035822
    18  C   -0.003978   0.001037   0.320609  -0.033572  -0.035822   5.035028
    19  H    0.001434   0.000212  -0.021272  -0.000526   0.004416   0.393476
    20  H    0.000234  -0.000019  -0.026610  -0.004361  -0.004403   0.394067
    21  H   -0.001162  -0.000064  -0.022975   0.004535  -0.000715   0.398805
    22  H   -0.000563  -0.000019  -0.022809   0.398892   0.004082  -0.001335
    23  H    0.000118  -0.000002  -0.022063   0.400469  -0.001708   0.003974
    24  H    0.000053  -0.000003  -0.027794   0.395822  -0.004334  -0.004848
    25  H   -0.000081   0.000000  -0.021431  -0.000110   0.394937   0.004189
    26  H    0.000299  -0.000006  -0.020768   0.004121   0.399935  -0.000921
    27  H    0.000015  -0.000000  -0.027856  -0.005716   0.397249  -0.005145
    28  C    0.012369  -0.001642  -0.022093   0.002333   0.000656  -0.000001
    29  O   -0.001153   0.000071  -0.001497   0.000844   0.000024   0.000022
              19         20         21         22         23         24
     1  H   -0.000055  -0.000008   0.000020   0.000021  -0.000296  -0.000027
     2  H   -0.000024  -0.000007  -0.000020  -0.000021   0.000008  -0.000008
     3  Rh  -0.006849   0.005735  -0.003965  -0.001047  -0.005345   0.005619
     4  C   -0.000028  -0.000170  -0.004327  -0.000018   0.000065  -0.000094
     5  O    0.000364   0.000181   0.013232  -0.000011  -0.000019  -0.000012
     6  C    0.000014   0.000010   0.000847  -0.000002  -0.000007  -0.000002
     7  C   -0.000003  -0.000001  -0.000112  -0.000000   0.000000   0.000000
     8  H   -0.000001   0.000000  -0.000009   0.000000   0.000001   0.000000
     9  H    0.000001   0.000000  -0.000020   0.000000   0.000000   0.000000
    10  H   -0.000000   0.000000  -0.000000   0.000000  -0.000000   0.000000
    11  H    0.000000   0.000000  -0.000011   0.000000   0.000000   0.000000
    12  H   -0.000000   0.000000  -0.000018   0.000000   0.000000   0.000000
    13  C    0.001434   0.000234  -0.001162  -0.000563   0.000118   0.000053
    14  O    0.000212  -0.000019  -0.000064  -0.000019  -0.000002  -0.000003
    15  P   -0.021272  -0.026610  -0.022975  -0.022809  -0.022063  -0.027794
    16  C   -0.000526  -0.004361   0.004535   0.398892   0.400469   0.395822
    17  C    0.004416  -0.004403  -0.000715   0.004082  -0.001708  -0.004334
    18  C    0.393476   0.394067   0.398805  -0.001335   0.003974  -0.004848
    19  H    0.509297  -0.020954  -0.013153   0.000834  -0.000126  -0.000314
    20  H   -0.020954   0.518674  -0.017453  -0.000100  -0.000148   0.003685
    21  H   -0.013153  -0.017453   0.464507  -0.000143  -0.000073  -0.000146
    22  H    0.000834  -0.000100  -0.000143   0.496462  -0.016704  -0.018935
    23  H   -0.000126  -0.000148  -0.000073  -0.016704   0.493131  -0.018405
    24  H   -0.000314   0.003685  -0.000146  -0.018935  -0.018405   0.512384
    25  H   -0.000100  -0.000075  -0.000022  -0.000108   0.000910  -0.000232
    26  H   -0.000082  -0.000114   0.000678  -0.000075  -0.000098  -0.000094
    27  H   -0.000106   0.003393  -0.000328  -0.000086  -0.000262   0.003659
    28  C   -0.000025  -0.000008   0.000138  -0.000646  -0.000534   0.000321
    29  O   -0.000012  -0.000001  -0.000001  -0.000126   0.000016  -0.000011
              25         26         27         28         29
     1  H    0.000137  -0.001158   0.000026  -0.008013  -0.000905
     2  H   -0.000004  -0.000025  -0.000005   0.004010  -0.001550
     3  Rh  -0.006561  -0.006657   0.007451   0.143757  -0.009147
     4  C   -0.000302   0.000793  -0.000112  -0.018096   0.000272
     5  O    0.000439   0.007854  -0.000046   0.000815  -0.000002
     6  C    0.000186  -0.000051  -0.000043   0.001800  -0.000025
     7  C   -0.000011   0.000039   0.000003  -0.000112   0.000000
     8  H   -0.000003  -0.000087  -0.000000   0.000011   0.000001
     9  H   -0.000002   0.000024   0.000001   0.000185  -0.000001
    10  H   -0.000000   0.000002   0.000000  -0.000000  -0.000000
    11  H   -0.000002   0.000079   0.000001  -0.000001  -0.000000
    12  H   -0.000001  -0.000015   0.000000  -0.000002   0.000000
    13  C   -0.000081   0.000299   0.000015   0.012369  -0.001153
    14  O    0.000000  -0.000006  -0.000000  -0.001642   0.000071
    15  P   -0.021431  -0.020768  -0.027856  -0.022093  -0.001497
    16  C   -0.000110   0.004121  -0.005716   0.002333   0.000844
    17  C    0.394937   0.399935   0.397249   0.000656   0.000024
    18  C    0.004189  -0.000921  -0.005145  -0.000001   0.000022
    19  H   -0.000100  -0.000082  -0.000106  -0.000025  -0.000012
    20  H   -0.000075  -0.000114   0.003393  -0.000008  -0.000001
    21  H   -0.000022   0.000678  -0.000328   0.000138  -0.000001
    22  H   -0.000108  -0.000075  -0.000086  -0.000646  -0.000126
    23  H    0.000910  -0.000098  -0.000262  -0.000534   0.000016
    24  H   -0.000232  -0.000094   0.003659   0.000321  -0.000011
    25  H    0.500348  -0.012310  -0.021868   0.000070  -0.000015
    26  H   -0.012310   0.470970  -0.019087  -0.000027  -0.000001
    27  H   -0.021868  -0.019087   0.521349  -0.000004  -0.000001
    28  C    0.000070  -0.000027  -0.000004   5.274675   0.557128
    29  O   -0.000015  -0.000001  -0.000001   0.557128   7.535760
 Mulliken charges:
               1
     1  H    0.027268
     2  H    0.052904
     3  Rh  -0.269563
     4  C    0.183910
     5  O   -0.402402
     6  C   -0.216298
     7  C   -0.353365
     8  H    0.151189
     9  H    0.142026
    10  H    0.123003
    11  H    0.119393
    12  H    0.120765
    13  C    0.035524
    14  O   -0.082768
    15  P    0.276396
    16  C   -0.466204
    17  C   -0.436372
    18  C   -0.432240
    19  H    0.153582
    20  H    0.148454
    21  H    0.181959
    22  H    0.162457
    23  H    0.167099
    24  H    0.153716
    25  H    0.162023
    26  H    0.176782
    27  H    0.147518
    28  C    0.052934
    29  O   -0.079689
 Sum of Mulliken charges =   0.00000
 Mulliken charges with hydrogens summed into heavy atoms:
               1
     3  Rh  -0.189391
     4  C    0.183910
     5  O   -0.402402
     6  C    0.076917
     7  C    0.009795
    13  C    0.035524
    14  O   -0.082768
    15  P    0.276396
    16  C    0.017067
    17  C    0.049952
    18  C    0.051754
    28  C    0.052934
    29  O   -0.079689
 APT charges:
               1
     1  H    0.006595
     2  H   -0.110082
     3  Rh  -1.335112
     4  C    1.238952
     5  O   -1.027908
     6  C   -0.128173
     7  C    0.048592
     8  H   -0.000498
     9  H   -0.001226
    10  H   -0.040630
    11  H   -0.010786
    12  H   -0.008355
    13  C    1.292498
    14  O   -0.830220
    15  P    1.269357
    16  C   -0.320383
    17  C   -0.319921
    18  C   -0.339940
    19  H    0.029227
    20  H   -0.002743
    21  H    0.068579
    22  H    0.033369
    23  H    0.034319
    24  H   -0.006483
    25  H    0.036549
    26  H    0.064434
    27  H   -0.003245
    28  C    1.208624
    29  O   -0.845390
 Sum of APT charges =   0.00000
 APT charges with hydrogens summed into heavy atoms:
               1
     3  Rh  -1.438598
     4  C    1.238952
     5  O   -1.027908
     6  C   -0.129898
     7  C   -0.011179
    13  C    1.292498
    14  O   -0.830220
    15  P    1.269357
    16  C   -0.259178
    17  C   -0.222182
    18  C   -0.244878
    28  C    1.208624
    29  O   -0.845390
 Electronic spatial extent (au):  <R**2>=           3514.4450
 Charge=             -0.0000 electrons
 Dipole moment (field-independent basis, Debye):
    X=             -3.8415    Y=              2.1131    Z=              0.2537  Tot=              4.3916
 Quadrupole moment (field-independent basis, Debye-Ang):
   XX=            -98.0418   YY=           -103.0450   ZZ=           -103.6889
   XY=             -9.4887   XZ=             -2.6143   YZ=             -2.4176
 Traceless Quadrupole moment (field-independent basis, Debye-Ang):
   XX=              3.5501   YY=             -1.4531   ZZ=             -2.0970
   XY=             -9.4887   XZ=             -2.6143   YZ=             -2.4176
 Octapole moment (field-independent basis, Debye-Ang**2):
  XXX=            -18.3945  YYY=            -19.8537  ZZZ=             -9.2851  XYY=            -16.9531
  XXY=            -10.0801  XXZ=             -0.7843  XZZ=             -6.9868  YZZ=             -3.2420
  YYZ=              1.5449  XYZ=              0.9784
 Hexadecapole moment (field-independent basis, Debye-Ang**3):
 XXXX=          -2455.4119 YYYY=          -1420.7513 ZZZZ=           -819.4760 XXXY=            -48.7016
 XXXZ=              0.1152 YYYX=            -30.8039 YYYZ=             -9.9365 ZZZX=             12.7977
 ZZZY=             16.0895 XXYY=           -662.9284 XXZZ=           -529.9033 YYZZ=           -378.6027
 XXYZ=            -11.6442 YYXZ=             -8.5616 ZZXY=              6.8903
 N-N= 1.115719634454D+03 E-N=-4.538209238592D+03  KE= 9.187364799921D+02
  Exact polarizability: 214.758   3.846 199.583   3.838   3.669 176.578
 Approx polarizability: 190.101  11.072 193.368   8.615   4.647 187.032
 No NMR shielding tensors so no spin-rotation constants.
 Leave Link  601 at Tue Oct  4 20:21:09 2022, MaxMem=  2952790016 cpu:              12.0 elap:               1.1
 (Enter /mnt/data/applications/G16/g16/l701.exe)
 ... and contract with generalized density number  0.
 Compute integral second derivatives.
 R6Disp: Adding Grimme-D2 dispersion energy 2nd derivatives to the Hessian.
   1 Symmetry operations used in ECPInt.
 ECPInt:  NShTT=   22578 NPrTT=   66767 LenC2=   20931 LenP2D=   46144.
 LDataN:  DoStor=T MaxTD1= 9 Len=  602
 D2PCM: PCM CHGder 2nd derivatives, FixD1E=F FixD2E=F DoIter=F DoCFld=F I1PDM=0
 GePol: Maximum number of non-zero 2nd derivatives   =     419
 Leave Link  701 at Tue Oct  4 20:22:20 2022, MaxMem=  2952790016 cpu:             843.5 elap:              70.5
 (Enter /mnt/data/applications/G16/g16/l702.exe)
 L702 exits ... SP integral derivatives will be done elsewhere.
 Leave Link  702 at Tue Oct  4 20:22:20 2022, MaxMem=  2952790016 cpu:               0.2 elap:               0.0
 (Enter /mnt/data/applications/G16/g16/l703.exe)
 Integral derivatives from FoFJK, PRISM(SPDF).
 Compute integral second derivatives, UseDBF=F ICtDFT=           0.
 Calling FoFJK, ICntrl=    100127 FMM=F ISym2X=0 I1Cent= 0 IOpClX= 0 NMat=1 NMatS=1 NMatT=0.
 FoFJK:  IHMeth= 1 ICntrl=  100127 DoSepK=T KAlg= 0 I1Cent=           0 FoldK=F
 IRaf=         1 NMat=       1 IRICut=       1 DoRegI=T DoRafI=F ISym2E= 0 IDoP0=0 IntGTp=1.
 FoFCou: FMM=F IPFlag=           0 FMFlag=      100000 FMFlg1=         800
         NFxFlg=           0 DoJE=F BraDBF=F KetDBF=F FulRan=T
         wScrn=  0.000000 ICntrl=    100527 IOpCl=  0 I1Cent=           0 NGrid=           0
         NMat0=    1 NMatS0=      1 NMatT0=    0 NMatD0=    1 NMtDS0=    0 NMtDT0=    0
 Symmetry not used in FoFCou.
 Defaulting to unpruned grid for atomic number  45.
 Defaulting to unpruned grid for atomic number  45.
 Defaulting to unpruned grid for atomic number  45.
 Defaulting to unpruned grid for atomic number  45.
 Defaulting to unpruned grid for atomic number  45.
 Defaulting to unpruned grid for atomic number  45.
 Defaulting to unpruned grid for atomic number  45.
 Defaulting to unpruned grid for atomic number  45.
 Defaulting to unpruned grid for atomic number  45.
 Defaulting to unpruned grid for atomic number  45.
 Defaulting to unpruned grid for atomic number  45.
 Defaulting to unpruned grid for atomic number  45.
 Leave Link  703 at Tue Oct  4 20:59:32 2022, MaxMem=  2952790016 cpu:           26721.8 elap:            2232.7
 (Enter /mnt/data/applications/G16/g16/l716.exe)
 Dipole        =-1.51134627D+00 8.31370392D-01 9.98318201D-02
 Polarizability= 2.14758225D+02 3.84556744D+00 1.99583399D+02
                 3.83831935D+00 3.66851643D+00 1.76577710D+02
 Full mass-weighted force constant matrix:
 Low frequencies ---  -20.5679  -12.0628   -0.0014    0.0008    0.0014    6.9917
 Low frequencies ---   18.1115   48.8015   58.3240
 Diagonal vibrational polarizability:
       49.6644448      84.3094931     267.9538346
 Harmonic frequencies (cm**-1), IR intensities (KM/Mole), Raman scattering
 activities (A**4/AMU), depolarization ratios for plane and unpolarized
 incident light, reduced masses (AMU), force constants (mDyne/A),
 and normal coordinates:
                      1                      2                      3
                      A                      A                      A
 Frequencies --     16.2144                48.6245                58.2612
 Red. masses --      3.7515                 4.9194                 6.8569
 Frc consts  --      0.0006                 0.0069                 0.0137
 IR Inten    --      2.7971                 0.2736                 0.8821
  Atom  AN      X      Y      Z        X      Y      Z        X      Y      Z
     1   1    -0.01  -0.04   0.01    -0.06   0.01  -0.05    -0.00   0.00  -0.02
     2   1     0.00  -0.02   0.04    -0.03   0.02  -0.09    -0.01  -0.01   0.01
     3  45    -0.00  -0.01   0.02    -0.01   0.01  -0.05    -0.00   0.00  -0.02
     4   6    -0.00  -0.02   0.04    -0.01   0.00  -0.03     0.02  -0.03  -0.05
     5   8     0.03  -0.09   0.21    -0.01   0.01  -0.05     0.05  -0.01  -0.11
     6   6    -0.04   0.08  -0.17     0.01  -0.03   0.05    -0.00  -0.10  -0.02
     7   6    -0.05   0.09  -0.18     0.04  -0.09   0.21     0.03  -0.14  -0.08
     8   1    -0.13   0.20  -0.20     0.08   0.04   0.01    -0.01  -0.17   0.01
     9   1     0.04   0.01  -0.30    -0.09  -0.07   0.00    -0.03  -0.07   0.05
    10   1    -0.08   0.16  -0.34     0.05  -0.11   0.26     0.01  -0.19  -0.05
    11   1    -0.13   0.17  -0.04     0.14  -0.05   0.24     0.05  -0.18  -0.15
    12   1     0.05  -0.04  -0.16    -0.04  -0.16   0.24     0.04  -0.07  -0.11
    13   6    -0.02   0.01   0.03     0.11   0.03  -0.06    -0.06   0.17   0.02
    14   8    -0.03   0.02   0.03     0.23   0.05  -0.07    -0.13   0.38   0.08
    15  15     0.02   0.00  -0.03    -0.02   0.00  -0.02    -0.01  -0.01   0.06
    16   6     0.04   0.05  -0.19    -0.00   0.02  -0.16    -0.00  -0.01   0.03
    17   6     0.14   0.04   0.06     0.04   0.10   0.11    -0.01   0.10   0.19
    18   6    -0.09  -0.05   0.01    -0.13  -0.12   0.05    -0.04  -0.16   0.14
    19   1    -0.15  -0.07  -0.04    -0.17  -0.19  -0.03    -0.07  -0.21   0.07
    20   1    -0.07  -0.04  -0.00    -0.14  -0.13   0.10    -0.01  -0.14   0.21
    21   1    -0.10  -0.08   0.09    -0.14  -0.13   0.13    -0.04  -0.20   0.19
    22   1    -0.04   0.05  -0.24    -0.06  -0.03  -0.24    -0.00  -0.07  -0.03
    23   1     0.12   0.08  -0.21     0.08   0.08  -0.20     0.02   0.06  -0.00
    24   1     0.05   0.06  -0.21    -0.01   0.01  -0.15    -0.02  -0.03   0.09
    25   1     0.24   0.07   0.03     0.12   0.17   0.07     0.03   0.19   0.15
    26   1     0.13   0.03   0.16     0.02   0.12   0.21    -0.02   0.11   0.25
    27   1     0.13   0.04   0.03    -0.00   0.07   0.13    -0.04   0.07   0.25
    28   6    -0.00  -0.02   0.04    -0.04  -0.01   0.08     0.06  -0.05  -0.08
    29   8    -0.00  -0.04   0.06    -0.08  -0.04   0.22     0.15  -0.12  -0.15
                      4                      5                      6
                      A                      A                      A
 Frequencies --     63.6267                71.5975                75.0411
 Red. masses --     10.5833                 3.4493                 5.0266
 Frc consts  --      0.0252                 0.0104                 0.0167
 IR Inten    --      0.1733                 1.6848                 0.1552
  Atom  AN      X      Y      Z        X      Y      Z        X      Y      Z
     1   1     0.07  -0.11   0.03    -0.05   0.00  -0.00    -0.04   0.01   0.07
     2   1     0.05  -0.08   0.09    -0.04  -0.00  -0.03    -0.06  -0.00   0.09
     3  45     0.04  -0.06   0.03    -0.03  -0.01  -0.00    -0.04   0.02   0.07
     4   6     0.02  -0.02   0.02    -0.02  -0.02   0.03    -0.02  -0.01   0.03
     5   8    -0.02  -0.02   0.01     0.00  -0.07   0.15    -0.00   0.02  -0.05
     6   6     0.04   0.01   0.03    -0.05   0.03  -0.11    -0.04  -0.10   0.11
     7   6    -0.01   0.08  -0.06    -0.00  -0.06   0.14    -0.05  -0.06  -0.15
     8   1     0.03  -0.07   0.06    -0.06   0.32  -0.20    -0.07  -0.34   0.19
     9   1     0.10   0.05   0.09    -0.11  -0.13  -0.36     0.00   0.04   0.32
    10   1     0.01   0.10  -0.04    -0.03  -0.00  -0.01    -0.05  -0.14  -0.05
    11   1    -0.07   0.03  -0.12     0.06   0.12   0.40    -0.09  -0.21  -0.37
    12   1     0.00   0.17  -0.08     0.01  -0.36   0.23    -0.02   0.20  -0.23
    13   6     0.09   0.07   0.06     0.06   0.04  -0.00     0.08  -0.03   0.04
    14   8     0.17   0.24   0.08     0.18   0.13  -0.00     0.27  -0.11  -0.01
    15  15    -0.02  -0.10  -0.01    -0.01   0.00   0.00    -0.03   0.04  -0.01
    16   6    -0.00  -0.17  -0.07    -0.03   0.02   0.08    -0.01   0.06  -0.12
    17   6    -0.03  -0.08   0.00    -0.02  -0.06  -0.07     0.05   0.03   0.01
    18   6    -0.10  -0.11  -0.00     0.06   0.08  -0.04    -0.10   0.05  -0.01
    19   1    -0.10  -0.14  -0.03     0.09   0.12   0.01    -0.11   0.05  -0.02
    20   1    -0.13  -0.13  -0.01     0.06   0.08  -0.06    -0.10   0.05  -0.03
    21   1    -0.11  -0.08   0.03     0.07   0.09  -0.10    -0.11   0.06   0.03
    22   1     0.00  -0.20  -0.10    -0.00   0.06   0.13    -0.07   0.08  -0.14
    23   1     0.03  -0.14  -0.08    -0.08  -0.02   0.11     0.06   0.05  -0.13
    24   1    -0.04  -0.19  -0.05    -0.01   0.04   0.07    -0.00   0.07  -0.17
    25   1     0.03  -0.10  -0.00    -0.09  -0.09  -0.05     0.11   0.02   0.00
    26   1    -0.05  -0.03   0.05     0.00  -0.10  -0.14     0.04   0.04   0.07
    27   1    -0.08  -0.11  -0.03     0.04  -0.02  -0.08     0.03   0.03  -0.04
    28   6    -0.09   0.16  -0.06    -0.00  -0.02  -0.05     0.02  -0.01  -0.05
    29   8    -0.31   0.50  -0.21     0.05  -0.05  -0.12     0.13  -0.06  -0.21
                      7                      8                      9
                      A                      A                      A
 Frequencies --     96.9311               113.9300               168.4256
 Red. masses --      3.1788                 5.0075                 2.5724
 Frc consts  --      0.0176                 0.0383                 0.0430
 IR Inten    --      1.5544                 3.0783                 2.0394
  Atom  AN      X      Y      Z        X      Y      Z        X      Y      Z
     1   1     0.01  -0.01  -0.04     0.06   0.14  -0.02    -0.07   0.07  -0.01
     2   1    -0.01  -0.03  -0.05     0.01   0.07  -0.09    -0.07  -0.01  -0.13
     3  45    -0.02  -0.03  -0.04     0.02   0.06  -0.04    -0.01  -0.01  -0.02
     4   6    -0.03  -0.03   0.06     0.07  -0.03   0.12    -0.02  -0.03  -0.02
     5   8    -0.07  -0.03   0.09     0.14  -0.10   0.26    -0.04  -0.03  -0.02
     6   6     0.02   0.00   0.17     0.03  -0.11   0.10    -0.00  -0.01  -0.00
     7   6    -0.08   0.16  -0.02     0.06  -0.13  -0.13    -0.03   0.02   0.01
     8   1     0.06  -0.26   0.25    -0.04  -0.28   0.17     0.02  -0.02  -0.00
     9   1     0.12   0.15   0.39     0.05  -0.01   0.25     0.01  -0.01   0.01
    10   1    -0.01   0.17   0.13     0.01  -0.22  -0.10    -0.00   0.04   0.05
    11   1    -0.18  -0.00  -0.25     0.04  -0.23  -0.29    -0.04   0.01  -0.01
    12   1    -0.13   0.45  -0.09     0.14   0.05  -0.20    -0.08   0.05   0.01
    13   6    -0.00   0.01  -0.04    -0.00   0.02  -0.06     0.01  -0.03  -0.03
    14   8     0.06   0.11  -0.03     0.01   0.02  -0.06    -0.01   0.03  -0.01
    15  15     0.04   0.01   0.00    -0.08  -0.01  -0.01     0.07   0.03   0.08
    16   6     0.03   0.10   0.06    -0.07  -0.14   0.04     0.11  -0.16  -0.00
    17   6     0.06  -0.00  -0.00    -0.13  -0.02  -0.03     0.05   0.01   0.05
    18   6     0.12  -0.02   0.01    -0.09   0.04  -0.03    -0.08   0.20   0.01
    19   1     0.10  -0.01   0.01     0.01   0.03   0.01    -0.04   0.26   0.08
    20   1     0.16   0.01   0.03    -0.17  -0.01  -0.04    -0.19   0.14  -0.14
    21   1     0.13  -0.07  -0.01    -0.09   0.14  -0.09    -0.11   0.36   0.03
    22   1     0.01   0.12   0.07     0.01  -0.15   0.08     0.16  -0.20  -0.00
    23   1    -0.03   0.12   0.06    -0.08  -0.20   0.06     0.22  -0.22   0.00
    24   1     0.08   0.13   0.09    -0.14  -0.18   0.02    -0.03  -0.23  -0.06
    25   1    -0.00   0.01  -0.00    -0.19  -0.02  -0.02     0.35  -0.10   0.05
    26   1     0.08  -0.06  -0.05    -0.11  -0.07  -0.09    -0.03   0.24   0.27
    27   1     0.12   0.03   0.03    -0.08   0.01  -0.00    -0.18  -0.10  -0.16
    28   6    -0.03  -0.04  -0.03     0.02   0.05  -0.01    -0.03  -0.00  -0.01
    29   8    -0.04  -0.06   0.04     0.01   0.00   0.10    -0.02  -0.03  -0.00
                     10                     11                     12
                      A                      A                      A
 Frequencies --    179.1605               193.8601               197.9193
 Red. masses --      3.1097                 1.1641                 3.2776
 Frc consts  --      0.0588                 0.0258                 0.0756
 IR Inten    --      2.7645                 0.5128                 0.0984
  Atom  AN      X      Y      Z        X      Y      Z        X      Y      Z
     1   1     0.06  -0.12   0.01     0.01  -0.01  -0.00     0.08  -0.13  -0.01
     2   1    -0.05  -0.08   0.17     0.01   0.01   0.02     0.03  -0.05   0.07
     3  45    -0.02   0.00   0.02    -0.00   0.01  -0.00     0.03  -0.05  -0.00
     4   6    -0.03  -0.02   0.03    -0.01   0.03   0.02     0.06  -0.10  -0.03
     5   8    -0.03  -0.02   0.04     0.01   0.03   0.02     0.02  -0.10  -0.01
     6   6    -0.03  -0.01   0.01    -0.02   0.01   0.01     0.11  -0.03  -0.02
     7   6    -0.04  -0.00   0.01     0.00  -0.03  -0.01     0.04   0.07   0.02
     8   1    -0.05   0.00   0.01    -0.04   0.01   0.01     0.15  -0.03  -0.03
     9   1    -0.03  -0.02  -0.01    -0.04   0.01   0.01     0.16  -0.03  -0.03
    10   1    -0.05   0.03  -0.06    -0.02  -0.06  -0.01     0.09   0.15   0.00
    11   1    -0.08   0.03   0.06     0.03  -0.03  -0.02    -0.03   0.08   0.05
    12   1    -0.00  -0.06   0.01     0.02  -0.02  -0.01     0.01   0.05   0.03
    13   6    -0.03   0.03   0.03    -0.01   0.01  -0.00     0.01  -0.01   0.02
    14   8     0.03  -0.03   0.01     0.01  -0.00  -0.01     0.01  -0.01   0.02
    15  15     0.07   0.04  -0.11    -0.01  -0.02  -0.01    -0.08   0.05  -0.03
    16   6     0.08  -0.15  -0.01    -0.01   0.00   0.03    -0.11   0.15   0.04
    17   6    -0.12   0.21   0.01     0.02  -0.04  -0.02    -0.13   0.15   0.05
    18   6     0.14  -0.08  -0.05     0.04  -0.04  -0.01    -0.06   0.11  -0.05
    19   1     0.28  -0.19  -0.07    -0.18   0.05  -0.05    -0.06   0.16  -0.01
    20   1     0.06  -0.13   0.09     0.26   0.09  -0.04    -0.06   0.11  -0.10
    21   1     0.15  -0.01  -0.15     0.07  -0.28   0.08    -0.06   0.13  -0.07
    22   1     0.24  -0.27  -0.04     0.02  -0.13  -0.08    -0.11   0.10  -0.01
    23   1     0.07  -0.10  -0.03    -0.05   0.17  -0.03    -0.20   0.27   0.01
    24   1    -0.06  -0.24   0.10    -0.02  -0.02   0.21    -0.03   0.17   0.18
    25   1    -0.09   0.32  -0.04     0.47  -0.20  -0.03     0.16   0.16   0.01
    26   1    -0.15   0.35   0.02    -0.09   0.26   0.31    -0.20   0.37   0.28
    27   1    -0.25   0.10   0.14    -0.28  -0.18  -0.34    -0.36   0.01  -0.04
    28   6    -0.02   0.01   0.01     0.01   0.00  -0.00    -0.00  -0.02   0.01
    29   8     0.00  -0.01  -0.01     0.00   0.00   0.01    -0.01  -0.00  -0.01
                     13                     14                     15
                      A                      A                      A
 Frequencies --    216.5872               231.4608               237.1860
 Red. masses --      1.1508                 1.6648                 2.0781
 Frc consts  --      0.0318                 0.0525                 0.0689
 IR Inten    --      0.3920                 1.5088                 1.3330
  Atom  AN      X      Y      Z        X      Y      Z        X      Y      Z
     1   1    -0.03  -0.02  -0.00     0.03  -0.02  -0.01    -0.05   0.01   0.01
     2   1    -0.00  -0.00   0.01     0.06   0.02  -0.01    -0.05   0.00   0.02
     3  45    -0.00   0.00   0.00     0.02  -0.02  -0.01    -0.04   0.03   0.01
     4   6    -0.00   0.00  -0.04    -0.04   0.08   0.03     0.06  -0.05  -0.03
     5   8     0.01  -0.03   0.03    -0.05   0.08   0.03     0.10  -0.05  -0.04
     6   6    -0.01   0.03  -0.08    -0.08   0.04   0.02     0.10  -0.02  -0.01
     7   6     0.01   0.00   0.03     0.00  -0.08  -0.03     0.02   0.09   0.03
     8   1     0.02   0.08  -0.10    -0.13   0.04   0.03     0.15  -0.04  -0.01
     9   1    -0.03  -0.00  -0.12    -0.13   0.03   0.02     0.14  -0.01   0.01
    10   1     0.13  -0.19   0.57    -0.06  -0.19  -0.02     0.07   0.21  -0.01
    11   1     0.28  -0.23  -0.38     0.09  -0.09  -0.07    -0.09   0.12   0.09
    12   1    -0.37   0.40  -0.01     0.05  -0.06  -0.05    -0.01   0.05   0.05
    13   6     0.01   0.01   0.01     0.01  -0.01  -0.00    -0.02   0.03   0.01
    14   8    -0.01  -0.01   0.01    -0.01   0.01   0.00     0.00  -0.01  -0.01
    15  15    -0.00  -0.00  -0.01    -0.01  -0.02  -0.00    -0.04  -0.03  -0.01
    16   6    -0.00  -0.01  -0.00    -0.02   0.06  -0.00    -0.04  -0.03  -0.01
    17   6    -0.00   0.00   0.00     0.02   0.01   0.04     0.07  -0.05   0.01
    18   6     0.01  -0.01  -0.00     0.03   0.02  -0.03     0.06  -0.06  -0.01
    19   1     0.02  -0.01  -0.00     0.47  -0.12   0.09     0.45  -0.21   0.07
    20   1     0.01  -0.01   0.01    -0.32  -0.20   0.08    -0.22  -0.23   0.16
    21   1     0.01  -0.00  -0.02     0.01   0.41  -0.28     0.06   0.24  -0.26
    22   1     0.00  -0.01   0.00    -0.08   0.18   0.09    -0.05   0.08   0.10
    23   1    -0.00  -0.01   0.00    -0.04  -0.06   0.04    -0.03  -0.18   0.05
    24   1    -0.01  -0.01  -0.00     0.05   0.11  -0.13    -0.02  -0.01  -0.15
    25   1     0.00   0.01  -0.00     0.21   0.01   0.02     0.32  -0.12  -0.00
    26   1    -0.00   0.01   0.01    -0.03   0.13   0.21     0.03   0.01   0.24
    27   1    -0.00   0.00   0.00    -0.10  -0.05  -0.04    -0.02  -0.08  -0.16
    28   6    -0.00  -0.00   0.02     0.03  -0.04  -0.01    -0.02   0.04   0.02
    29   8     0.01   0.00  -0.01    -0.02   0.01   0.01     0.02  -0.01  -0.01
                     16                     17                     18
                      A                      A                      A
 Frequencies --    257.3299               263.0407               270.0483
 Red. masses --      1.2012                 1.8463                 2.4260
 Frc consts  --      0.0469                 0.0753                 0.1042
 IR Inten    --      0.2964                 0.3867                 0.4184
  Atom  AN      X      Y      Z        X      Y      Z        X      Y      Z
     1   1    -0.02   0.04   0.01    -0.04   0.04   0.01     0.02  -0.09  -0.01
     2   1    -0.00   0.02  -0.03     0.01   0.03  -0.05     0.01  -0.02   0.09
     3  45    -0.01  -0.00   0.00    -0.02  -0.01  -0.00    -0.03  -0.02   0.00
     4   6     0.01   0.01   0.00     0.02   0.03   0.01     0.03   0.06   0.01
     5   8     0.02   0.01  -0.00     0.04   0.04   0.01     0.04   0.07  -0.01
     6   6     0.01   0.01   0.00     0.03   0.03   0.01     0.03   0.06   0.01
     7   6     0.01   0.00  -0.00     0.05   0.01  -0.01     0.08   0.00  -0.02
     8   1     0.01   0.01   0.00     0.02   0.03   0.01     0.01   0.06   0.01
     9   1     0.01   0.01   0.00     0.02   0.03   0.01     0.01   0.05   0.01
    10   1     0.01   0.00   0.00     0.03  -0.02  -0.02     0.04  -0.06  -0.03
    11   1     0.01   0.00  -0.00     0.07   0.00  -0.01     0.13  -0.00  -0.03
    12   1     0.01   0.01  -0.00     0.08   0.00  -0.01     0.12   0.00  -0.03
    13   6     0.00  -0.01  -0.00     0.00  -0.02  -0.01    -0.03   0.02   0.01
    14   8    -0.00   0.01   0.00    -0.00   0.01   0.00     0.02  -0.01  -0.01
    15  15    -0.02  -0.02   0.03    -0.05  -0.03   0.03    -0.02  -0.02  -0.07
    16   6    -0.00   0.00  -0.07    -0.03  -0.04  -0.11    -0.04  -0.07   0.13
    17   6    -0.02  -0.03   0.02    -0.04   0.02   0.09     0.17   0.05   0.09
    18   6     0.06   0.04  -0.00     0.14   0.07  -0.03    -0.06   0.04  -0.10
    19   1     0.23   0.04   0.09    -0.04   0.28   0.07    -0.14   0.13  -0.07
    20   1    -0.04  -0.01   0.02     0.44   0.25  -0.12    -0.01   0.07  -0.21
    21   1     0.07   0.17  -0.15     0.21  -0.23  -0.10    -0.06   0.01  -0.04
    22   1    -0.00  -0.38  -0.45    -0.16   0.16   0.01     0.17  -0.20   0.13
    23   1     0.07   0.50  -0.27     0.14  -0.30  -0.04    -0.22   0.03   0.12
    24   1    -0.06  -0.08   0.37    -0.02   0.00  -0.46    -0.10  -0.13   0.36
    25   1    -0.12  -0.00   0.03    -0.06   0.12   0.06     0.11   0.28   0.02
    26   1     0.01  -0.10  -0.06    -0.04   0.01   0.11     0.22  -0.20   0.16
    27   1     0.05   0.01   0.08    -0.04   0.01   0.19     0.37   0.16   0.25
    28   6     0.00  -0.00  -0.01     0.00  -0.02  -0.01     0.00  -0.03  -0.01
    29   8    -0.00  -0.00   0.00    -0.02   0.00  -0.00    -0.02  -0.01  -0.00
                     19                     20                     21
                      A                      A                      A
 Frequencies --    279.7905               342.9256               350.7722
 Red. masses --      3.7874                 4.9178                 3.6633
 Frc consts  --      0.1747                 0.3407                 0.2656
 IR Inten    --      5.0834                22.5205                 6.6501
  Atom  AN      X      Y      Z        X      Y      Z        X      Y      Z
     1   1    -0.04  -0.04   0.01     0.40   0.12   0.08     0.42  -0.02   0.04
     2   1    -0.06  -0.04   0.01     0.07  -0.03   0.19     0.06  -0.05   0.27
     3  45    -0.06  -0.04   0.00     0.01  -0.01   0.02     0.05  -0.00   0.02
     4   6     0.09   0.08   0.04     0.05   0.04   0.12    -0.00  -0.06   0.05
     5   8     0.04   0.08   0.03     0.30   0.11  -0.07    -0.11  -0.02  -0.04
     6   6     0.14   0.12   0.02    -0.08  -0.05  -0.03     0.02   0.02  -0.02
     7   6     0.25   0.00  -0.06    -0.18   0.04   0.04     0.05  -0.01  -0.02
     8   1     0.10   0.13   0.02    -0.18   0.14  -0.07    -0.03   0.13  -0.05
     9   1     0.12   0.10  -0.01    -0.05  -0.14  -0.19     0.06  -0.04  -0.13
    10   1     0.16  -0.15  -0.06    -0.06   0.14   0.16     0.03  -0.08   0.02
    11   1     0.37  -0.01  -0.10    -0.23   0.01   0.00     0.12  -0.04  -0.07
    12   1     0.35   0.02  -0.08    -0.34   0.12   0.06     0.05   0.02  -0.03
    13   6    -0.04  -0.03   0.00    -0.18  -0.06  -0.03    -0.16   0.01  -0.02
    14   8     0.02   0.01  -0.00     0.07   0.04  -0.05     0.06   0.01  -0.05
    15  15     0.07   0.04   0.02     0.04  -0.04   0.00    -0.09   0.13   0.03
    16   6     0.08   0.05  -0.01     0.04   0.04   0.01    -0.08  -0.08  -0.03
    17   6    -0.10  -0.00  -0.10    -0.06   0.00   0.01     0.09   0.00  -0.06
    18   6    -0.06  -0.04   0.08    -0.05   0.01  -0.02     0.06  -0.00   0.10
    19   1    -0.02  -0.17  -0.02    -0.09   0.04  -0.01     0.13  -0.09   0.06
    20   1    -0.20  -0.12   0.13    -0.10  -0.01  -0.11     0.11   0.02   0.30
    21   1    -0.11   0.08   0.17    -0.08   0.08   0.06     0.10  -0.10  -0.02
    22   1     0.04   0.07  -0.01    -0.02   0.09   0.02     0.03  -0.14  -0.03
    23   1     0.11   0.03  -0.01     0.00   0.05   0.01     0.06  -0.15  -0.03
    24   1     0.09   0.06  -0.05     0.12   0.09  -0.01    -0.27  -0.18  -0.09
    25   1    -0.12  -0.17  -0.04    -0.09   0.01   0.01     0.13  -0.12  -0.02
    26   1    -0.13   0.18  -0.21    -0.08   0.09  -0.03     0.12  -0.15  -0.01
    27   1    -0.24  -0.08  -0.19    -0.14  -0.06   0.06     0.22   0.12  -0.24
    28   6    -0.04  -0.02  -0.03     0.02  -0.03  -0.23    -0.07  -0.01  -0.15
    29   8    -0.04  -0.04  -0.01    -0.09  -0.06   0.06    -0.09  -0.08   0.02
                     22                     23                     24
                      A                      A                      A
 Frequencies --    358.4967               365.3504               372.8492
 Red. masses --      9.4654                 5.2249                 6.1771
 Frc consts  --      0.7167                 0.4109                 0.5059
 IR Inten    --     11.0916                 5.5192                 2.9756
  Atom  AN      X      Y      Z        X      Y      Z        X      Y      Z
     1   1    -0.03  -0.16  -0.03    -0.39  -0.03  -0.06     0.05   0.55   0.14
     2   1    -0.06  -0.10   0.03     0.06   0.12  -0.28    -0.05   0.14  -0.47
     3  45    -0.06  -0.12  -0.03     0.02  -0.02  -0.02    -0.01   0.03  -0.06
     4   6    -0.00   0.03   0.05     0.01   0.11  -0.05    -0.01  -0.04   0.03
     5   8     0.11   0.06  -0.01     0.22   0.07   0.04    -0.04  -0.01  -0.03
     6   6    -0.07  -0.02   0.00    -0.05  -0.02   0.02     0.01   0.00  -0.01
     7   6    -0.10   0.00   0.02    -0.09   0.02   0.03     0.02  -0.00  -0.01
     8   1    -0.11   0.03  -0.01     0.00  -0.15   0.06    -0.02   0.08  -0.03
     9   1    -0.07  -0.04  -0.04    -0.11   0.07   0.17     0.04  -0.04  -0.09
    10   1    -0.06   0.05   0.05    -0.06   0.09  -0.01     0.02  -0.02   0.01
    11   1    -0.13  -0.00   0.02    -0.15   0.04   0.09     0.03  -0.02  -0.04
    12   1    -0.16   0.03   0.02    -0.09  -0.02   0.05     0.01   0.03  -0.02
    13   6    -0.03  -0.04  -0.03     0.21  -0.03   0.03     0.01  -0.33   0.28
    14   8     0.01   0.02  -0.03    -0.07  -0.01   0.09     0.06   0.02   0.36
    15  15    -0.08   0.17   0.02    -0.05   0.13  -0.00    -0.01   0.01  -0.03
    16   6    -0.05  -0.06  -0.02    -0.04  -0.05  -0.00    -0.02  -0.01   0.01
    17   6     0.04   0.05  -0.09     0.04   0.05  -0.09     0.02   0.02  -0.02
    18   6     0.02   0.01   0.11     0.01  -0.01   0.08     0.00  -0.03  -0.02
    19   1     0.07  -0.11   0.03     0.05  -0.14  -0.01     0.01  -0.06  -0.05
    20   1     0.03   0.02   0.30     0.04  -0.00   0.28     0.02  -0.02   0.03
    21   1     0.04  -0.06   0.06     0.04  -0.09   0.05     0.01  -0.06  -0.03
    22   1     0.08  -0.15  -0.03     0.09  -0.13  -0.01     0.04  -0.02   0.03
    23   1     0.07  -0.12  -0.02     0.03  -0.09  -0.00    -0.06  -0.02   0.02
    24   1    -0.26  -0.17  -0.06    -0.22  -0.15  -0.01    -0.04  -0.03   0.03
    25   1     0.06  -0.09  -0.05     0.07  -0.06  -0.06     0.05   0.05  -0.03
    26   1     0.07  -0.05  -0.08     0.06  -0.02  -0.07     0.02   0.01   0.02
    27   1     0.13   0.13  -0.25     0.10   0.12  -0.23     0.03   0.03  -0.02
    28   6     0.38   0.21   0.04    -0.08  -0.24   0.11     0.00   0.10  -0.16
    29   8     0.30   0.26   0.15    -0.15  -0.05  -0.12     0.01  -0.03   0.07
                     25                     26                     27
                      A                      A                      A
 Frequencies --    393.3589               474.6781               496.9165
 Red. masses --      3.9227                 6.4547                 7.2916
 Frc consts  --      0.3576                 0.8569                 1.0608
 IR Inten    --     16.7981                13.7121                28.7527
  Atom  AN      X      Y      Z        X      Y      Z        X      Y      Z
     1   1     0.28  -0.59  -0.11     0.13  -0.47  -0.11    -0.31  -0.00  -0.05
     2   1     0.07  -0.13   0.47    -0.29  -0.32   0.08    -0.01   0.02   0.01
     3  45    -0.00   0.00  -0.07     0.03  -0.04  -0.02    -0.03   0.00   0.01
     4   6    -0.02   0.04  -0.08     0.05   0.04   0.11     0.05  -0.10   0.18
     5   8     0.03  -0.00   0.04     0.06   0.09  -0.01    -0.06  -0.01  -0.05
     6   6    -0.01   0.00   0.00    -0.05   0.02   0.03     0.03  -0.04   0.03
     7   6    -0.01  -0.01   0.01    -0.05  -0.00  -0.00     0.01   0.01  -0.02
     8   1     0.06  -0.13   0.03    -0.17   0.18   0.01    -0.16   0.33  -0.06
     9   1    -0.06   0.07   0.13    -0.05  -0.06  -0.11     0.13  -0.24  -0.33
    10   1    -0.02   0.01  -0.02    -0.06  -0.02   0.01     0.03   0.02   0.01
    11   1    -0.02   0.02   0.05    -0.05  -0.03  -0.04    -0.05  -0.05  -0.09
    12   1     0.00  -0.05   0.02    -0.04   0.04  -0.02     0.00   0.11  -0.05
    13   6    -0.13   0.25   0.24     0.16   0.08   0.02     0.42   0.31   0.03
    14   8     0.08  -0.14   0.12    -0.05  -0.03   0.03    -0.12  -0.11   0.04
    15  15     0.01  -0.01   0.05    -0.01  -0.01   0.01     0.00   0.00  -0.00
    16   6     0.02   0.00  -0.01    -0.03  -0.01  -0.01     0.01   0.00   0.00
    17   6    -0.01  -0.04   0.03    -0.00  -0.02   0.01     0.00   0.00  -0.00
    18   6    -0.00   0.03   0.04     0.00   0.00   0.00     0.00  -0.00   0.00
    19   1    -0.02   0.08   0.08     0.00   0.02   0.02    -0.01  -0.00  -0.01
    20   1    -0.01   0.03  -0.03     0.02   0.01  -0.01     0.00  -0.00   0.00
    21   1    -0.01   0.07   0.05     0.01  -0.01  -0.02     0.00  -0.00   0.01
    22   1    -0.04   0.01  -0.04    -0.06   0.01  -0.00     0.02  -0.00   0.00
    23   1     0.10  -0.01  -0.02    -0.03  -0.00  -0.01     0.02  -0.01   0.01
    24   1     0.02   0.01  -0.07    -0.01   0.01  -0.02     0.00  -0.00  -0.00
    25   1    -0.05  -0.09   0.05     0.00  -0.02   0.02     0.00   0.00  -0.00
    26   1    -0.01  -0.05  -0.02     0.01  -0.05   0.02    -0.00   0.02  -0.01
    27   1     0.00  -0.02  -0.01     0.03   0.01   0.00    -0.01  -0.00  -0.00
    28   6     0.04  -0.06   0.01    -0.40   0.43   0.03     0.16  -0.05  -0.38
    29   8    -0.02   0.02  -0.00     0.11  -0.15  -0.02    -0.09  -0.01   0.10
                     28                     29                     30
                      A                      A                      A
 Frequencies --    512.0043               664.3107               695.2721
 Red. masses --      3.0817                 1.6112                 3.6429
 Frc consts  --      0.4760                 0.4189                 1.0376
 IR Inten    --     20.0163                64.8669                29.5441
  Atom  AN      X      Y      Z        X      Y      Z        X      Y      Z
     1   1    -0.06  -0.02  -0.03     0.30  -0.45  -0.09    -0.10  -0.11  -0.04
     2   1    -0.00   0.07  -0.19     0.06  -0.20   0.76     0.04   0.02   0.05
     3  45     0.00   0.01  -0.03    -0.01   0.02  -0.01     0.01   0.00  -0.00
     4   6     0.05  -0.11   0.26    -0.00  -0.01   0.01    -0.11  -0.10  -0.00
     5   8    -0.02   0.04  -0.08    -0.01  -0.00  -0.00     0.09  -0.09  -0.06
     6   6     0.02  -0.03   0.06     0.01  -0.02   0.01    -0.10   0.15   0.08
     7   6    -0.00   0.01  -0.02     0.00  -0.00  -0.00     0.01   0.04   0.01
     8   1    -0.26   0.53  -0.07    -0.01   0.06  -0.02    -0.01   0.14   0.06
     9   1     0.15  -0.34  -0.48     0.03  -0.06  -0.06    -0.01   0.12   0.02
    10   1     0.00   0.00   0.01     0.01   0.02  -0.01    -0.22  -0.29  -0.07
    11   1    -0.07  -0.08  -0.14    -0.03  -0.01  -0.02     0.25   0.02  -0.07
    12   1     0.02   0.16  -0.07     0.01   0.03  -0.01     0.28   0.03  -0.04
    13   6    -0.07   0.03   0.03     0.11  -0.16  -0.05     0.01  -0.01  -0.00
    14   8     0.03  -0.01   0.00    -0.03   0.04   0.02    -0.00   0.00   0.00
    15  15     0.00  -0.00   0.00     0.00  -0.00  -0.00    -0.06   0.10   0.01
    16   6     0.00   0.00  -0.00    -0.00   0.00   0.00     0.19   0.04   0.03
    17   6    -0.00  -0.01   0.01    -0.00  -0.01   0.01    -0.07  -0.12   0.12
    18   6     0.00   0.00   0.01     0.00   0.01   0.02    -0.03  -0.07  -0.17
    19   1     0.00   0.01   0.01    -0.01   0.03   0.03     0.00  -0.13  -0.22
    20   1     0.00   0.00   0.00    -0.01   0.00  -0.02     0.01  -0.05  -0.07
    21   1     0.00   0.01   0.01    -0.00   0.03   0.03    -0.00  -0.15  -0.23
    22   1    -0.01  -0.00  -0.01    -0.01  -0.00  -0.01     0.26   0.00   0.03
    23   1     0.01   0.01  -0.00     0.02  -0.00  -0.00     0.27   0.00   0.04
    24   1     0.00   0.00  -0.00    -0.01  -0.00  -0.01     0.10  -0.01   0.01
    25   1     0.01  -0.01   0.01    -0.00  -0.03   0.02    -0.04  -0.20   0.15
    26   1    -0.00  -0.01   0.01     0.00  -0.03   0.00    -0.05  -0.21   0.16
    27   1    -0.00  -0.00  -0.00     0.02   0.01  -0.02    -0.00  -0.06   0.04
    28   6    -0.00  -0.11   0.22     0.02  -0.04   0.02     0.00   0.00  -0.01
    29   8     0.01   0.04  -0.07    -0.01   0.01  -0.01     0.00   0.00   0.00
                     31                     32                     33
                      A                      A                      A
 Frequencies --    701.1384               750.9264               759.8428
 Red. masses --      3.5402                 1.1600                 3.5549
 Frc consts  --      1.0254                 0.3854                 1.2093
 IR Inten    --     20.4756                38.2952                14.8874
  Atom  AN      X      Y      Z        X      Y      Z        X      Y      Z
     1   1    -0.11  -0.11  -0.03     0.74   0.51   0.18    -0.08  -0.03  -0.02
     2   1     0.03   0.02  -0.00    -0.28  -0.22  -0.01     0.17   0.12   0.03
     3  45     0.00   0.01   0.00    -0.01  -0.01  -0.00     0.00  -0.00   0.00
     4   6    -0.13  -0.12  -0.01     0.01  -0.01   0.00    -0.00   0.00  -0.00
     5   8     0.11  -0.12  -0.07     0.01  -0.01  -0.01    -0.00  -0.00  -0.00
     6   6    -0.12   0.18   0.10    -0.02   0.03  -0.01     0.00  -0.00   0.00
     7   6     0.01   0.05   0.02    -0.00   0.01   0.00     0.00  -0.00   0.00
     8   1    -0.01   0.17   0.08    -0.01  -0.05   0.02     0.00   0.01  -0.00
     9   1    -0.01   0.14   0.02     0.00   0.07   0.06     0.00  -0.01  -0.01
    10   1    -0.28  -0.36  -0.08    -0.04  -0.06   0.01     0.00   0.00  -0.00
    11   1     0.31   0.02  -0.09     0.08   0.03   0.01    -0.01  -0.01  -0.00
    12   1     0.33   0.03  -0.05     0.00  -0.04   0.01     0.00   0.01  -0.00
    13   6     0.00  -0.00  -0.00     0.06   0.04  -0.00    -0.01  -0.00   0.00
    14   8    -0.00   0.00  -0.01    -0.02  -0.01   0.00     0.00   0.00  -0.00
    15  15     0.06  -0.08  -0.01    -0.01  -0.00  -0.00    -0.15  -0.09  -0.05
    16   6    -0.16  -0.04  -0.03     0.01  -0.00   0.00     0.29   0.01   0.03
    17   6     0.05   0.09  -0.10    -0.00   0.00  -0.00     0.00   0.09  -0.12
    18   6     0.02   0.05   0.14    -0.00   0.00   0.01    -0.03   0.06   0.17
    19   1    -0.01   0.11   0.18     0.00   0.01   0.01     0.08   0.18   0.34
    20   1    -0.02   0.04   0.05     0.01   0.01   0.02     0.09   0.13   0.21
    21   1    -0.00   0.12   0.18     0.00  -0.00  -0.00     0.04  -0.00  -0.06
    22   1    -0.23   0.01  -0.02     0.01   0.01   0.00     0.26   0.07   0.07
    23   1    -0.23   0.00  -0.03     0.01   0.01   0.00     0.22   0.06   0.03
    24   1    -0.06   0.01  -0.00     0.04   0.01   0.01     0.46   0.09   0.08
    25   1     0.02   0.16  -0.12     0.01   0.01  -0.01     0.14   0.26  -0.20
    26   1     0.03   0.16  -0.11     0.00  -0.01   0.01     0.01  -0.05   0.08
    27   1    -0.01   0.04  -0.02     0.01   0.01  -0.01     0.12   0.17  -0.09
    28   6     0.01   0.01  -0.01     0.00  -0.03   0.05    -0.01   0.02  -0.00
    29   8     0.01   0.00   0.01     0.00   0.01  -0.01     0.00  -0.00   0.00
                     34                     35                     36
                      A                      A                      A
 Frequencies --    764.3868               779.1260               785.4322
 Red. masses --      3.4785                 1.0541                 1.4403
 Frc consts  --      1.1975                 0.3770                 0.5235
 IR Inten    --     11.8904                81.6112                18.4383
  Atom  AN      X      Y      Z        X      Y      Z        X      Y      Z
     1   1     0.13  -0.12  -0.01    -0.46   0.61   0.05    -0.12  -0.08  -0.04
     2   1     0.01   0.04  -0.04     0.07  -0.21   0.60     0.09   0.05   0.06
     3  45    -0.00   0.00  -0.00     0.01  -0.01  -0.01    -0.00   0.00  -0.01
     4   6    -0.00   0.00  -0.01     0.01   0.00  -0.00     0.03  -0.06   0.14
     5   8     0.00  -0.00  -0.00     0.00   0.00   0.00    -0.01   0.01  -0.03
     6   6     0.00  -0.00   0.01    -0.00   0.01   0.01    -0.02   0.04  -0.10
     7   6     0.00  -0.00   0.00    -0.00  -0.00   0.00    -0.01   0.01  -0.03
     8   1     0.01   0.04  -0.01    -0.02   0.03   0.00    -0.15  -0.45   0.09
     9   1    -0.01  -0.03  -0.03    -0.02  -0.01  -0.02     0.24   0.31   0.30
    10   1    -0.00   0.00  -0.02    -0.01  -0.01  -0.01     0.04  -0.07   0.18
    11   1    -0.03  -0.02  -0.02    -0.01  -0.01  -0.01     0.35   0.20   0.19
    12   1     0.03   0.03  -0.01     0.01   0.01  -0.00    -0.29  -0.33   0.13
    13   6     0.01  -0.00  -0.00    -0.01   0.02   0.01     0.01  -0.00   0.00
    14   8    -0.00   0.00  -0.00     0.01  -0.01   0.00    -0.00   0.00   0.00
    15  15    -0.03  -0.04   0.17    -0.00   0.00   0.01    -0.00  -0.00   0.01
    16   6     0.01  -0.01   0.06    -0.00  -0.00   0.00     0.00   0.00   0.00
    17   6     0.07   0.21  -0.15     0.00   0.01  -0.01     0.00   0.01  -0.00
    18   6    -0.03  -0.13  -0.20     0.00  -0.01  -0.01    -0.00  -0.01  -0.00
    19   1    -0.01   0.01  -0.07    -0.01   0.01   0.00    -0.00   0.01   0.01
    20   1    -0.00  -0.12  -0.40    -0.01  -0.01  -0.04    -0.00  -0.01  -0.03
    21   1    -0.01  -0.10  -0.33    -0.00   0.01  -0.01    -0.00   0.00  -0.01
    22   1    -0.23  -0.03  -0.10    -0.03   0.00  -0.01    -0.01  -0.00  -0.01
    23   1     0.28   0.05  -0.02     0.01   0.01  -0.00     0.02   0.00  -0.00
    24   1     0.03   0.02  -0.09     0.01   0.01  -0.01    -0.00  -0.00  -0.01
    25   1     0.04   0.06  -0.10     0.01   0.01  -0.01     0.00  -0.01   0.00
    26   1     0.09   0.22  -0.27     0.00   0.01  -0.01     0.00   0.00  -0.01
    27   1     0.10   0.28  -0.32     0.00   0.01  -0.01     0.00   0.01  -0.02
    28   6     0.00  -0.00   0.00    -0.02   0.01   0.01    -0.00  -0.00   0.01
    29   8     0.00   0.00  -0.00     0.00  -0.00  -0.00     0.00   0.00  -0.00
                     37                     38                     39
                      A                      A                      A
 Frequencies --    805.1718               821.2070               877.6068
 Red. masses --      1.1657                 1.0947                 1.2629
 Frc consts  --      0.4453                 0.4350                 0.5731
 IR Inten    --      0.0629                69.1821                26.7372
  Atom  AN      X      Y      Z        X      Y      Z        X      Y      Z
     1   1     0.02  -0.00   0.00     0.25   0.16   0.06     0.07  -0.00   0.01
     2   1     0.03   0.03  -0.01     0.69   0.54   0.11     0.19   0.13   0.08
     3  45    -0.00  -0.00   0.00    -0.01  -0.01  -0.00    -0.00  -0.00  -0.00
     4   6    -0.00   0.00  -0.00    -0.00   0.00  -0.00     0.00  -0.00   0.00
     5   8    -0.00  -0.00   0.00     0.00  -0.01  -0.00    -0.00  -0.00  -0.00
     6   6     0.00   0.00  -0.00     0.00  -0.00   0.00     0.00  -0.00  -0.00
     7   6    -0.00  -0.00  -0.00    -0.01  -0.00   0.00    -0.00  -0.00  -0.00
     8   1     0.00  -0.00  -0.00     0.02   0.02  -0.01     0.00   0.00  -0.00
     9   1     0.00   0.00   0.00     0.01  -0.01  -0.02     0.01  -0.00  -0.00
    10   1    -0.00  -0.00   0.00    -0.02  -0.02  -0.01    -0.00  -0.00   0.00
    11   1     0.00   0.00   0.00    -0.01  -0.01  -0.01    -0.00  -0.00   0.00
    12   1    -0.00  -0.00   0.00     0.01   0.00  -0.01    -0.00  -0.00   0.00
    13   6     0.00   0.00  -0.00     0.03   0.02  -0.00     0.01   0.00  -0.00
    14   8    -0.00  -0.00  -0.00    -0.01  -0.01  -0.00    -0.00  -0.00  -0.00
    15  15    -0.00  -0.00  -0.00     0.00  -0.00  -0.00     0.02   0.01   0.04
    16   6    -0.01  -0.01   0.07    -0.01   0.03  -0.00    -0.00  -0.07  -0.03
    17   6    -0.04  -0.02  -0.04     0.02  -0.01   0.01     0.00  -0.02  -0.03
    18   6     0.06   0.03  -0.02     0.01  -0.00   0.00    -0.06   0.06  -0.05
    19   1    -0.13  -0.19  -0.30    -0.03   0.01  -0.01     0.12  -0.24  -0.21
    20   1    -0.15  -0.09   0.04    -0.03  -0.03  -0.06     0.11   0.15   0.50
    21   1    -0.05   0.10   0.38    -0.01   0.05   0.07     0.05  -0.29  -0.22
    22   1    -0.33  -0.05  -0.16     0.13  -0.05  -0.00    -0.17   0.11   0.05
    23   1     0.40   0.08  -0.04     0.07  -0.06   0.02    -0.30   0.09  -0.03
    24   1    -0.00   0.02  -0.18    -0.19  -0.07  -0.02     0.35   0.11   0.11
    25   1     0.18   0.28  -0.18    -0.05  -0.01   0.02     0.04   0.19  -0.11
    26   1    -0.04  -0.21   0.31     0.00   0.11  -0.08    -0.02   0.02   0.09
    27   1     0.12   0.06   0.11    -0.07  -0.08   0.05    -0.01  -0.06   0.16
    28   6    -0.00   0.00   0.00    -0.03   0.03   0.02    -0.00   0.00   0.01
    29   8     0.00  -0.00  -0.00     0.01  -0.01  -0.01     0.00  -0.00  -0.00
                     40                     41                     42
                      A                      A                      A
 Frequencies --    878.9436               927.7641               972.3413
 Red. masses --      1.2614                 4.3211                 1.4208
 Frc consts  --      0.5741                 2.1914                 0.7914
 IR Inten    --     37.6401               209.7102                44.7284
  Atom  AN      X      Y      Z        X      Y      Z        X      Y      Z
     1   1    -0.04  -0.05  -0.02    -0.08  -0.14  -0.03     0.01   0.01   0.00
     2   1    -0.21  -0.18   0.01    -0.02   0.03  -0.03     0.01   0.02  -0.01
     3  45     0.00   0.00  -0.00    -0.01   0.00   0.00    -0.00  -0.00   0.00
     4   6    -0.00  -0.00   0.01     0.42  -0.00  -0.08    -0.00  -0.00  -0.00
     5   8     0.00   0.00  -0.00    -0.07  -0.04  -0.01     0.00   0.00   0.00
     6   6    -0.00  -0.00  -0.00     0.06   0.18   0.06    -0.00  -0.00  -0.00
     7   6     0.01   0.00  -0.00    -0.24  -0.08   0.02     0.00  -0.00   0.00
     8   1    -0.01  -0.01   0.00     0.02   0.17   0.07     0.00  -0.00  -0.00
     9   1     0.01   0.00   0.00     0.00   0.18   0.06    -0.01  -0.00   0.00
    10   1     0.01   0.01   0.01    -0.53  -0.46  -0.06     0.00   0.01  -0.00
    11   1     0.01   0.01   0.01    -0.03  -0.13  -0.09    -0.00  -0.00  -0.00
    12   1    -0.00  -0.00   0.00    -0.01  -0.15  -0.01     0.00   0.00  -0.00
    13   6    -0.01  -0.00   0.00    -0.02  -0.02  -0.00     0.00   0.00  -0.00
    14   8     0.00   0.00  -0.00     0.00   0.00   0.01    -0.00   0.00  -0.00
    15  15    -0.03  -0.02   0.02     0.00  -0.02  -0.00     0.04   0.02  -0.04
    16   6     0.01   0.07  -0.00    -0.00   0.02   0.00    -0.03   0.01   0.11
    17   6     0.08  -0.04  -0.05    -0.01   0.01   0.01     0.01  -0.03  -0.00
    18   6    -0.00   0.03  -0.02    -0.01   0.02  -0.01    -0.11  -0.03   0.03
    19   1     0.00  -0.14  -0.16     0.03  -0.05  -0.04     0.17   0.17   0.34
    20   1    -0.02   0.01   0.18     0.02   0.03   0.11     0.19   0.15   0.09
    21   1     0.00  -0.06   0.04     0.01  -0.05  -0.02     0.04  -0.16  -0.46
    22   1     0.30  -0.09   0.02     0.07  -0.03  -0.01    -0.33  -0.10  -0.18
    23   1     0.14  -0.12   0.05     0.06  -0.03   0.01     0.48   0.07  -0.02
    24   1    -0.35  -0.13  -0.02    -0.11  -0.04  -0.02    -0.14  -0.01  -0.21
    25   1    -0.09   0.29  -0.14     0.01  -0.04   0.02    -0.02   0.04  -0.02
    26   1    -0.01   0.36  -0.12     0.00  -0.04  -0.00    -0.00   0.04   0.00
    27   1    -0.22  -0.32   0.37     0.03   0.05  -0.06    -0.06  -0.11   0.12
    28   6     0.01  -0.01  -0.00     0.01  -0.02  -0.01    -0.00   0.00  -0.00
    29   8    -0.00   0.00   0.00    -0.01  -0.00  -0.00     0.00   0.00   0.00
                     43                     44                     45
                      A                      A                      A
 Frequencies --    975.1686               982.7021              1030.2701
 Red. masses --      1.4112                 1.4849                 1.5911
 Frc consts  --      0.7907                 0.8449                 0.9951
 IR Inten    --     38.5463               169.6926                31.2043
  Atom  AN      X      Y      Z        X      Y      Z        X      Y      Z
     1   1     0.02   0.00   0.00    -0.03   0.04   0.01    -0.01   0.03   0.00
     2   1     0.02   0.01   0.01    -0.01  -0.01   0.02    -0.04  -0.05   0.00
     3  45    -0.00  -0.00  -0.00     0.00  -0.00  -0.00     0.00  -0.00  -0.00
     4   6     0.00  -0.00  -0.00    -0.02   0.00   0.00    -0.12   0.02   0.02
     5   8    -0.00   0.00   0.00     0.00  -0.00  -0.00     0.01   0.06   0.02
     6   6     0.00   0.00  -0.00    -0.02  -0.01  -0.00     0.12  -0.05  -0.04
     7   6    -0.00  -0.00  -0.00     0.03   0.01  -0.00    -0.11   0.01   0.02
     8   1    -0.00  -0.00   0.00    -0.04  -0.02   0.00     0.50   0.00  -0.13
     9   1     0.00  -0.00  -0.00    -0.05  -0.01   0.01     0.55  -0.03  -0.10
    10   1     0.00   0.00   0.00     0.06   0.05   0.01    -0.37  -0.36  -0.05
    11   1    -0.00   0.00   0.00    -0.00   0.01   0.01     0.19  -0.04  -0.10
    12   1    -0.01  -0.00   0.00     0.00   0.02   0.00     0.18  -0.10  -0.01
    13   6     0.00   0.00  -0.00    -0.00   0.00   0.00     0.00   0.00   0.00
    14   8    -0.00  -0.00  -0.00    -0.00   0.00  -0.00    -0.00  -0.00  -0.00
    15  15     0.04   0.02   0.04     0.03  -0.07  -0.00     0.00  -0.01  -0.00
    16   6    -0.01   0.05  -0.06    -0.02   0.09   0.00    -0.00   0.01   0.00
    17   6    -0.09  -0.04  -0.08    -0.06   0.07   0.04    -0.00   0.01   0.00
    18   6    -0.03  -0.06   0.02    -0.04   0.08  -0.03    -0.00   0.01  -0.00
    19   1     0.04   0.15   0.23     0.09  -0.19  -0.19     0.01  -0.01  -0.01
    20   1     0.06  -0.01  -0.22     0.06   0.12   0.42     0.01   0.01   0.03
    21   1     0.01   0.01  -0.20     0.02  -0.20  -0.06     0.00  -0.02  -0.01
    22   1     0.31   0.00   0.09     0.25  -0.10  -0.02     0.02  -0.01  -0.00
    23   1    -0.19  -0.11   0.04     0.14  -0.13   0.05     0.01  -0.01   0.00
    24   1    -0.22  -0.08   0.08    -0.39  -0.12  -0.05    -0.03  -0.01  -0.00
    25   1     0.24   0.36  -0.26     0.08  -0.22   0.11     0.01  -0.02   0.01
    26   1    -0.08  -0.29   0.42     0.02  -0.24   0.02     0.00  -0.02   0.00
    27   1     0.16   0.09   0.15     0.17   0.29  -0.34     0.01   0.02  -0.03
    28   6    -0.00  -0.00   0.00    -0.00   0.00  -0.00    -0.00   0.00   0.00
    29   8     0.00   0.00  -0.00     0.00   0.00   0.00     0.00   0.00   0.00
                     46                     47                     48
                      A                      A                      A
 Frequencies --   1071.4598              1110.3684              1281.5534
 Red. masses --      1.5326                 2.4033                 1.1745
 Frc consts  --      1.0366                 1.7458                 1.1365
 IR Inten    --      0.8439                57.0781                 0.5765
  Atom  AN      X      Y      Z        X      Y      Z        X      Y      Z
     1   1     0.02   0.01   0.01     0.02   0.03   0.02     0.01   0.00   0.00
     2   1    -0.01  -0.00  -0.01    -0.03  -0.02   0.00    -0.01  -0.00  -0.01
     3  45     0.00  -0.00   0.00     0.00   0.00   0.00     0.00  -0.00   0.00
     4   6    -0.01   0.04  -0.11    -0.13  -0.02   0.01    -0.01   0.02  -0.04
     5   8     0.00  -0.01   0.02     0.03  -0.02  -0.01     0.00  -0.00   0.00
     6   6     0.02  -0.05   0.14     0.15   0.20   0.05    -0.01   0.02  -0.05
     7   6    -0.01   0.04  -0.10    -0.04  -0.20  -0.07     0.02  -0.04   0.09
     8   1    -0.44   0.24   0.13     0.16   0.20   0.05    -0.59  -0.14   0.12
     9   1     0.37  -0.21  -0.21     0.18   0.19   0.02     0.63   0.12  -0.03
    10   1     0.05  -0.07   0.22     0.30   0.28   0.05    -0.03   0.06  -0.16
    11   1     0.35   0.25   0.16    -0.49  -0.12   0.14    -0.20  -0.18  -0.09
    12   1    -0.29  -0.32   0.08    -0.54  -0.09   0.01     0.17   0.23  -0.02
    13   6    -0.00  -0.00  -0.00     0.01   0.00   0.00    -0.00  -0.00   0.00
    14   8     0.00   0.00  -0.00    -0.00  -0.00  -0.00     0.00   0.00  -0.00
    15  15     0.00   0.00  -0.00     0.00  -0.00  -0.00     0.00   0.00  -0.00
    16   6    -0.00  -0.00   0.00    -0.00   0.00   0.00    -0.00  -0.00   0.00
    17   6    -0.00   0.00   0.00    -0.00   0.00   0.00    -0.00   0.00  -0.00
    18   6    -0.00  -0.00   0.00    -0.00   0.00   0.00    -0.00  -0.00  -0.00
    19   1     0.00   0.00   0.00    -0.00  -0.01  -0.01     0.00   0.00   0.00
    20   1     0.00   0.00   0.00    -0.00   0.00   0.01     0.00   0.00   0.00
    21   1    -0.00  -0.00  -0.00     0.00  -0.01  -0.00    -0.00   0.00   0.00
    22   1    -0.00  -0.00  -0.00     0.01  -0.00  -0.00    -0.00  -0.00  -0.00
    23   1     0.00   0.00  -0.00     0.01  -0.00   0.00    -0.00   0.00   0.00
    24   1     0.00   0.00  -0.00    -0.01  -0.00  -0.00     0.00   0.00  -0.00
    25   1    -0.00  -0.00   0.00    -0.00  -0.01   0.01    -0.00  -0.00   0.00
    26   1     0.00  -0.00  -0.00     0.00  -0.01  -0.00    -0.00  -0.00   0.00
    27   1     0.00   0.00  -0.00     0.00   0.01  -0.01     0.00   0.00  -0.00
    28   6     0.00   0.00  -0.01    -0.00   0.00   0.00     0.00   0.00  -0.00
    29   8     0.00  -0.00   0.00     0.00   0.00  -0.00     0.00  -0.00   0.00
                     49                     50                     51
                      A                      A                      A
 Frequencies --   1330.3180              1332.8241              1349.8594
 Red. masses --      1.2347                 1.2344                 1.2502
 Frc consts  --      1.2875                 1.2919                 1.3422
 IR Inten    --     27.0400                26.6453                 1.3929
  Atom  AN      X      Y      Z        X      Y      Z        X      Y      Z
     1   1    -0.00  -0.00  -0.00    -0.00  -0.00   0.00     0.00  -0.00  -0.00
     2   1    -0.00   0.00   0.00     0.00   0.00  -0.00     0.01  -0.01  -0.00
     3  45     0.00  -0.00  -0.00     0.00  -0.00  -0.00     0.00   0.00   0.00
     4   6     0.00   0.00   0.00     0.00   0.00   0.00    -0.02  -0.00   0.00
     5   8    -0.00  -0.00   0.00     0.00  -0.00  -0.00     0.00  -0.00  -0.00
     6   6    -0.00   0.00   0.00    -0.00   0.00   0.00     0.06  -0.00  -0.01
     7   6     0.00  -0.00  -0.00     0.00  -0.00  -0.00    -0.01   0.01   0.01
     8   1     0.01   0.00  -0.00     0.01   0.00  -0.00    -0.19   0.02   0.03
     9   1     0.01   0.00  -0.00     0.02   0.00  -0.00    -0.17   0.01   0.06
    10   1     0.00   0.00   0.00     0.01   0.00   0.00    -0.06  -0.05  -0.01
    11   1    -0.00   0.00   0.00     0.00   0.00   0.00     0.00  -0.02  -0.05
    12   1    -0.00   0.00  -0.00    -0.00   0.00  -0.00     0.02  -0.04   0.02
    13   6    -0.00   0.00   0.00    -0.00  -0.00  -0.00     0.00   0.00  -0.00
    14   8     0.00  -0.00  -0.00     0.00  -0.00   0.00    -0.00  -0.00   0.00
    15  15     0.00   0.00   0.01     0.00   0.00  -0.00     0.00  -0.00   0.00
    16   6    -0.04  -0.00  -0.01    -0.10  -0.01  -0.01    -0.09  -0.01  -0.01
    17   6     0.01   0.04  -0.04    -0.03  -0.07   0.06     0.02   0.05  -0.05
    18   6    -0.01  -0.05  -0.11    -0.01  -0.01  -0.02     0.00   0.03   0.05
    19   1     0.14   0.34   0.33     0.03   0.05   0.06    -0.07  -0.18  -0.18
    20   1     0.15   0.05   0.45     0.04   0.02   0.06    -0.08  -0.02  -0.23
    21   1    -0.17   0.18   0.45    -0.03   0.04   0.07     0.09  -0.10  -0.23
    22   1     0.13  -0.01   0.07     0.35  -0.05   0.18     0.33  -0.05   0.17
    23   1     0.14  -0.01  -0.04     0.39   0.00  -0.10     0.37  -0.01  -0.09
    24   1     0.12   0.07   0.05     0.33   0.19   0.08     0.30   0.18   0.08
    25   1    -0.08  -0.22   0.07     0.16   0.36  -0.13    -0.11  -0.28   0.10
    26   1     0.03  -0.15   0.19    -0.06   0.27  -0.31     0.04  -0.21   0.23
    27   1    -0.11  -0.09   0.19     0.21   0.17  -0.28    -0.15  -0.12   0.22
    28   6     0.00   0.00  -0.00     0.00   0.00   0.00    -0.00   0.00   0.00
    29   8    -0.00   0.00   0.00    -0.00   0.00   0.00    -0.00  -0.00  -0.00
                     52                     53                     54
                      A                      A                      A
 Frequencies --   1351.8030              1414.4447              1441.5964
 Red. masses --      1.5618                 1.2359                 1.1144
 Frc consts  --      1.6816                 1.4568                 1.3646
 IR Inten    --     31.9088                11.9820                16.6311
  Atom  AN      X      Y      Z        X      Y      Z        X      Y      Z
     1   1     0.00   0.00   0.00    -0.00   0.00  -0.00    -0.00   0.00  -0.01
     2   1    -0.00  -0.01  -0.00    -0.00  -0.00   0.00    -0.01   0.00   0.00
     3  45     0.00   0.00  -0.00    -0.00   0.00  -0.00     0.00  -0.00  -0.00
     4   6    -0.07   0.00   0.02    -0.00   0.01   0.00     0.01   0.01   0.00
     5   8     0.01  -0.01  -0.01     0.00  -0.01  -0.00    -0.00  -0.01  -0.01
     6   6     0.19  -0.01  -0.05     0.02  -0.01  -0.01    -0.04  -0.07  -0.02
     7   6    -0.04   0.04   0.03    -0.12  -0.07  -0.00     0.04   0.01  -0.00
     8   1    -0.60   0.10   0.08    -0.05   0.18  -0.04     0.03   0.65  -0.25
     9   1    -0.53   0.05   0.22    -0.01   0.10   0.16     0.18   0.34   0.56
    10   1    -0.17  -0.15  -0.02     0.30   0.48   0.12    -0.02  -0.07  -0.02
    11   1     0.01  -0.08  -0.15     0.52   0.09   0.10    -0.12  -0.03  -0.04
    12   1     0.06  -0.14   0.05     0.46   0.20  -0.19    -0.10  -0.07   0.05
    13   6     0.00   0.00   0.00     0.00   0.00   0.00    -0.00   0.00  -0.00
    14   8    -0.00   0.00  -0.00    -0.00   0.00   0.00     0.00  -0.00   0.00
    15  15    -0.00   0.00   0.00     0.00  -0.00   0.00    -0.00   0.00  -0.00
    16   6     0.03   0.00   0.00    -0.00   0.00  -0.00    -0.00   0.00   0.00
    17   6    -0.01  -0.02   0.02    -0.00   0.00  -0.00    -0.00  -0.00  -0.00
    18   6    -0.00  -0.01  -0.02    -0.00   0.00   0.00    -0.00  -0.00   0.00
    19   1     0.03   0.08   0.07     0.00  -0.00  -0.00     0.01  -0.01  -0.01
    20   1     0.03   0.01   0.10     0.00   0.00  -0.00     0.01   0.01  -0.01
    21   1    -0.04   0.04   0.10     0.00   0.00  -0.00    -0.00   0.01  -0.00
    22   1    -0.12   0.02  -0.06     0.00  -0.00   0.00     0.00  -0.00  -0.00
    23   1    -0.13   0.00   0.03     0.00  -0.00   0.00    -0.00  -0.00   0.00
    24   1    -0.11  -0.06  -0.03     0.00   0.00   0.00     0.00   0.00  -0.00
    25   1     0.04   0.12  -0.04     0.00  -0.01   0.00    -0.01  -0.02   0.00
    26   1    -0.02   0.08  -0.09     0.00  -0.00   0.00    -0.01   0.02   0.01
    27   1     0.06   0.05  -0.09     0.00  -0.00   0.01     0.02   0.01   0.01
    28   6    -0.00   0.00   0.00    -0.00  -0.00   0.00     0.00   0.00   0.00
    29   8     0.00   0.00   0.00     0.00  -0.00  -0.00     0.00   0.00   0.00
                     55                     56                     57
                      A                      A                      A
 Frequencies --   1453.4402              1463.1380              1465.0350
 Red. masses --      1.0500                 1.0494                 1.0487
 Frc consts  --      1.3069                 1.3236                 1.3261
 IR Inten    --      0.8033                 2.2100                 0.7564
  Atom  AN      X      Y      Z        X      Y      Z        X      Y      Z
     1   1     0.00   0.00  -0.00     0.00   0.00  -0.00     0.00   0.00  -0.00
     2   1    -0.00  -0.00  -0.00    -0.00  -0.00  -0.00     0.00   0.00  -0.00
     3  45     0.00   0.00   0.00     0.00   0.00   0.00    -0.00  -0.00   0.00
     4   6     0.00   0.00   0.00     0.00   0.00  -0.00     0.00   0.00  -0.00
     5   8     0.00  -0.00  -0.00    -0.00  -0.00  -0.00     0.00  -0.00   0.00
     6   6     0.00   0.00   0.00    -0.00  -0.00  -0.00    -0.00  -0.00   0.00
     7   6     0.00   0.00   0.00     0.00   0.00   0.00     0.00  -0.00   0.00
     8   1    -0.00  -0.00   0.00    -0.00   0.01  -0.00    -0.00   0.00  -0.00
     9   1    -0.00  -0.00  -0.00     0.00   0.00   0.01     0.00   0.00   0.00
    10   1    -0.00  -0.00  -0.00    -0.00  -0.00  -0.00    -0.00   0.00  -0.00
    11   1    -0.00   0.00   0.00    -0.00   0.00   0.00     0.00  -0.00  -0.00
    12   1    -0.00   0.00   0.00    -0.01   0.00   0.00    -0.00   0.00   0.00
    13   6    -0.00  -0.00   0.00    -0.00   0.00  -0.00     0.00  -0.00   0.00
    14   8     0.00  -0.00  -0.00     0.00  -0.00   0.00    -0.00   0.00  -0.00
    15  15    -0.00  -0.00  -0.00    -0.00  -0.00  -0.00     0.00   0.00  -0.00
    16   6    -0.00  -0.01   0.02     0.01  -0.04  -0.02     0.00   0.03  -0.03
    17   6    -0.04  -0.00  -0.02    -0.02   0.02   0.01    -0.01   0.01   0.01
    18   6     0.03   0.00  -0.01    -0.01   0.01   0.00     0.02  -0.03   0.01
    19   1    -0.26   0.22   0.03     0.13  -0.08   0.01    -0.36   0.05  -0.13
    20   1    -0.25  -0.17   0.19     0.05   0.04  -0.10     0.13   0.04   0.21
    21   1     0.07  -0.09  -0.14    -0.02  -0.04   0.08    -0.01   0.37  -0.25
    22   1     0.11  -0.10  -0.01    -0.07   0.41   0.38    -0.21   0.03  -0.13
    23   1    -0.10   0.14  -0.02     0.18   0.33  -0.18     0.14  -0.42   0.12
    24   1     0.02   0.04  -0.24    -0.25  -0.19   0.14     0.06  -0.01   0.43
    25   1     0.39  -0.31   0.03     0.36  -0.02  -0.03     0.22  -0.00  -0.02
    26   1    -0.06   0.21  -0.18     0.08  -0.22  -0.32     0.05  -0.13  -0.20
    27   1     0.27   0.13   0.43    -0.14  -0.09   0.15    -0.09  -0.06   0.08
    28   6    -0.00  -0.00  -0.00    -0.00  -0.00  -0.00     0.00   0.00  -0.00
    29   8     0.00   0.00   0.00     0.00   0.00   0.00    -0.00  -0.00  -0.00
                     58                     59                     60
                      A                      A                      A
 Frequencies --   1468.5186              1474.7394              1483.9163
 Red. masses --      1.0459                 1.0476                 1.0436
 Frc consts  --      1.3289                 1.3423                 1.3539
 IR Inten    --     17.3007                13.7408                 9.7022
  Atom  AN      X      Y      Z        X      Y      Z        X      Y      Z
     1   1    -0.00   0.00  -0.00    -0.00   0.00   0.00    -0.00   0.00   0.00
     2   1    -0.00  -0.01  -0.00     0.00   0.00  -0.00    -0.00   0.00   0.00
     3  45     0.00   0.00  -0.00    -0.00  -0.00   0.00     0.00  -0.00   0.00
     4   6    -0.00   0.01   0.00    -0.00  -0.00   0.00     0.00   0.00   0.00
     5   8     0.00  -0.00  -0.00     0.00   0.00  -0.00     0.00  -0.00  -0.00
     6   6     0.00   0.00   0.00     0.00   0.00   0.00    -0.00   0.00   0.00
     7   6    -0.00   0.00   0.00    -0.00   0.00  -0.00    -0.00   0.00  -0.00
     8   1     0.00  -0.02   0.01    -0.00  -0.00   0.00     0.00  -0.01   0.00
     9   1    -0.01  -0.01  -0.02    -0.00  -0.00  -0.00    -0.00  -0.00  -0.01
    10   1    -0.00  -0.00   0.00     0.00   0.00   0.01     0.01   0.00   0.01
    11   1    -0.00  -0.00  -0.00    -0.00  -0.00  -0.00    -0.00  -0.00  -0.01
    12   1     0.00  -0.00   0.00     0.01  -0.00  -0.00     0.01  -0.01   0.00
    13   6    -0.00   0.00  -0.00     0.00  -0.00  -0.00    -0.00  -0.00   0.00
    14   8     0.00  -0.00   0.00     0.00  -0.00   0.00    -0.00   0.00  -0.00
    15  15    -0.01  -0.00  -0.00     0.00   0.00  -0.01     0.00  -0.01  -0.00
    16   6     0.00   0.01  -0.00     0.01   0.00  -0.04     0.01  -0.03  -0.00
    17   6    -0.02  -0.01  -0.02     0.00  -0.02  -0.02     0.01  -0.02  -0.02
    18   6    -0.04  -0.01   0.01     0.01   0.03  -0.01     0.01  -0.03   0.01
    19   1     0.34  -0.32  -0.07     0.07   0.13   0.12    -0.30  -0.02  -0.15
    20   1     0.38   0.25  -0.27    -0.29  -0.16  -0.01     0.20   0.09   0.16
    21   1    -0.11   0.18   0.18     0.06  -0.35   0.07    -0.03   0.40  -0.22
    22   1    -0.05  -0.06  -0.10    -0.24   0.25   0.08     0.03   0.23   0.26
    23   1    -0.01  -0.15   0.06     0.24  -0.21   0.01     0.07   0.31  -0.14
    24   1     0.05   0.02   0.07    -0.08  -0.11   0.48    -0.17  -0.11  -0.05
    25   1     0.15  -0.27   0.05    -0.17  -0.10   0.04    -0.30  -0.06   0.05
    26   1    -0.09   0.28  -0.01    -0.09   0.28   0.20    -0.09   0.26   0.29
    27   1     0.29   0.14   0.30     0.23   0.13   0.03     0.20   0.12  -0.07
    28   6     0.00   0.00   0.00     0.00   0.00  -0.00    -0.00  -0.00  -0.00
    29   8    -0.00  -0.00   0.00    -0.00   0.00   0.00     0.00   0.00   0.00
                     61                     62                     63
                      A                      A                      A
 Frequencies --   1491.3624              1497.1610              1745.8498
 Red. masses --      1.0380                 1.0491                10.6945
 Frc consts  --      1.3602                 1.3855                19.2055
 IR Inten    --     10.7106                11.5893               444.8023
  Atom  AN      X      Y      Z        X      Y      Z        X      Y      Z
     1   1    -0.00   0.00  -0.00     0.00   0.00   0.00    -0.05   0.01  -0.18
     2   1    -0.00   0.00   0.00     0.00  -0.00  -0.00     0.02  -0.12  -0.03
     3  45     0.00  -0.00   0.00     0.00  -0.00  -0.00     0.00  -0.00  -0.00
     4   6     0.00   0.00  -0.00    -0.01  -0.00   0.00    -0.01   0.67   0.28
     5   8     0.00  -0.00   0.00    -0.00   0.00   0.00    -0.02  -0.47  -0.19
     6   6    -0.01   0.01  -0.02     0.03  -0.02  -0.01     0.01  -0.02  -0.01
     7   6    -0.01   0.02  -0.04     0.02  -0.04  -0.02     0.00   0.00   0.00
     8   1    -0.04  -0.03  -0.00    -0.07   0.03  -0.01     0.18  -0.19   0.03
     9   1     0.04   0.02  -0.01    -0.06   0.01   0.05     0.11  -0.10  -0.19
    10   1     0.15  -0.23   0.65    -0.19  -0.32  -0.04    -0.06  -0.08  -0.02
    11   1    -0.46   0.06   0.14    -0.02   0.35   0.56    -0.04   0.02   0.02
    12   1     0.48  -0.15  -0.08    -0.12   0.60  -0.17    -0.05   0.03   0.02
    13   6    -0.00  -0.00   0.00     0.00   0.00   0.00    -0.02   0.00  -0.03
    14   8     0.00   0.00  -0.00    -0.00   0.00  -0.00     0.01  -0.01   0.03
    15  15    -0.00   0.00   0.00     0.00  -0.00  -0.00     0.00   0.00   0.00
    16   6    -0.00   0.00   0.00     0.00  -0.00  -0.00    -0.00  -0.00  -0.00
    17   6    -0.00   0.00   0.00     0.00  -0.00  -0.00     0.00   0.00  -0.00
    18   6    -0.00   0.00  -0.00     0.00  -0.00   0.00     0.00   0.00   0.00
    19   1     0.00  -0.00   0.00    -0.00  -0.00  -0.00    -0.03   0.02  -0.00
    20   1    -0.00  -0.00  -0.00     0.00   0.00   0.00    -0.04  -0.02  -0.01
    21   1    -0.00  -0.00   0.00    -0.00   0.01  -0.00     0.02  -0.03  -0.05
    22   1     0.00  -0.00  -0.00    -0.00   0.00   0.00    -0.01   0.00  -0.00
    23   1    -0.00  -0.00   0.00     0.00   0.00  -0.00    -0.01   0.00  -0.00
    24   1     0.00   0.00  -0.00    -0.00  -0.00   0.00    -0.00  -0.00  -0.00
    25   1     0.01   0.00  -0.00    -0.01  -0.00   0.00    -0.03   0.02  -0.00
    26   1     0.00  -0.01  -0.01    -0.00   0.01   0.01     0.01  -0.06   0.04
    27   1    -0.01  -0.00   0.00     0.01   0.00  -0.00    -0.04  -0.03  -0.01
    28   6     0.00   0.00  -0.00    -0.00   0.00   0.00     0.00   0.01   0.00
    29   8    -0.00  -0.00   0.00     0.00   0.00   0.00     0.00  -0.00  -0.00
                     64                     65                     66
                      A                      A                      A
 Frequencies --   1995.7317              2034.7248              2147.5216
 Red. masses --      1.0407                 1.0853                 7.3562
 Frc consts  --      2.4421                 2.6474                19.9884
 IR Inten    --    316.6329               137.8890              1090.4244
  Atom  AN      X      Y      Z        X      Y      Z        X      Y      Z
     1   1     0.05   0.13  -0.58    -0.10  -0.14   0.76     0.08   0.13  -0.68
     2   1    -0.49   0.60   0.22    -0.39   0.45   0.19     0.04  -0.06  -0.05
     3  45     0.00  -0.01   0.00     0.00  -0.00  -0.01    -0.00  -0.00   0.01
     4   6    -0.00  -0.00  -0.00    -0.00   0.01   0.01    -0.00   0.01   0.00
     5   8     0.00   0.00   0.00    -0.00  -0.01  -0.00    -0.00  -0.00  -0.00
     6   6     0.00   0.00  -0.00     0.00  -0.00  -0.00    -0.00  -0.00  -0.00
     7   6    -0.00   0.00  -0.00    -0.00   0.00   0.00    -0.00   0.00  -0.00
     8   1    -0.00  -0.00   0.00     0.00  -0.00  -0.00     0.00   0.00   0.00
     9   1    -0.00  -0.01  -0.00     0.00  -0.00   0.00    -0.00  -0.00   0.00
    10   1    -0.00   0.00   0.00    -0.00  -0.00  -0.00    -0.00  -0.00  -0.00
    11   1     0.00   0.00   0.00     0.00   0.00  -0.00     0.00   0.00  -0.00
    12   1     0.00   0.00  -0.00     0.00   0.00   0.00    -0.00  -0.00   0.00
    13   6    -0.01   0.01  -0.03     0.01  -0.01   0.05     0.06  -0.08   0.36
    14   8     0.01  -0.01   0.03    -0.01   0.01  -0.04    -0.04   0.06  -0.26
    15  15     0.00  -0.00  -0.00     0.00  -0.00  -0.00     0.00  -0.00  -0.00
    16   6     0.00  -0.00  -0.00     0.00  -0.00  -0.00    -0.00  -0.00  -0.00
    17   6     0.00  -0.00  -0.00     0.00  -0.00  -0.00    -0.00   0.00  -0.00
    18   6     0.00  -0.00   0.00     0.00  -0.00   0.00    -0.00   0.00  -0.00
    19   1    -0.00  -0.00   0.00     0.00  -0.00   0.00     0.01  -0.00   0.00
    20   1    -0.00  -0.00  -0.01    -0.00  -0.00  -0.01     0.00   0.00  -0.00
    21   1     0.00  -0.00  -0.00     0.00   0.00   0.00     0.00  -0.00   0.00
    22   1     0.00  -0.00   0.00    -0.00   0.00   0.00     0.00   0.01   0.00
    23   1    -0.00  -0.00  -0.00     0.00  -0.00  -0.00    -0.00   0.01  -0.00
    24   1     0.01   0.00   0.00     0.01   0.00   0.00    -0.01  -0.00  -0.00
    25   1    -0.00   0.00   0.00     0.00  -0.00  -0.00     0.00   0.00   0.00
    26   1     0.00   0.00   0.00     0.00  -0.00  -0.00    -0.00  -0.00   0.00
    27   1    -0.00  -0.00   0.00    -0.00  -0.00   0.01     0.00   0.00  -0.00
    28   6    -0.01  -0.01  -0.00     0.01   0.01   0.01     0.32   0.27   0.14
    29   8     0.01   0.00   0.00    -0.01  -0.01  -0.00    -0.24  -0.20  -0.10
                     67                     68                     69
                      A                      A                      A
 Frequencies --   2179.8089              3054.5581              3058.1709
 Red. masses --     10.4438                 1.0340                 1.0429
 Frc consts  --     29.2378                 5.6839                 5.7464
 IR Inten    --    676.9196                 8.0599                50.5137
  Atom  AN      X      Y      Z        X      Y      Z        X      Y      Z
     1   1     0.07   0.10  -0.47     0.00   0.00  -0.00    -0.00  -0.00   0.00
     2   1     0.01   0.02  -0.02     0.00  -0.00  -0.00    -0.00   0.00   0.00
     3  45    -0.00  -0.00   0.00    -0.00   0.00   0.00    -0.00  -0.00  -0.00
     4   6     0.02   0.02   0.00    -0.00   0.00   0.00    -0.00  -0.00  -0.00
     5   8    -0.00  -0.01  -0.00     0.00  -0.00  -0.00     0.00   0.00   0.00
     6   6    -0.00  -0.00  -0.00    -0.00   0.00   0.00     0.00  -0.04  -0.00
     7   6    -0.00   0.00   0.00     0.00   0.00  -0.00    -0.04  -0.02   0.00
     8   1     0.00   0.00   0.00    -0.00  -0.00  -0.00     0.05   0.08   0.27
     9   1     0.00   0.00  -0.00     0.00  -0.01   0.00    -0.06   0.36  -0.24
    10   1    -0.00  -0.00  -0.00    -0.00   0.00   0.00     0.43  -0.29  -0.20
    11   1    -0.00   0.00  -0.00     0.00  -0.00   0.00    -0.06   0.36  -0.24
    12   1    -0.00  -0.00   0.00    -0.00  -0.00  -0.00     0.08   0.12   0.41
    13   6     0.09  -0.11   0.51    -0.00   0.00  -0.00     0.00   0.00  -0.00
    14   8    -0.06   0.08  -0.37     0.00  -0.00   0.00     0.00  -0.00   0.00
    15  15    -0.00   0.00  -0.00    -0.00  -0.00  -0.00    -0.00  -0.00  -0.00
    16   6     0.00  -0.00  -0.00     0.05   0.00   0.01     0.00   0.00   0.00
    17   6     0.00  -0.00  -0.00    -0.00  -0.00  -0.00    -0.00   0.00  -0.00
    18   6     0.00  -0.00   0.00    -0.00  -0.00  -0.00    -0.00   0.00   0.01
    19   1     0.01  -0.00   0.00    -0.00  -0.00   0.00     0.04   0.07  -0.07
    20   1    -0.00  -0.00  -0.02    -0.01   0.01   0.00     0.06  -0.10   0.00
    21   1     0.00  -0.00   0.01     0.01   0.00   0.00    -0.08  -0.01  -0.02
    22   1    -0.00  -0.01  -0.00    -0.19  -0.36   0.36    -0.00  -0.01   0.01
    23   1    -0.00  -0.01  -0.00    -0.08  -0.19  -0.51    -0.00  -0.00  -0.01
    24   1     0.02   0.01   0.01    -0.29   0.55   0.07    -0.00   0.01   0.00
    25   1    -0.00   0.00  -0.00     0.00   0.00   0.00     0.00   0.00   0.01
    26   1     0.00   0.00  -0.00     0.00   0.00  -0.00    -0.01  -0.00  -0.00
    27   1    -0.01  -0.01   0.01     0.00   0.00  -0.00     0.01  -0.01  -0.00
    28   6    -0.34  -0.28  -0.16     0.00   0.00   0.00     0.00   0.00   0.00
    29   8     0.25   0.21   0.11    -0.00  -0.00  -0.00    -0.00  -0.00  -0.00
                     70                     71                     72
                      A                      A                      A
 Frequencies --   3058.5488              3060.9367              3063.0415
 Red. masses --      1.0345                 1.0570                 1.0357
 Frc consts  --      5.7020                 5.8348                 5.7254
 IR Inten    --     10.7525                 1.7277                13.0751
  Atom  AN      X      Y      Z        X      Y      Z        X      Y      Z
     1   1     0.00   0.00   0.00    -0.00  -0.00   0.00    -0.00   0.00  -0.00
     2   1     0.00  -0.00   0.00    -0.00   0.00   0.00     0.00  -0.00  -0.00
     3  45    -0.00  -0.00   0.00     0.00  -0.00  -0.00    -0.00  -0.00   0.00
     4   6    -0.00  -0.00  -0.00    -0.00  -0.00   0.00    -0.00   0.00   0.00
     5   8    -0.00   0.00   0.00     0.00   0.00   0.00    -0.00   0.00  -0.00
     6   6     0.00  -0.01  -0.00     0.00  -0.06  -0.00     0.00  -0.00  -0.00
     7   6    -0.01  -0.00   0.00     0.02   0.02  -0.00    -0.00  -0.00  -0.00
     8   1     0.01   0.01   0.05     0.09   0.12   0.41     0.00   0.00   0.01
     9   1    -0.01   0.07  -0.04    -0.09   0.59  -0.38    -0.00   0.01  -0.01
    10   1     0.08  -0.05  -0.04    -0.23   0.14   0.10     0.00  -0.00  -0.00
    11   1    -0.01   0.07  -0.04     0.05  -0.29   0.20    -0.00   0.00  -0.00
    12   1     0.01   0.02   0.08    -0.06  -0.08  -0.29     0.00   0.00   0.00
    13   6    -0.00   0.00  -0.00     0.00  -0.00   0.00    -0.00   0.00  -0.00
    14   8     0.00  -0.00   0.00     0.00   0.00  -0.00     0.00  -0.00   0.00
    15  15     0.00   0.00   0.00    -0.00   0.00   0.00     0.00   0.00  -0.00
    16   6    -0.00  -0.00   0.00     0.00   0.00   0.00     0.00   0.00  -0.00
    17   6     0.00  -0.00   0.00    -0.00   0.00  -0.00     0.01  -0.04   0.03
    18   6     0.01  -0.02  -0.04     0.00  -0.00  -0.00    -0.00   0.00   0.00
    19   1    -0.21  -0.36   0.39    -0.00  -0.00   0.00     0.01   0.01  -0.01
    20   1    -0.33   0.55  -0.00    -0.00   0.00   0.00     0.01  -0.02   0.00
    21   1     0.45   0.08   0.09     0.00   0.00   0.00    -0.02  -0.00  -0.00
    22   1     0.00   0.01  -0.01    -0.00  -0.00   0.00    -0.00  -0.00   0.00
    23   1    -0.00   0.00   0.00    -0.00  -0.00  -0.00     0.00   0.00   0.00
    24   1     0.00  -0.01  -0.00    -0.00   0.00   0.00    -0.00   0.00  -0.00
    25   1    -0.00  -0.01  -0.02     0.00   0.00   0.00    -0.08  -0.19  -0.51
    26   1     0.01   0.00   0.00    -0.00  -0.00  -0.00     0.42   0.09   0.06
    27   1    -0.01   0.02   0.00     0.00  -0.01  -0.00    -0.40   0.58   0.12
    28   6     0.00   0.00   0.00     0.00   0.00   0.00     0.00   0.00   0.00
    29   8    -0.00  -0.00  -0.00    -0.00  -0.00  -0.00    -0.00  -0.00  -0.00
                     73                     74                     75
                      A                      A                      A
 Frequencies --   3099.1522              3130.8592              3138.1289
 Red. masses --      1.0983                 1.1020                 1.1025
 Frc consts  --      6.2153                 6.3641                 6.3967
 IR Inten    --      1.4641                28.5606                31.1554
  Atom  AN      X      Y      Z        X      Y      Z        X      Y      Z
     1   1    -0.00  -0.00   0.00     0.00   0.00  -0.00    -0.00  -0.00   0.00
     2   1     0.00  -0.00  -0.00     0.00  -0.00  -0.00     0.00  -0.00  -0.00
     3  45    -0.00  -0.00   0.00     0.00  -0.00  -0.00    -0.00   0.00   0.00
     4   6    -0.00   0.00  -0.00     0.00   0.00   0.00    -0.00  -0.00  -0.00
     5   8    -0.00   0.00  -0.00    -0.00  -0.00  -0.00     0.00   0.00   0.00
     6   6    -0.02   0.01  -0.08    -0.00   0.01   0.00    -0.00   0.00  -0.02
     7   6     0.00  -0.00   0.02    -0.05   0.08   0.02    -0.01   0.02  -0.09
     8   1     0.15   0.26   0.77    -0.01  -0.01  -0.04     0.04   0.06   0.19
     9   1     0.06  -0.43   0.25     0.01  -0.07   0.04     0.02  -0.12   0.07
    10   1     0.02  -0.01  -0.00     0.60  -0.38  -0.27    -0.10   0.06   0.03
    11   1    -0.02   0.12  -0.08     0.06  -0.45   0.31     0.07  -0.50   0.31
    12   1    -0.03  -0.05  -0.18    -0.07  -0.07  -0.30     0.15   0.21   0.71
    13   6    -0.00   0.00  -0.00    -0.00   0.00  -0.00    -0.00   0.00  -0.00
    14   8     0.00  -0.00   0.00     0.00  -0.00   0.00     0.00  -0.00   0.00
    15  15    -0.00  -0.00  -0.00     0.00   0.00   0.00    -0.00   0.00  -0.00
    16   6    -0.00  -0.00   0.00     0.00  -0.00  -0.00    -0.00  -0.00   0.00
    17   6     0.00   0.00   0.00     0.00  -0.00   0.00     0.00   0.00   0.00
    18   6    -0.00   0.00   0.00    -0.00  -0.00   0.00    -0.00  -0.00   0.00
    19   1     0.00   0.00  -0.00     0.00   0.00  -0.00     0.00   0.00  -0.00
    20   1     0.00  -0.00  -0.00    -0.00   0.00  -0.00    -0.00   0.00   0.00
    21   1     0.00   0.00   0.00     0.00   0.00  -0.00     0.00   0.00   0.00
    22   1     0.00   0.00  -0.00     0.00   0.00  -0.00     0.00   0.00  -0.00
    23   1     0.00  -0.00  -0.00     0.00   0.00   0.00    -0.00  -0.00  -0.00
    24   1     0.00  -0.00   0.00    -0.00   0.00   0.00    -0.00   0.00   0.00
    25   1    -0.00  -0.00  -0.00    -0.00  -0.00  -0.00    -0.00  -0.00  -0.00
    26   1    -0.00  -0.00  -0.00    -0.00  -0.00  -0.00    -0.00  -0.00  -0.00
    27   1    -0.00   0.00   0.00    -0.00   0.00   0.00     0.00  -0.00  -0.00
    28   6     0.00   0.00  -0.00    -0.00   0.00   0.00     0.00   0.00  -0.00
    29   8    -0.00  -0.00   0.00    -0.00  -0.00  -0.00     0.00   0.00   0.00
                     76                     77                     78
                      A                      A                      A
 Frequencies --   3143.1221              3144.0478              3148.6505
 Red. masses --      1.1037                 1.1033                 1.1028
 Frc consts  --      6.4243                 6.4256                 6.4414
 IR Inten    --      5.2547                11.3833                 4.1461
  Atom  AN      X      Y      Z        X      Y      Z        X      Y      Z
     1   1    -0.00  -0.00   0.00    -0.00   0.00  -0.00    -0.00   0.00  -0.00
     2   1    -0.00  -0.00  -0.00     0.00  -0.00   0.00     0.00   0.00  -0.00
     3  45     0.00   0.00   0.00     0.00   0.00  -0.00    -0.00  -0.00   0.00
     4   6    -0.00  -0.00  -0.00    -0.00  -0.00   0.00     0.00   0.00   0.00
     5   8    -0.00   0.00   0.00     0.00   0.00  -0.00    -0.00  -0.00  -0.00
     6   6     0.00  -0.00   0.00     0.00  -0.00   0.00    -0.00   0.00  -0.00
     7   6    -0.00  -0.00  -0.00     0.00  -0.00   0.00    -0.00   0.00  -0.00
     8   1     0.00   0.00   0.00     0.00  -0.00   0.00     0.00   0.00   0.00
     9   1    -0.00   0.00  -0.00    -0.00   0.00  -0.00     0.00  -0.00   0.00
    10   1     0.00  -0.00  -0.00    -0.00   0.00   0.00    -0.00   0.00   0.00
    11   1    -0.00   0.00  -0.00    -0.00   0.00  -0.00     0.00  -0.00   0.00
    12   1     0.00   0.00   0.00    -0.00  -0.00  -0.00     0.00   0.00   0.00
    13   6    -0.00   0.00  -0.00    -0.00   0.00   0.00     0.00  -0.00   0.00
    14   8     0.00  -0.00   0.00     0.00   0.00  -0.00    -0.00   0.00  -0.00
    15  15     0.00  -0.00  -0.00     0.00  -0.00   0.00    -0.00   0.00  -0.00
    16   6     0.01  -0.09  -0.02     0.00  -0.02  -0.01     0.01   0.02  -0.08
    17   6    -0.00   0.00   0.00    -0.00   0.00   0.00    -0.01   0.02   0.02
    18   6    -0.00   0.02  -0.01     0.01  -0.08   0.04    -0.00   0.01  -0.00
    19   1    -0.07  -0.11   0.13     0.26   0.42  -0.48    -0.03  -0.04   0.05
    20   1     0.09  -0.15  -0.00    -0.35   0.56   0.01     0.03  -0.05  -0.00
    21   1     0.01   0.01   0.00    -0.07  -0.03  -0.01     0.00   0.00   0.00
    22   1     0.16   0.26  -0.28     0.02   0.03  -0.04    -0.26  -0.46   0.45
    23   1     0.08   0.14   0.42     0.03   0.06   0.16     0.11   0.23   0.59
    24   1    -0.36   0.65   0.08    -0.09   0.16   0.02     0.02  -0.04  -0.02
    25   1    -0.00  -0.01  -0.03    -0.01  -0.02  -0.05    -0.03  -0.07  -0.19
    26   1     0.00   0.00   0.00     0.01   0.00   0.00     0.05   0.02   0.01
    27   1     0.02  -0.02  -0.00     0.02  -0.03  -0.01     0.11  -0.16  -0.03
    28   6    -0.00   0.00  -0.00     0.00   0.00   0.00    -0.00  -0.00  -0.00
    29   8     0.00   0.00   0.00    -0.00  -0.00  -0.00     0.00   0.00   0.00
                     79                     80                     81
                      A                      A                      A
 Frequencies --   3149.7316              3167.2486              3179.0739
 Red. masses --      1.1024                 1.1020                 1.1010
 Frc consts  --      6.4436                 6.5134                 6.5559
 IR Inten    --      7.3613                 0.1906                 0.1049
  Atom  AN      X      Y      Z        X      Y      Z        X      Y      Z
     1   1    -0.00  -0.00   0.00    -0.00  -0.00   0.00     0.00  -0.00   0.00
     2   1    -0.00   0.00   0.00    -0.00   0.00   0.00    -0.00   0.00   0.00
     3  45     0.00   0.00   0.00     0.00   0.00  -0.00     0.00  -0.00   0.00
     4   6    -0.00  -0.00  -0.00     0.00  -0.00  -0.00    -0.00   0.00  -0.00
     5   8     0.00   0.00   0.00    -0.00   0.00   0.00    -0.00   0.00  -0.00
     6   6    -0.00   0.00  -0.00     0.00  -0.00   0.00    -0.00   0.00  -0.00
     7   6    -0.00   0.00  -0.00     0.00  -0.00   0.00    -0.00   0.00  -0.00
     8   1     0.00   0.00   0.00    -0.00  -0.00  -0.00     0.00   0.00   0.00
     9   1     0.00  -0.00   0.00     0.00   0.00  -0.00     0.00  -0.00   0.00
    10   1    -0.00   0.00   0.00    -0.00   0.00   0.00     0.00  -0.00  -0.00
    11   1     0.00  -0.00   0.00    -0.00   0.00  -0.00     0.00  -0.00   0.00
    12   1     0.00   0.00   0.00    -0.00  -0.00  -0.00     0.00   0.00   0.00
    13   6    -0.00   0.00  -0.00     0.00  -0.00   0.00     0.00  -0.00   0.00
    14   8     0.00  -0.00   0.00    -0.00   0.00  -0.00     0.00   0.00  -0.00
    15  15     0.00  -0.00  -0.00    -0.00  -0.00  -0.00    -0.00  -0.00  -0.00
    16   6     0.00   0.00  -0.03     0.00  -0.00  -0.00     0.00  -0.00   0.00
    17   6     0.03  -0.06  -0.06     0.00   0.00   0.00    -0.08  -0.01  -0.04
    18   6    -0.00  -0.00   0.00    -0.09  -0.01   0.01    -0.00  -0.00   0.00
    19   1     0.01   0.01  -0.01     0.13   0.23  -0.26     0.00   0.00  -0.00
    20   1    -0.01   0.02   0.00     0.14  -0.25  -0.00     0.00  -0.00  -0.00
    21   1     0.00  -0.00   0.00     0.84   0.16   0.19     0.01   0.00   0.00
    22   1    -0.07  -0.13   0.12    -0.00  -0.00   0.00     0.00   0.00  -0.00
    23   1     0.04   0.08   0.21     0.00   0.00   0.01     0.00   0.00   0.00
    24   1    -0.02   0.03  -0.00     0.00   0.00   0.00    -0.00   0.00  -0.00
    25   1     0.11   0.22   0.65    -0.00  -0.00  -0.01     0.05   0.13   0.38
    26   1    -0.17  -0.05  -0.03    -0.01  -0.00  -0.00     0.86   0.20   0.10
    27   1    -0.35   0.51   0.09    -0.00   0.00   0.00     0.11  -0.17  -0.04
    28   6     0.00   0.00  -0.00    -0.00  -0.00  -0.00    -0.00  -0.00   0.00
    29   8    -0.00  -0.00  -0.00     0.00   0.00   0.00     0.00  -0.00   0.00

 -------------------
 - Thermochemistry -
 -------------------
 Temperature   298.150 Kelvin.  Pressure   1.00000 Atm.
 Atom     1 has atomic number  1 and mass   1.00783
 Atom     2 has atomic number  1 and mass   1.00783
 Atom     3 has atomic number 45 and mass 102.90480
 Atom     4 has atomic number  6 and mass  12.00000
 Atom     5 has atomic number  8 and mass  15.99491
 Atom     6 has atomic number  6 and mass  12.00000
 Atom     7 has atomic number  6 and mass  12.00000
 Atom     8 has atomic number  1 and mass   1.00783
 Atom     9 has atomic number  1 and mass   1.00783
 Atom    10 has atomic number  1 and mass   1.00783
 Atom    11 has atomic number  1 and mass   1.00783
 Atom    12 has atomic number  1 and mass   1.00783
 Atom    13 has atomic number  6 and mass  12.00000
 Atom    14 has atomic number  8 and mass  15.99491
 Atom    15 has atomic number 15 and mass  30.97376
 Atom    16 has atomic number  6 and mass  12.00000
 Atom    17 has atomic number  6 and mass  12.00000
 Atom    18 has atomic number  6 and mass  12.00000
 Atom    19 has atomic number  1 and mass   1.00783
 Atom    20 has atomic number  1 and mass   1.00783
 Atom    21 has atomic number  1 and mass   1.00783
 Atom    22 has atomic number  1 and mass   1.00783
 Atom    23 has atomic number  1 and mass   1.00783
 Atom    24 has atomic number  1 and mass   1.00783
 Atom    25 has atomic number  1 and mass   1.00783
 Atom    26 has atomic number  1 and mass   1.00783
 Atom    27 has atomic number  1 and mass   1.00783
 Atom    28 has atomic number  6 and mass  12.00000
 Atom    29 has atomic number  8 and mass  15.99491
 Molecular mass:   293.98851 amu.
 Principal axes and moments of inertia in atomic units:
                           1         2         3
     Eigenvalues --  2920.404174042.527135009.08652
           X            0.99758  -0.06531  -0.02367
           Y            0.06534   0.99786   0.00027
           Z            0.02360  -0.00181   0.99972
 This molecule is an asymmetric top.
 Rotational symmetry number  1.
 Warning -- assumption of classical behavior for rotation
           may cause significant error
 Rotational temperatures (Kelvin)      0.02966     0.02143     0.01729
 Rotational constants (GHZ):           0.61798     0.44644     0.36029
 Zero-point vibrational energy     586519.7 (Joules/Mol)
                                  140.18158 (Kcal/Mol)
 Warning -- explicit consideration of  28 degrees of freedom as
           vibrations may cause significant error
 Vibrational temperatures:     23.33    69.96    83.82    91.54   103.01
          (Kelvin)            107.97   139.46   163.92   242.33   257.77
                              278.92   284.76   311.62   333.02   341.26
                              370.24   378.46   388.54   402.56   493.39
                              504.68   515.80   525.66   536.45   565.96
                              682.96   714.95   736.66   955.79  1000.34
                             1008.78  1080.42  1093.24  1099.78  1120.99
                             1130.06  1158.46  1181.53  1262.68  1264.60
                             1334.85  1398.98  1403.05  1413.89  1482.33
                             1541.59  1597.57  1843.87  1914.03  1917.64
                             1942.15  1944.94  2035.07  2074.14  2091.18
                             2105.13  2107.86  2112.87  2121.82  2135.02
                             2145.74  2154.08  2511.89  2871.41  2927.52
                             3089.80  3136.26  4394.83  4400.03  4400.57
                             4404.01  4407.03  4458.99  4504.61  4515.07
                             4522.25  4523.58  4530.21  4531.76  4556.96
                             4573.98
 
 Zero-point correction=                           0.223394 (Hartree/Particle)
 Thermal correction to Energy=                    0.242553
 Thermal correction to Enthalpy=                  0.243497
 Thermal correction to Gibbs Free Energy=         0.174753
 Sum of electronic and zero-point Energies=           -992.001559
 Sum of electronic and thermal Energies=              -991.982400
 Sum of electronic and thermal Enthalpies=            -991.981456
 Sum of electronic and thermal Free Energies=         -992.050200
 
                     E (Thermal)             CV                S
                      KCal/Mol        Cal/Mol-Kelvin    Cal/Mol-Kelvin
 Total                  152.204             67.116            144.684
 Electronic               0.000              0.000              0.000
 Translational            0.889              2.981             42.932
 Rotational               0.889              2.981             32.447
 Vibrational            150.427             61.154             69.304
 Vibration     1          0.593              1.986              7.051
 Vibration     2          0.595              1.978              4.873
 Vibration     3          0.596              1.974              4.515
 Vibration     4          0.597              1.972              4.341
 Vibration     5          0.598              1.968              4.109
 Vibration     6          0.599              1.966              4.017
 Vibration     7          0.603              1.951              3.515
 Vibration     8          0.607              1.938              3.201
 Vibration     9          0.625              1.881              2.453
 Vibration    10          0.629              1.868              2.337
 Vibration    11          0.635              1.848              2.191
 Vibration    12          0.637              1.843              2.152
 Vibration    13          0.645              1.816              1.987
 Vibration    14          0.653              1.793              1.868
 Vibration    15          0.656              1.784              1.824
 Vibration    16          0.667              1.750              1.680
 Vibration    17          0.670              1.741              1.642
 Vibration    18          0.674              1.728              1.596
 Vibration    19          0.680              1.711              1.535
 Vibration    20          0.722              1.590              1.199
 Vibration    21          0.728              1.574              1.163
 Vibration    22          0.733              1.558              1.129
 Vibration    23          0.739              1.544              1.099
 Vibration    24          0.744              1.528              1.068
 Vibration    25          0.761              1.484              0.987
 Vibration    26          0.831              1.306              0.725
 Vibration    27          0.852              1.257              0.666
 Vibration    28          0.867              1.223              0.629
                       Q            Log10(Q)             Ln(Q)
 Total Bot       0.416164D-80        -80.380735       -185.083483
 Total V=0       0.236094D+23         22.373084         51.515930
 Vib (Bot)       0.763032D-95        -95.117457       -219.016039
 Vib (Bot)    1  0.127770D+02          1.106428          2.547646
 Vib (Bot)    2  0.425197D+01          0.628590          1.447382
 Vib (Bot)    3  0.354513D+01          0.549632          1.265575
 Vib (Bot)    4  0.324412D+01          0.511097          1.176845
 Vib (Bot)    5  0.287995D+01          0.459385          1.057774
 Vib (Bot)    6  0.274645D+01          0.438772          1.010309
 Vib (Bot)    7  0.211849D+01          0.326026          0.750703
 Vib (Bot)    8  0.179617D+01          0.254347          0.585656
 Vib (Bot)    9  0.119714D+01          0.078145          0.179934
 Vib (Bot)   10  0.112139D+01          0.049756          0.114568
 Vib (Bot)   11  0.103093D+01          0.013230          0.030463
 Vib (Bot)   12  0.100825D+01          0.003570          0.008220
 Vib (Bot)   13  0.914572D+00         -0.038782         -0.089300
 Vib (Bot)   14  0.850390D+00         -0.070382         -0.162060
 Vib (Bot)   15  0.827750D+00         -0.082101         -0.189044
 Vib (Bot)   16  0.755783D+00         -0.121603         -0.280002
 Vib (Bot)   17  0.737299D+00         -0.132356         -0.304762
 Vib (Bot)   18  0.715637D+00         -0.145307         -0.334582
 Vib (Bot)   19  0.687238D+00         -0.162893         -0.375074
 Vib (Bot)   20  0.540468D+00         -0.267230         -0.615319
 Vib (Bot)   21  0.525717D+00         -0.279248         -0.642993
 Vib (Bot)   22  0.511786D+00         -0.290912         -0.669849
 Vib (Bot)   23  0.499888D+00         -0.301127         -0.693372
 Vib (Bot)   24  0.487339D+00         -0.312169         -0.718796
 Vib (Bot)   25  0.455305D+00         -0.341698         -0.786788
 Vib (Bot)   26  0.353940D+00         -0.451070         -1.038627
 Vib (Bot)   27  0.331649D+00         -0.479321         -1.103677
 Vib (Bot)   28  0.317563D+00         -0.498170         -1.147078
 Vib (V=0)       0.432874D+08          7.636362         17.583373
 Vib (V=0)    1  0.132868D+02          1.123419          2.586769
 Vib (V=0)    2  0.478126D+01          0.679543          1.564705
 Vib (V=0)    3  0.408022D+01          0.610683          1.406150
 Vib (V=0)    4  0.378243D+01          0.577771          1.330366
 Vib (V=0)    5  0.342303D+01          0.534411          1.230527
 Vib (V=0)    6  0.329159D+01          0.517406          1.191371
 Vib (V=0)    7  0.267669D+01          0.427599          0.984582
 Vib (V=0)    8  0.236446D+01          0.373733          0.860551
 Vib (V=0)    9  0.179736D+01          0.254635          0.586319
 Vib (V=0)   10  0.172781D+01          0.237495          0.546853
 Vib (V=0)   11  0.164578D+01          0.216373          0.498217
 Vib (V=0)   12  0.162542D+01          0.210966          0.485768
 Vib (V=0)   13  0.154232D+01          0.188176          0.433291
 Vib (V=0)   14  0.148649D+01          0.172162          0.396418
 Vib (V=0)   15  0.146704D+01          0.166443          0.383248
 Vib (V=0)   16  0.140620D+01          0.148049          0.340894
 Vib (V=0)   17  0.139085D+01          0.143280          0.329913
 Vib (V=0)   18  0.137300D+01          0.137672          0.317001
 Vib (V=0)   19  0.134988D+01          0.130295          0.300016
 Vib (V=0)   20  0.123628D+01          0.092116          0.212106
 Vib (V=0)   21  0.122552D+01          0.088320          0.203364
 Vib (V=0)   22  0.121549D+01          0.084751          0.195147
 Vib (V=0)   23  0.120703D+01          0.081717          0.188161
 Vib (V=0)   24  0.119821D+01          0.078533          0.180830
 Vib (V=0)   25  0.117624D+01          0.070496          0.162324
 Vib (V=0)   26  0.111260D+01          0.046337          0.106696
 Vib (V=0)   27  0.109999D+01          0.041390          0.095304
 Vib (V=0)   28  0.109232D+01          0.038351          0.088307
 Electronic      0.100000D+01          0.000000          0.000000
 Translational   0.198130D+09          8.296949         19.104432
 Rotational      0.275279D+07          6.439773         14.828125
 ***** Axes restored to original set *****
 -------------------------------------------------------------------
 Center     Atomic                   Forces (Hartrees/Bohr)
 Number     Number              X              Y              Z
 -------------------------------------------------------------------
      1        1          -0.000004017   -0.000020498    0.000032933
      2        1          -0.000029680   -0.000005552    0.000007954
      3       45          -0.000001532   -0.000010777   -0.000066303
      4        6          -0.000013726    0.000055380    0.000042560
      5        8          -0.000007879   -0.000039445   -0.000020402
      6        6          -0.000012107   -0.000019353   -0.000008679
      7        6           0.000002913    0.000004692    0.000003893
      8        1           0.000003794   -0.000001770    0.000006311
      9        1          -0.000000529    0.000004239    0.000003439
     10        1           0.000002680    0.000000434    0.000001886
     11        1           0.000000579   -0.000001175    0.000001283
     12        1          -0.000000268   -0.000000736    0.000001470
     13        6           0.000038353    0.000017075    0.000027543
     14        8          -0.000007180   -0.000000302   -0.000003635
     15       15           0.000012820   -0.000036138    0.000023281
     16        6          -0.000010842    0.000015455   -0.000004196
     17        6           0.000005053   -0.000007139    0.000002999
     18        6          -0.000015189    0.000029329   -0.000001862
     19        1           0.000001712   -0.000001726   -0.000000697
     20        1          -0.000003092   -0.000001742   -0.000001800
     21        1          -0.000001500   -0.000001172   -0.000004102
     22        1          -0.000000204   -0.000004147   -0.000002640
     23        1          -0.000000636   -0.000002389   -0.000003057
     24        1           0.000000754   -0.000002355   -0.000003351
     25        1          -0.000000172    0.000001065   -0.000003089
     26        1           0.000000822    0.000011491   -0.000014656
     27        1           0.000007017    0.000002210    0.000001553
     28        6           0.000040278    0.000032052   -0.000023263
     29        8          -0.000008221   -0.000017009    0.000004623
 -------------------------------------------------------------------
 Cartesian Forces:  Max     0.000066303 RMS     0.000016983
 FormGI is forming the generalized inverse of G from B-inverse, IUseBI=4.
 Leave Link  716 at Tue Oct  4 20:59:33 2022, MaxMem=  2952790016 cpu:               0.8 elap:               0.1
 (Enter /mnt/data/applications/G16/g16/l103.exe)

 GradGradGradGradGradGradGradGradGradGradGradGradGradGradGradGradGradGrad
 Berny optimization.
 Red2BG is reusing G-inverse.
 Internal  Forces:  Max     0.000044997 RMS     0.000010167
 Search for a local minimum.
 Step number   1 out of a maximum of    2
 All quantities printed in internal units (Hartrees-Bohrs-Radians)
 Second derivative matrix not updated -- analytic derivatives used.
 ITU=  0
     Eigenvalues ---    0.00012   0.00171   0.00204   0.00244   0.00263
     Eigenvalues ---    0.00304   0.00371   0.01893   0.02165   0.02289
     Eigenvalues ---    0.02430   0.02466   0.02578   0.03045   0.03427
     Eigenvalues ---    0.03525   0.03817   0.03851   0.03948   0.03994
     Eigenvalues ---    0.04028   0.04112   0.04185   0.04284   0.04411
     Eigenvalues ---    0.04514   0.04535   0.04957   0.06896   0.07432
     Eigenvalues ---    0.07687   0.08025   0.08442   0.08660   0.09392
     Eigenvalues ---    0.10059   0.10622   0.10873   0.11114   0.11174
     Eigenvalues ---    0.11257   0.11417   0.11622   0.11970   0.12220
     Eigenvalues ---    0.12304   0.12746   0.13469   0.14016   0.14355
     Eigenvalues ---    0.14659   0.14739   0.15783   0.15850   0.16537
     Eigenvalues ---    0.17578   0.21300   0.22433   0.22588   0.23568
     Eigenvalues ---    0.24884   0.25369   0.31223   0.31438   0.33395
     Eigenvalues ---    0.34075   0.34159   0.34179   0.34191   0.34283
     Eigenvalues ---    0.34370   0.34404   0.34577   0.34769   0.34784
     Eigenvalues ---    0.34921   0.35232   0.35945   0.81797   1.21214
     Eigenvalues ---    1.23259
 Angle between quadratic step and forces=  82.94 degrees.
 Linear search not attempted -- first point.
 Iteration  1 RMS(Cart)=  0.00412495 RMS(Int)=  0.00000481
 Iteration  2 RMS(Cart)=  0.00000739 RMS(Int)=  0.00000004
 Iteration  3 RMS(Cart)=  0.00000000 RMS(Int)=  0.00000004
 ITry= 1 IFail=0 DXMaxC= 1.47D-02 DCOld= 1.00D+10 DXMaxT= 5.00D-02 DXLimC= 3.00D+00 Rises=F
 Variable       Old X    -DE/DX   Delta X   Delta X   Delta X     New X
                                 (Linear)    (Quad)   (Total)
    R1        3.01751  -0.00004   0.00000  -0.00014  -0.00014   3.01737
    R2        3.00974  -0.00001   0.00000  -0.00018  -0.00018   3.00956
    R3        3.95763  -0.00002   0.00000   0.00002   0.00002   3.95765
    R4        3.68763   0.00002   0.00000   0.00006   0.00006   3.68769
    R5        4.52851   0.00000   0.00000   0.00011   0.00011   4.52862
    R6        3.70571  -0.00003   0.00000  -0.00042  -0.00042   3.70529
    R7        2.28439  -0.00004   0.00000  -0.00010  -0.00010   2.28429
    R8        2.87227   0.00000   0.00000   0.00004   0.00004   2.87230
    R9        2.86891   0.00001   0.00000   0.00002   0.00002   2.86893
   R10        2.06545  -0.00000   0.00000  -0.00001  -0.00001   2.06544
   R11        2.06818  -0.00000   0.00000   0.00001   0.00001   2.06818
   R12        2.06319   0.00000   0.00000   0.00000   0.00000   2.06319
   R13        2.06168  -0.00000   0.00000  -0.00000  -0.00000   2.06168
   R14        2.06121  -0.00000   0.00000   0.00000   0.00000   2.06121
   R15        2.14007  -0.00001   0.00000   0.00002   0.00002   2.14009
   R16        3.43797   0.00001   0.00000   0.00010   0.00010   3.43807
   R17        3.42602   0.00001   0.00000   0.00004   0.00004   3.42606
   R18        3.42972   0.00001   0.00000   0.00004   0.00004   3.42977
   R19        2.06212   0.00000   0.00000   0.00002   0.00002   2.06214
   R20        2.06207   0.00000   0.00000   0.00001   0.00001   2.06208
   R21        2.06322  -0.00000   0.00000  -0.00001  -0.00001   2.06322
   R22        2.06054   0.00000   0.00000   0.00001   0.00001   2.06056
   R23        2.05755   0.00000   0.00000   0.00000   0.00000   2.05755
   R24        2.06334  -0.00000   0.00000   0.00000   0.00000   2.06334
   R25        2.06231   0.00000   0.00000   0.00000   0.00000   2.06231
   R26        2.06337  -0.00000   0.00000  -0.00001  -0.00001   2.06335
   R27        2.05908  -0.00000   0.00000  -0.00003  -0.00003   2.05906
   R28        2.13843   0.00002   0.00000   0.00003   0.00003   2.13846
    A1        1.43529   0.00000   0.00000  -0.00003  -0.00003   1.43526
    A2        1.42314   0.00001   0.00000  -0.00042  -0.00042   1.42272
    A3        1.52896   0.00001   0.00000   0.00035   0.00035   1.52931
    A4        1.53117  -0.00002   0.00000  -0.00047  -0.00047   1.53070
    A5        1.49364   0.00003   0.00000   0.00043   0.00043   1.49408
    A6        1.59023  -0.00001   0.00000  -0.00016  -0.00016   1.59008
    A7        1.51454  -0.00003   0.00000  -0.00069  -0.00069   1.51385
    A8        1.54263  -0.00002   0.00000  -0.00037  -0.00037   1.54226
    A9        1.57025  -0.00001   0.00000   0.00021   0.00021   1.57046
   A10        1.71707  -0.00000   0.00000  -0.00011  -0.00011   1.71697
   A11        1.77252   0.00003   0.00000   0.00120   0.00120   1.77372
   A12        1.67310   0.00001   0.00000  -0.00005  -0.00005   1.67305
   A13        2.13413   0.00000   0.00000   0.00023   0.00023   2.13435
   A14        2.05917  -0.00002   0.00000  -0.00032  -0.00032   2.05884
   A15        2.08984   0.00002   0.00000   0.00010   0.00010   2.08993
   A16        2.00553  -0.00000   0.00000  -0.00001  -0.00001   2.00552
   A17        1.86005   0.00000   0.00000  -0.00000  -0.00000   1.86005
   A18        1.85585  -0.00000   0.00000   0.00001   0.00001   1.85586
   A19        1.95229  -0.00000   0.00000  -0.00002  -0.00002   1.95228
   A20        1.94694   0.00000   0.00000  -0.00000  -0.00000   1.94694
   A21        1.83167  -0.00000   0.00000   0.00002   0.00002   1.83170
   A22        1.92399   0.00000   0.00000   0.00003   0.00003   1.92401
   A23        1.94199  -0.00000   0.00000  -0.00003  -0.00003   1.94196
   A24        1.94389  -0.00000   0.00000  -0.00001  -0.00001   1.94388
   A25        1.88720  -0.00000   0.00000   0.00001   0.00001   1.88721
   A26        1.88795  -0.00000   0.00000  -0.00001  -0.00001   1.88794
   A27        1.87672   0.00000   0.00000   0.00001   0.00001   1.87673
   A28        1.99867   0.00000   0.00000  -0.00006  -0.00006   1.99861
   A29        2.01034  -0.00000   0.00000  -0.00015  -0.00015   2.01020
   A30        2.01350   0.00001   0.00000   0.00046   0.00046   2.01396
   A31        1.79662  -0.00000   0.00000  -0.00003  -0.00003   1.79658
   A32        1.80037  -0.00001   0.00000  -0.00026  -0.00026   1.80011
   A33        1.81650  -0.00001   0.00000  -0.00002  -0.00002   1.81648
   A34        1.91479  -0.00000   0.00000  -0.00005  -0.00005   1.91474
   A35        1.91117   0.00000   0.00000   0.00011   0.00011   1.91128
   A36        1.94170   0.00000   0.00000  -0.00001  -0.00001   1.94169
   A37        1.89172  -0.00000   0.00000  -0.00005  -0.00005   1.89168
   A38        1.90227   0.00000   0.00000   0.00004   0.00004   1.90231
   A39        1.90143  -0.00000   0.00000  -0.00003  -0.00003   1.90140
   A40        1.90545   0.00000   0.00000  -0.00004  -0.00004   1.90542
   A41        1.90355   0.00002   0.00000   0.00012   0.00012   1.90366
   A42        1.93516  -0.00000   0.00000   0.00001   0.00001   1.93516
   A43        1.89869  -0.00001   0.00000  -0.00002  -0.00002   1.89867
   A44        1.90919   0.00000   0.00000  -0.00002  -0.00002   1.90917
   A45        1.91141  -0.00001   0.00000  -0.00005  -0.00005   1.91136
   A46        1.90931  -0.00000   0.00000   0.00001   0.00001   1.90931
   A47        1.94234   0.00000   0.00000  -0.00011  -0.00011   1.94223
   A48        1.89575  -0.00000   0.00000   0.00010   0.00010   1.89586
   A49        1.90323   0.00000   0.00000   0.00001   0.00001   1.90323
   A50        1.90049   0.00000   0.00000  -0.00002  -0.00002   1.90048
   A51        1.91228   0.00000   0.00000   0.00002   0.00002   1.91230
   A52        3.02553  -0.00000   0.00000  -0.00019  -0.00019   3.02534
   A53        2.96425   0.00001   0.00000   0.00032   0.00032   2.96457
   A54        2.95431  -0.00001   0.00000  -0.00089  -0.00089   2.95342
   A55        3.08786   0.00001   0.00000  -0.00037  -0.00037   3.08749
   A56        3.20213   0.00001   0.00000   0.00031   0.00031   3.20244
   A57        2.97300  -0.00001   0.00000  -0.00083  -0.00083   2.97217
   A58        3.19432  -0.00002   0.00000  -0.00068  -0.00068   3.19364
   A59        3.03178   0.00000   0.00000  -0.00013  -0.00013   3.03165
   A60        3.16568   0.00000   0.00000   0.00012   0.00012   3.16580
   A61        3.06465   0.00002   0.00000  -0.00024  -0.00024   3.06442
    D1        1.86632   0.00000   0.00000  -0.00544  -0.00544   1.86087
    D2       -1.28639   0.00001   0.00000  -0.00536  -0.00536  -1.29176
    D3       -2.97189   0.00000   0.00000  -0.00552  -0.00552  -2.97740
    D4        0.15859   0.00000   0.00000  -0.00543  -0.00543   0.15315
    D5       -1.37941  -0.00000   0.00000  -0.00566  -0.00566  -1.38506
    D6        1.75107  -0.00000   0.00000  -0.00558  -0.00558   1.74549
    D7        0.33774  -0.00001   0.00000  -0.00577  -0.00577   0.33197
    D8       -2.81497  -0.00001   0.00000  -0.00569  -0.00569  -2.82066
    D9        1.56362  -0.00001   0.00000   0.00256   0.00256   1.56619
   D10       -0.51512  -0.00000   0.00000   0.00277   0.00277  -0.51235
   D11       -2.63323  -0.00000   0.00000   0.00253   0.00253  -2.63070
   D12        2.98666   0.00000   0.00000   0.00213   0.00213   2.98879
   D13        0.90791   0.00001   0.00000   0.00234   0.00234   0.91025
   D14       -1.21020   0.00001   0.00000   0.00210   0.00210  -1.20809
   D15       -1.75429  -0.00002   0.00000   0.00179   0.00179  -1.75249
   D16        2.45015  -0.00002   0.00000   0.00200   0.00200   2.45215
   D17        0.33205  -0.00002   0.00000   0.00176   0.00176   0.33381
   D18        0.03700   0.00001   0.00000   0.00300   0.00300   0.04000
   D19       -2.04175   0.00001   0.00000   0.00320   0.00320  -2.03854
   D20        2.12333   0.00001   0.00000   0.00297   0.00297   2.12630
   D21        3.11116  -0.00000   0.00000   0.00048   0.00048   3.11164
   D22        0.93814  -0.00000   0.00000   0.00051   0.00051   0.93865
   D23       -1.00912  -0.00000   0.00000   0.00048   0.00048  -1.00864
   D24       -0.04126   0.00000   0.00000   0.00056   0.00056  -0.04070
   D25       -2.21428   0.00000   0.00000   0.00059   0.00059  -2.21369
   D26        2.12165  -0.00000   0.00000   0.00056   0.00056   2.12221
   D27       -3.14105  -0.00000   0.00000   0.00002   0.00002  -3.14103
   D28       -1.04741  -0.00000   0.00000   0.00004   0.00004  -1.04738
   D29        1.04631  -0.00000   0.00000   0.00003   0.00003   1.04634
   D30       -1.01739   0.00000   0.00000   0.00000   0.00000  -1.01739
   D31        1.07625   0.00000   0.00000   0.00001   0.00001   1.07626
   D32       -3.11322   0.00000   0.00000   0.00001   0.00001  -3.11321
   D33        1.02828   0.00000   0.00000   0.00002   0.00002   1.02830
   D34        3.12192   0.00000   0.00000   0.00003   0.00003   3.12196
   D35       -1.06754   0.00000   0.00000   0.00002   0.00002  -1.06752
   D36        1.02945   0.00000   0.00000   0.00004   0.00004   1.02949
   D37       -1.04467   0.00000   0.00000   0.00006   0.00006  -1.04461
   D38        3.13571   0.00000   0.00000   0.00004   0.00004   3.13575
   D39       -3.05849   0.00000   0.00000  -0.00021  -0.00021  -3.05869
   D40        1.15057   0.00000   0.00000  -0.00018  -0.00018   1.15039
   D41       -0.95223   0.00000   0.00000  -0.00021  -0.00021  -0.95244
   D42       -1.17251  -0.00001   0.00000  -0.00032  -0.00032  -1.17283
   D43        3.03655  -0.00001   0.00000  -0.00030  -0.00030   3.03625
   D44        0.93374  -0.00001   0.00000  -0.00032  -0.00032   0.93342
   D45        1.04323   0.00000   0.00000   0.00160   0.00160   1.04483
   D46       -1.02928  -0.00000   0.00000   0.00158   0.00158  -1.02771
   D47       -3.13538  -0.00000   0.00000   0.00155   0.00155  -3.13382
   D48       -1.14445  -0.00000   0.00000   0.00179   0.00179  -1.14266
   D49        3.06622  -0.00000   0.00000   0.00177   0.00177   3.06799
   D50        0.96013  -0.00000   0.00000   0.00174   0.00174   0.96187
   D51       -3.01819   0.00001   0.00000   0.00208   0.00208  -3.01611
   D52        1.19248   0.00001   0.00000   0.00206   0.00206   1.19454
   D53       -0.91362   0.00001   0.00000   0.00204   0.00204  -0.91158
   D54       -1.07936   0.00000   0.00000   0.00060   0.00060  -1.07876
   D55        3.09960  -0.00000   0.00000   0.00066   0.00066   3.10026
   D56        0.99301  -0.00000   0.00000   0.00064   0.00064   0.99365
   D57        1.11308   0.00001   0.00000   0.00062   0.00062   1.11370
   D58       -0.99114   0.00001   0.00000   0.00068   0.00068  -0.99046
   D59       -3.09774   0.00000   0.00000   0.00066   0.00066  -3.09708
   D60        2.98402   0.00000   0.00000   0.00049   0.00049   2.98451
   D61        0.87980   0.00000   0.00000   0.00055   0.00055   0.88035
   D62       -1.22680  -0.00000   0.00000   0.00053   0.00053  -1.22626
         Item               Value     Threshold  Converged?
 Maximum Force            0.000045     0.000450     YES
 RMS     Force            0.000010     0.000300     YES
 Maximum Displacement     0.014676     0.001800     NO 
 RMS     Displacement     0.004125     0.001200     NO 
 Predicted change in Energy=-1.460637D-07
                           ----------------------------
                           ! Non-Optimized Parameters !
                           ! (Angstroms and Degrees)  !
 --------------------------                            --------------------------
 ! Name  Definition              Value          Derivative Info.                !
 --------------------------------------------------------------------------------
 ! R1    R(1,3)                  1.5967         -DE/DX =    0.0                 !
 ! R2    R(2,3)                  1.5926         -DE/DX =    0.0                 !
 ! R3    R(3,4)                  2.0943         -DE/DX =    0.0                 !
 ! R4    R(3,13)                 1.9514         -DE/DX =    0.0                 !
 ! R5    R(3,15)                 2.3964         -DE/DX =    0.0                 !
 ! R6    R(3,28)                 1.9608         -DE/DX =    0.0                 !
 ! R7    R(4,5)                  1.2088         -DE/DX =    0.0                 !
 ! R8    R(4,6)                  1.52           -DE/DX =    0.0                 !
 ! R9    R(6,7)                  1.5182         -DE/DX =    0.0                 !
 ! R10   R(6,8)                  1.093          -DE/DX =    0.0                 !
 ! R11   R(6,9)                  1.0944         -DE/DX =    0.0                 !
 ! R12   R(7,10)                 1.0918         -DE/DX =    0.0                 !
 ! R13   R(7,11)                 1.091          -DE/DX =    0.0                 !
 ! R14   R(7,12)                 1.0907         -DE/DX =    0.0                 !
 ! R15   R(13,14)                1.1325         -DE/DX =    0.0                 !
 ! R16   R(15,16)                1.8193         -DE/DX =    0.0                 !
 ! R17   R(15,17)                1.813          -DE/DX =    0.0                 !
 ! R18   R(15,18)                1.815          -DE/DX =    0.0                 !
 ! R19   R(16,22)                1.0912         -DE/DX =    0.0                 !
 ! R20   R(16,23)                1.0912         -DE/DX =    0.0                 !
 ! R21   R(16,24)                1.0918         -DE/DX =    0.0                 !
 ! R22   R(17,25)                1.0904         -DE/DX =    0.0                 !
 ! R23   R(17,26)                1.0888         -DE/DX =    0.0                 !
 ! R24   R(17,27)                1.0919         -DE/DX =    0.0                 !
 ! R25   R(18,19)                1.0913         -DE/DX =    0.0                 !
 ! R26   R(18,20)                1.0919         -DE/DX =    0.0                 !
 ! R27   R(18,21)                1.0896         -DE/DX =    0.0                 !
 ! R28   R(28,29)                1.1316         -DE/DX =    0.0                 !
 ! A1    A(1,3,2)               82.2342         -DE/DX =    0.0                 !
 ! A2    A(1,3,4)               81.5157         -DE/DX =    0.0                 !
 ! A3    A(1,3,15)              87.623          -DE/DX =    0.0                 !
 ! A4    A(1,3,28)              87.7026         -DE/DX =    0.0                 !
 ! A5    A(2,3,4)               85.6043         -DE/DX =    0.0                 !
 ! A6    A(2,3,13)              91.1048         -DE/DX =    0.0                 !
 ! A7    A(2,3,28)              86.737          -DE/DX =    0.0                 !
 ! A8    A(4,3,13)              88.3651         -DE/DX =    0.0                 !
 ! A9    A(4,3,15)              89.9805         -DE/DX =    0.0                 !
 ! A10   A(13,3,15)             98.375          -DE/DX =    0.0                 !
 ! A11   A(13,3,28)            101.6266         -DE/DX =    0.0                 !
 ! A12   A(15,3,28)             95.8586         -DE/DX =    0.0                 !
 ! A13   A(3,4,5)              122.2895         -DE/DX =    0.0                 !
 ! A14   A(3,4,6)              117.9631         -DE/DX =    0.0                 !
 ! A15   A(5,4,6)              119.7444         -DE/DX =    0.0                 !
 ! A16   A(4,6,7)              114.9078         -DE/DX =    0.0                 !
 ! A17   A(4,6,8)              106.5729         -DE/DX =    0.0                 !
 ! A18   A(4,6,9)              106.3329         -DE/DX =    0.0                 !
 ! A19   A(7,6,8)              111.8573         -DE/DX =    0.0                 !
 ! A20   A(7,6,9)              111.5513         -DE/DX =    0.0                 !
 ! A21   A(8,6,9)              104.9486         -DE/DX =    0.0                 !
 ! A22   A(6,7,10)             110.2379         -DE/DX =    0.0                 !
 ! A23   A(6,7,11)             111.266          -DE/DX =    0.0                 !
 ! A24   A(6,7,12)             111.3762         -DE/DX =    0.0                 !
 ! A25   A(10,7,11)            108.1292         -DE/DX =    0.0                 !
 ! A26   A(10,7,12)            108.1709         -DE/DX =    0.0                 !
 ! A27   A(11,7,12)            107.5289         -DE/DX =    0.0                 !
 ! A28   A(3,15,16)            114.5121         -DE/DX =    0.0                 !
 ! A29   A(3,15,17)            115.1759         -DE/DX =    0.0                 !
 ! A30   A(3,15,18)            115.3914         -DE/DX =    0.0                 !
 ! A31   A(16,15,17)           102.9365         -DE/DX =    0.0                 !
 ! A32   A(16,15,18)           103.1389         -DE/DX =    0.0                 !
 ! A33   A(17,15,18)           104.0765         -DE/DX =    0.0                 !
 ! A34   A(15,16,22)           109.7063         -DE/DX =    0.0                 !
 ! A35   A(15,16,23)           109.5082         -DE/DX =    0.0                 !
 ! A36   A(15,16,24)           111.2506         -DE/DX =    0.0                 !
 ! A37   A(22,16,23)           108.385          -DE/DX =    0.0                 !
 ! A38   A(22,16,24)           108.9943         -DE/DX =    0.0                 !
 ! A39   A(23,16,24)           108.9424         -DE/DX =    0.0                 !
 ! A40   A(15,17,25)           109.1724         -DE/DX =    0.0                 !
 ! A41   A(15,17,26)           109.0719         -DE/DX =    0.0                 !
 ! A42   A(15,17,27)           110.8768         -DE/DX =    0.0                 !
 ! A43   A(25,17,26)           108.7857         -DE/DX =    0.0                 !
 ! A44   A(25,17,27)           109.3875         -DE/DX =    0.0                 !
 ! A45   A(26,17,27)           109.5131         -DE/DX =    0.0                 !
 ! A46   A(15,18,19)           109.3956         -DE/DX =    0.0                 !
 ! A47   A(15,18,20)           111.2813         -DE/DX =    0.0                 !
 ! A48   A(15,18,21)           108.6246         -DE/DX =    0.0                 !
 ! A49   A(19,18,20)           109.0472         -DE/DX =    0.0                 !
 ! A50   A(19,18,21)           108.8894         -DE/DX =    0.0                 !
 ! A51   A(20,18,21)           109.5667         -DE/DX =    0.0                 !
 ! A52   L(1,3,13,2,-1)        173.339          -DE/DX =    0.0                 !
 ! A53   L(2,3,15,1,-1)        169.8572         -DE/DX =    0.0                 !
 ! A54   L(4,3,28,1,-1)        169.2183         -DE/DX =    0.0                 !
 ! A55   L(3,13,14,12,-1)      176.9002         -DE/DX =    0.0                 !
 ! A56   L(3,28,29,16,-1)      183.4862         -DE/DX =    0.0                 !
 ! A57   L(1,3,13,2,-2)        170.2931         -DE/DX =    0.0                 !
 ! A58   L(2,3,15,1,-2)        182.9823         -DE/DX =    0.0                 !
 ! A59   L(4,3,28,1,-2)        173.7007         -DE/DX =    0.0                 !
 ! A60   L(3,13,14,12,-2)      181.3871         -DE/DX =    0.0                 !
 ! A61   L(3,28,29,16,-2)      175.5781         -DE/DX =    0.0                 !
 ! D1    D(1,3,4,5)            106.6202         -DE/DX =    0.0                 !
 ! D2    D(1,3,4,6)            -74.0122         -DE/DX =    0.0                 !
 ! D3    D(2,3,4,5)           -170.5926         -DE/DX =    0.0                 !
 ! D4    D(2,3,4,6)              8.775          -DE/DX =    0.0                 !
 ! D5    D(13,3,4,5)           -79.3583         -DE/DX =    0.0                 !
 ! D6    D(13,3,4,6)           100.0092         -DE/DX =    0.0                 !
 ! D7    D(15,3,4,5)            19.0207         -DE/DX =    0.0                 !
 ! D8    D(15,3,4,6)          -161.6118         -DE/DX =    0.0                 !
 ! D9    D(1,3,15,16)           89.7359         -DE/DX =    0.0                 !
 ! D10   D(1,3,15,17)          -29.3557         -DE/DX =    0.0                 !
 ! D11   D(1,3,15,18)         -150.7278         -DE/DX =    0.0                 !
 ! D12   D(4,3,15,16)          171.2451         -DE/DX =    0.0                 !
 ! D13   D(4,3,15,17)           52.1535         -DE/DX =    0.0                 !
 ! D14   D(4,3,15,18)          -69.2186         -DE/DX =    0.0                 !
 ! D15   D(13,3,15,16)        -100.4104         -DE/DX =    0.0                 !
 ! D16   D(13,3,15,17)         140.498          -DE/DX =    0.0                 !
 ! D17   D(13,3,15,18)          19.126          -DE/DX =    0.0                 !
 ! D18   D(28,3,15,16)           2.2916         -DE/DX =    0.0                 !
 ! D19   D(28,3,15,17)        -116.8            -DE/DX =    0.0                 !
 ! D20   D(28,3,15,18)         121.8279         -DE/DX =    0.0                 !
 ! D21   D(3,4,6,7)            178.2839         -DE/DX =    0.0                 !
 ! D22   D(3,4,6,8)             53.7805         -DE/DX =    0.0                 !
 ! D23   D(3,4,6,9)            -57.7908         -DE/DX =    0.0                 !
 ! D24   D(5,4,6,7)             -2.3318         -DE/DX =    0.0                 !
 ! D25   D(5,4,6,8)           -126.8353         -DE/DX =    0.0                 !
 ! D26   D(5,4,6,9)            121.5934         -DE/DX =    0.0                 !
 ! D27   D(4,6,7,10)          -179.9677         -DE/DX =    0.0                 !
 ! D28   D(4,6,7,11)           -60.0103         -DE/DX =    0.0                 !
 ! D29   D(4,6,7,12)            59.9507         -DE/DX =    0.0                 !
 ! D30   D(8,6,7,10)           -58.2921         -DE/DX =    0.0                 !
 ! D31   D(8,6,7,11)            61.6653         -DE/DX =    0.0                 !
 ! D32   D(8,6,7,12)          -178.3737         -DE/DX =    0.0                 !
 ! D33   D(9,6,7,10)            58.9174         -DE/DX =    0.0                 !
 ! D34   D(9,6,7,11)           178.8749         -DE/DX =    0.0                 !
 ! D35   D(9,6,7,12)           -61.1642         -DE/DX =    0.0                 !
 ! D36   D(3,15,16,22)          58.9855         -DE/DX =    0.0                 !
 ! D37   D(3,15,16,23)         -59.8515         -DE/DX =    0.0                 !
 ! D38   D(3,15,16,24)         179.6651         -DE/DX =    0.0                 !
 ! D39   D(17,15,16,22)       -175.2503         -DE/DX =    0.0                 !
 ! D40   D(17,15,16,23)         65.9127         -DE/DX =    0.0                 !
 ! D41   D(17,15,16,24)        -54.5707         -DE/DX =    0.0                 !
 ! D42   D(18,15,16,22)        -67.1985         -DE/DX =    0.0                 !
 ! D43   D(18,15,16,23)        173.9645         -DE/DX =    0.0                 !
 ! D44   D(18,15,16,24)         53.4811         -DE/DX =    0.0                 !
 ! D45   D(3,15,17,25)          59.8643         -DE/DX =    0.0                 !
 ! D46   D(3,15,17,26)         -58.8832         -DE/DX =    0.0                 !
 ! D47   D(3,15,17,27)        -179.5548         -DE/DX =    0.0                 !
 ! D48   D(16,15,17,25)        -65.4698         -DE/DX =    0.0                 !
 ! D49   D(16,15,17,26)        175.7826         -DE/DX =    0.0                 !
 ! D50   D(16,15,17,27)         55.111          -DE/DX =    0.0                 !
 ! D51   D(18,15,17,25)       -172.8103         -DE/DX =    0.0                 !
 ! D52   D(18,15,17,26)         68.4421         -DE/DX =    0.0                 !
 ! D53   D(18,15,17,27)        -52.2295         -DE/DX =    0.0                 !
 ! D54   D(3,15,18,19)         -61.8085         -DE/DX =    0.0                 !
 ! D55   D(3,15,18,20)         177.6319         -DE/DX =    0.0                 !
 ! D56   D(3,15,18,21)          56.9318         -DE/DX =    0.0                 !
 ! D57   D(16,15,18,19)         63.8103         -DE/DX =    0.0                 !
 ! D58   D(16,15,18,20)        -56.7494         -DE/DX =    0.0                 !
 ! D59   D(16,15,18,21)       -177.4494         -DE/DX =    0.0                 !
 ! D60   D(17,15,18,19)        171.0            -DE/DX =    0.0                 !
 ! D61   D(17,15,18,20)         50.4403         -DE/DX =    0.0                 !
 ! D62   D(17,15,18,21)        -70.2597         -DE/DX =    0.0                 !
 --------------------------------------------------------------------------------
 GradGradGradGradGradGradGradGradGradGradGradGradGradGradGradGradGradGrad

 Leave Link  103 at Tue Oct  4 20:59:33 2022, MaxMem=  2952790016 cpu:               0.5 elap:               0.1
 (Enter /mnt/data/applications/G16/g16/l9999.exe)

 ----------------------------------------------------------------------

 Electric dipole moment (input orientation):
 (Debye = 10**-18 statcoulomb cm , SI units = C m)
                  (au)            (Debye)         (10**-30 SI)
   Tot        0.172781D+01      0.439164D+01      0.146489D+02
   x         -0.151299D+01     -0.384564D+01     -0.128277D+02
   y          0.828515D+00      0.210587D+01      0.702444D+01
   z          0.986669D-01      0.250786D+00      0.836533D+00

 Dipole polarizability, Alpha (input orientation).
 (esu units = cm**3 , SI units = C**2 m**2 J**-1)
 Alpha(0;0):
               (au)            (10**-24 esu)      (10**-40 SI)
   iso        0.196973D+03      0.291884D+02      0.324765D+02
   aniso      0.351793D+02      0.521303D+01      0.580028D+01
   xx         0.214738D+03      0.318210D+02      0.354056D+02
   yx         0.387268D+01      0.573872D+00      0.638518D+00
   yy         0.199599D+03      0.295776D+02      0.329095D+02
   zx         0.385598D+01      0.571397D+00      0.635765D+00
   zy         0.367398D+01      0.544427D+00      0.605757D+00
   zz         0.176581D+03      0.261667D+02      0.291143D+02

 ----------------------------------------------------------------------

 Dipole orientation:
     1         -3.17572705          1.09382465         -0.80070124
     1         -2.05213646         -1.68971673         -3.38906412
    45         -0.94447753         -0.93486303         -0.69428472
     6          0.97215609          1.93779341         -2.62746587
     8          2.58959623          3.20825634         -1.63335079
     6          0.29617058          2.39181035         -5.38188431
     6          1.70782291          4.55405629         -6.63191048
     1         -1.74957130          2.66855065         -5.44855311
     1          0.62458571          0.60159672         -6.36403987
     1          1.11357931          4.75244666         -8.59768146
     1          1.34467009          6.34029055         -5.66857253
     1          3.74431820          4.23699050         -6.60486058
     6          1.99334583         -3.10211375         -1.21470502
     8          3.71588131         -4.30315103         -1.62735074
    15          0.28517562          0.90652679          3.25598999
     6         -1.22524212         -0.48806674          6.01160022
     6         -0.42795125          4.24029099          3.59524337
     6          3.62552471          0.68777392          4.00246243
     1          4.16695859         -1.29711000          4.14459908
     1          4.05829504          1.63307931          5.78475957
     1          4.69836079          1.56396724          2.47893439
     1         -0.78673542         -2.50104772          6.10086433
     1         -3.27040273         -0.27405739          5.85778022
     1         -0.58620769          0.41619062          7.75253355
     1         -2.46121727          4.51953831          3.41169029
     1          0.52224595          5.28641003          2.09982426
     1          0.19686541          4.94265902          5.43199495
     6         -3.38408293         -3.32419576          0.74505476
     8         -4.92857560         -4.62985785          1.43979919

 Electric dipole moment (dipole orientation):
 (Debye = 10**-18 statcoulomb cm , SI units = C m)
                  (au)            (Debye)         (10**-30 SI)
   Tot        0.172781D+01      0.439164D+01      0.146489D+02
   x          0.000000D+00      0.000000D+00      0.000000D+00
   y          0.000000D+00      0.000000D+00      0.000000D+00
   z          0.172781D+01      0.439164D+01      0.146489D+02

 Dipole polarizability, Alpha (dipole orientation).
 (esu units = cm**3 , SI units = C**2 m**2 J**-1)
 Alpha(0;0):
               (au)            (10**-24 esu)      (10**-40 SI)
   iso        0.196973D+03      0.291884D+02      0.324765D+02
   aniso      0.351793D+02      0.521303D+01      0.580028D+01
   xx         0.188346D+03      0.279100D+02      0.310541D+02
   yx         0.154110D+02      0.228368D+01      0.254093D+01
   yy         0.194877D+03      0.288778D+02      0.321308D+02
   zx        -0.689895D+01     -0.102232D+01     -0.113748D+01
   zy        -0.552545D+01     -0.818787D+00     -0.911023D+00
   zz         0.207696D+03      0.307774D+02      0.342445D+02

 ----------------------------------------------------------------------
 1\1\GINC-KIMIK2155\Freq\RwB97XD\Gen\C8H16O3P1Rh1\DGARAY\04-Oct-2022\0\
 \#P Geom=AllCheck Guess=TCheck SCRF=Check GenChk RwB97XD/ChkBas Freq\\
 Auto-generated job for I8\\0,1\H,0.1394449889,-0.417788999,-1.77334043
 14\H,0.917042813,-1.9909972218,-0.6245775345\Rh,-0.012040453,-0.761803
 6612,-0.2214157928\C,1.7661282556,0.3400118502,-0.1206317694\O,1.80757
 17596,1.4583159494,0.336527039\C,3.0396826486,-0.3130182127,-0.6323159
 256\C,4.27857422,0.5618405139,-0.5646218065\H,2.8314514583,-0.64535693
 ,-1.652520587\H,3.1662254931,-1.2344859846,-0.0555453464\H,5.144827555
 7,0.0202641977,-0.9497306036\H,4.1548665178,1.4695837482,-1.1570482082
 \H,4.4953441276,0.8654846332,0.4603334863\C,0.200497418,-1.1737327231,
 1.6741430362\O,0.3895805322,-1.4136835005,2.764634928\P,-1.2767850236,
 1.2615197812,0.0005069575\C,-3.0663359078,1.0658068039,-0.2622486955\C
 ,-0.8368720221,2.5781265127,-1.1656377394\C,-1.183238864,2.0624944669,
 1.6264423296\H,-1.5876394097,1.3904849336,2.3852951657\H,-1.7475358093
 ,2.9971454702,1.6409691627\H,-0.1371749503,2.2642145899,1.855205341\H,
 -3.4670998159,0.3471114832,0.4544410715\H,-3.2472839846,0.68550047,-1.
 2688996109\H,-3.590118624,2.0163212849,-0.1429760921\H,-0.9886007255,2
 .219788859,-2.1842295379\H,0.2140624148,2.8315622994,-1.0359730993\H,-
 1.4495585445,3.4663695856,-0.9988284316\C,-1.5357764011,-1.8987286478,
 -0.7021042341\O,-2.3566106676,-2.5877255523,-1.0654930715\\Version=AM6
 4L-G16RevA.03\State=1-A\HF=-992.2249527\RMSD=3.590e-09\RMSF=1.698e-05\
 ZeroPoint=0.2233936\Thermal=0.242553\Dipole=-1.5129899,0.8285149,0.098
 6669\DipoleDeriv=0.2263147,0.0029857,-0.0093137,0.0063463,0.1698739,0.
 1184245,-0.0703464,0.1019106,-0.3764029,-0.0483366,0.4323517,0.07429,0
 .361821,-0.4263258,-0.1231331,0.0740318,-0.1717507,0.1444171,-1.612666
 9,-0.7338015,-0.1293796,-0.4021313,-1.0422207,0.0396924,-0.0251246,0.2
 164442,-1.3504478,1.6690277,0.1128906,-0.2427195,0.5719224,1.6038673,0
 .3238696,-0.0809752,0.4703642,0.4439613,-1.1061261,-0.1211151,0.059079
 4,-0.6136683,-1.5135328,-0.3085326,-0.1300241,-0.4418588,-0.4640653,-0
 .2628956,0.1773143,0.1228851,0.0649901,-0.1466326,-0.1036806,0.0789746
 ,-0.1087476,0.0250078,-0.06675,-0.0997593,-0.0035974,0.0181771,0.10979
 72,0.0008306,0.0523869,0.0182839,0.1027283,-0.0229416,-0.0408468,-0.06
 25534,-0.0549469,0.0648687,-0.0226384,-0.0319395,-0.0560347,-0.0434221
 ,0.0011659,-0.0326039,0.032122,-0.0519927,-0.0367086,0.0771951,0.00466
 8,0.0924225,0.0318638,-0.1776031,0.0410466,0.0684561,0.0753392,0.00082
 97,-0.0480581,0.0838465,-0.0403981,0.0548819,0.0505503,0.0390194,-0.04
 11916,-0.0516751,-0.085895,0.0991632,-0.0169014,0.0961343,0.0029867,0.
 0535757,-0.0178649,-0.0038031,-0.0659723,0.0408753,-0.035848,-0.080562
 2,-0.0592497,-0.119515,0.7252076,-0.1032571,0.4014351,-0.0579579,0.741
 9703,-0.4502786,0.2787055,-0.6517608,2.4103168,-0.2887882,0.0932978,-0
 .3492769,0.0343131,-0.3378675,0.3763019,-0.197589,0.5439714,-1.8640052
 ,1.3228032,-0.1433412,-0.0072216,-0.1696774,1.3455077,-0.0139943,0.002
 5797,-0.0530352,1.1397613,-0.3973998,-0.0036375,-0.0270375,0.1500742,-
 0.3448561,0.0049159,0.0033784,-0.0250941,-0.2188921,-0.3301025,0.07701
 05,-0.0121418,0.0177077,-0.3698596,0.0930052,0.0554639,0.0025389,-0.25
 98005,-0.329746,0.0989597,0.0254733,0.0726741,-0.3723935,-0.103188,-0.
 0520005,-0.0105639,-0.3176814,0.0801577,-0.0255163,0.040755,-0.046753,
 0.0289315,0.0511171,0.0413449,0.0681276,-0.0214083,0.0527179,0.0994982
 ,0.0128974,0.1202329,-0.1022459,-0.0504965,0.0479902,-0.1013624,0.0412
 989,0.017371,-0.0395403,-0.0485175,-0.0368593,0.1080315,-0.0046337,-0.
 0632758,0.0203039,0.0803337,0.0459206,-0.0557824,0.037701,-0.0413435,0
 .0260665,0.0758902,0.0267262,0.0689123,0.0281192,0.0630447,-0.0209852,
 -0.0316879,-0.0251527,0.0763482,-0.0646644,-0.0237532,-0.0517793,-0.03
 64366,-0.0771835,0.1473112,0.0007339,0.0988396,-0.0456894,-0.0170354,-
 0.0072154,-0.0077802,0.1034233,0.0984829,-0.0003927,-0.0057267,-0.0232
 216,0.0671641,-0.0272963,-0.0154307,-0.029832,-0.0559986,-0.0018068,-0
 .0603342,0.0073567,-0.0610185,0.110809,0.0061092,0.0191181,-0.0198489,
 0.0843007,0.0460439,0.0858297,0.0214209,0.1222429,-0.128818,0.0190653,
 -0.0007372,0.0521851,0.0730404,1.4638237,0.9654747,0.4507619,0.9121784
 ,1.4236286,0.4236188,0.5724146,0.5267372,0.7384205,-1.1938608,-0.87421
 16,-0.3811997,-0.9244883,-0.9655239,-0.3357211,-0.5457542,-0.4492397,-
 0.3767858\Polar=214.7384364,3.8726777,199.5994811,3.8559796,3.6739754,
 176.5814155\Quadrupole=2.6688087,-1.107846,-1.5609628,-7.0466983,-1.93
 61163,-1.8058748\PG=C01 [X(C8H16O3P1Rh1)]\NImag=0\\0.02106165,0.003946
 39,0.02369591,-0.01519705,-0.02664634,0.14881993,0.00214476,-0.0004624
 6,-0.00158870,0.07327649,-0.00043641,0.00025063,0.00091257,-0.05786868
 ,0.09334811,-0.00396881,0.00399090,0.00341857,-0.02269026,0.02855748,0
 .02774679,-0.03225893,-0.00222991,0.02263393,-0.07184613,0.05068758,0.
 02132420,0.31360867,-0.00124665,-0.03419022,0.01935258,0.04864446,-0.0
 8275690,-0.02223903,-0.04487824,0.34650826,0.01468038,0.01594099,-0.12
 362544,0.02327552,-0.02634511,-0.03790608,-0.02663581,0.01286576,0.354
 40336,-0.00259298,-0.00356305,-0.00004687,0.00351506,-0.00044089,-0.00
 104685,-0.06280200,0.01185750,0.00026410,0.35490965,-0.00466912,-0.001
 17188,0.00356090,-0.00806204,-0.00133541,0.00042621,0.02013424,-0.0505
 4830,-0.00780607,-0.00009025,0.76381272,-0.00633414,-0.00369737,0.0025
 7414,-0.00268591,-0.00030271,0.00204133,0.01124591,0.00935785,-0.06994
 274,-0.03806473,0.23831253,0.28698074,0.00092944,0.00174367,-0.0010928
 7,-0.00096606,-0.00019716,0.00019252,0.00585778,-0.02763013,-0.0035696
 2,-0.08825681,-0.03473947,-0.00773014,0.09462407,0.00365274,0.00225715
 ,-0.00312082,0.00138763,0.00008236,-0.00035522,-0.01803882,-0.01929421
 ,0.00160605,-0.00667743,-0.62986830,-0.23683705,0.01010757,0.69312052,
 0.00218469,0.00142359,-0.00136796,0.00046039,0.00003097,-0.00030064,-0
 .00628099,-0.01131459,0.01943300,0.00431326,-0.23132689,-0.15321411,-0
 .00742213,0.27506514,0.13885493,0.00058104,0.00085607,-0.00086240,-0.0
 0234138,-0.00042077,0.00031280,-0.01329707,0.00209497,0.00848312,-0.16
 043036,0.02633841,0.02671551,0.00774798,0.01486335,0.00949162,0.455540
 31,0.00119365,0.00072745,-0.00209048,-0.00045229,-0.00170687,-0.000497
 12,-0.00927237,0.00815769,0.00539114,0.01458141,-0.07044451,-0.0011142
 1,0.03504388,-0.04333036,-0.03389512,0.02540753,0.53934538,0.00033408,
 0.00049285,-0.00117493,0.00018370,-0.00027661,-0.00008526,0.00066773,-
 0.00281052,0.01058763,0.02325451,-0.00323241,-0.08309408,0.01794695,-0
 .03014350,0.00858918,0.02897294,-0.00337610,0.54376595,0.00041313,0.00
 024376,-0.00032041,0.00058009,-0.00028531,-0.00010559,-0.00205181,0.00
 157634,0.00231094,-0.03208043,-0.01216564,0.00279340,0.00156754,-0.004
 26331,-0.00277611,-0.15893362,-0.06112778,-0.00662741,0.51409263,-0.00
 031563,-0.00035585,0.00052794,-0.00094348,0.00060803,0.00019879,0.0023
 0044,-0.00082380,-0.00266566,0.00766082,0.01060963,0.00169434,0.001989
 61,0.00052746,0.00071894,-0.05765880,-0.12722095,-0.00493145,-0.042938
 77,0.54832338,-0.00039774,-0.00016903,0.00038620,-0.00017650,0.0000810
 5,0.00019018,0.00148150,-0.00111190,0.00044268,0.00973646,0.00600613,0
 .00199363,-0.00020288,0.00200623,-0.00177566,-0.00537584,-0.00429922,-
 0.08389830,-0.00292178,-0.00079466,0.57692354,-0.00042718,-0.00004175,
 0.00010653,-0.00012811,-0.00019957,0.00012117,-0.00184565,-0.00001002,
 -0.00137092,0.00651679,0.00675430,0.02689504,-0.00421855,0.00403768,-0
 .00192862,-0.05332549,-0.01679971,-0.04231460,-0.00563037,-0.00793010,
 -0.02531376,0.06255023,-0.00011342,0.00003381,0.00022583,-0.00001240,-
 0.00041057,0.00013773,-0.00075704,-0.00017864,0.00107665,-0.00169403,-
 0.00870357,-0.01649728,0.00379196,-0.00123327,0.00070630,-0.01783961,-
 0.06225177,-0.07683652,-0.00299882,-0.00562509,-0.01724527,0.01860644,
 0.07188041,-0.00032850,-0.00024960,0.00039415,-0.00051723,0.00034402,0
 .00006734,-0.00049867,-0.00049771,0.00136174,-0.00535667,-0.00371778,-
 0.01076949,0.00286861,-0.00031919,-0.00017912,-0.04323838,-0.07392475,
 -0.28086513,0.00060619,0.00090755,0.00243440,0.04865971,0.08208406,0.3
 0224246,-0.00016362,0.00012128,0.00022307,-0.00021140,-0.00041247,-0.0
 0025160,-0.00122872,-0.00152009,0.00156667,-0.00110422,0.02229052,-0.0
 1667428,-0.00274229,0.00081490,0.00476446,-0.05077490,0.03019777,-0.02
 068290,0.00283248,-0.02403810,0.01520962,-0.00100743,0.00295551,-0.002
 08105,0.05730611,-0.00001166,-0.00001726,0.00009019,-0.00090000,0.0002
 5323,0.00007489,-0.00139224,0.00047385,-0.00214041,0.00120344,-0.01664
 506,0.00749311,0.00334858,0.00035206,-0.00208871,0.02840123,-0.2275544
 6,0.12212128,0.00213798,-0.01385931,0.00859337,-0.00199164,0.00720867,
 -0.00489251,-0.02859484,0.24967746,-0.00003795,0.00002368,0.00013665,0
 .00040263,-0.00051003,-0.00019529,0.00023105,0.00084791,-0.00044304,0.
 00369559,-0.01172273,0.00515052,0.00094312,-0.00030065,-0.00290236,-0.
 01926375,0.11834763,-0.11323698,0.00059431,-0.00306736,0.00152311,-0.0
 0613686,0.02631638,-0.01690514,0.01892919,-0.12870510,0.12487638,0.000
 22557,0.00014596,-0.00022426,0.00026422,-0.00010459,-0.00005508,-0.001
 34976,0.00035719,0.00101228,-0.00183146,-0.00361546,-0.00080844,0.0003
 9937,-0.00078056,-0.00034267,-0.02151304,0.01471411,0.00984910,-0.2127
 5992,0.10648984,0.07452031,0.00061693,0.00042408,-0.00064434,0.0009434
 8,-0.00012283,0.00047337,0.23197150,0.00011623,0.00007295,-0.00014033,
 0.00018798,-0.00008786,-0.00005735,-0.00070967,0.00048581,0.00065350,-
 0.00287656,-0.00379563,-0.00110504,0.00158048,0.00113941,-0.00002667,-
 0.01871187,0.01016566,0.00828197,0.10758790,-0.11496287,-0.04763446,0.
 00076575,0.00066094,-0.00015857,0.00073027,0.00077159,0.00026632,-0.11
 440803,0.12293609,-0.00001184,0.00000778,-0.00002242,0.00002460,-0.000
 01441,0.00001586,0.00001952,0.00007973,0.00007405,-0.00052633,-0.00096
 925,0.00033372,0.00064676,0.00048647,0.00045128,-0.00278992,0.00115174
 ,-0.00017213,0.07493870,-0.04738418,-0.08172425,0.00000353,0.00046535,
 0.00035890,0.00027431,-0.00008480,-0.00005886,-0.08203791,0.05290666,0
 .08293683,0.00002335,-0.00003720,-0.00002748,-0.00018775,0.00012462,0.
 00001509,-0.00003286,0.00019045,-0.00037366,0.00085309,-0.00144782,-0.
 00017135,-0.00017395,0.00109754,0.00046441,0.00399041,-0.02387764,0.01
 692365,-0.05118394,0.02862426,-0.01950109,0.00104753,0.00054313,-0.000
 31177,-0.00457383,-0.00291499,-0.00023612,-0.00274395,0.02010890,-0.01
 531374,0.05453012,0.00005412,0.00001372,-0.00010353,-0.00009038,0.0001
 1077,0.00004460,-0.00030027,0.00003753,0.00013899,0.00124767,-0.000837
 82,-0.00084742,0.00040424,0.00139405,0.00012059,0.00190471,-0.01591120
 ,0.01025289,0.02712600,-0.23131868,0.12214009,0.00032247,0.00018359,-0
 .00031785,-0.00347378,-0.00101527,-0.00079979,0.00121160,-0.01230528,0
 .00839226,-0.02738636,0.25137212,0.00001089,0.00002593,-0.00002964,0.0
 0004051,-0.00002868,-0.00000640,0.00005244,-0.00015499,-0.00006349,-0.
 00012867,0.00182997,0.00048972,-0.00069753,-0.00119285,0.00007591,0.00
 100803,-0.00304460,0.00113371,-0.01814676,0.12212574,-0.12850232,0.000
 56986,-0.00018334,0.00052258,-0.00044386,-0.00051597,0.00113220,0.0007
 2463,-0.01097910,0.00695604,0.02095914,-0.13371715,0.13409012,-0.00005
 505,-0.00004066,0.00007204,-0.00008554,0.00006304,0.00004024,-0.000034
 38,0.00007172,0.00036035,0.00073718,-0.00172353,-0.00145604,0.00016456
 ,0.00151366,0.00078838,-0.00549756,-0.00678088,-0.02751460,-0.05649135
 ,-0.01384867,-0.04721903,-0.00423550,-0.00306044,0.00060782,0.00103692
 ,0.00023892,0.00044788,0.00584633,0.00580472,0.02481180,-0.00161543,-0
 .00105162,-0.00390738,0.06018625,0.00003453,-0.00000590,0.00000662,-0.
 00001022,0.00003683,-0.00000861,-0.00020436,-0.00009445,0.00035366,0.0
 0101997,0.00013729,0.00007814,-0.00007746,0.00045216,0.00027639,-0.003
 61930,-0.00610871,-0.01937564,-0.01409851,-0.06683859,-0.06812881,-0.0
 0347795,-0.00156824,0.00034767,0.00069481,0.00022938,-0.00025460,-0.00
 399249,-0.00477473,-0.01499601,0.00497140,0.00830869,0.02579847,0.0187
 9034,0.07020985,0.00005371,-0.00001580,0.00001467,-0.00001551,0.000042
 03,-0.00001329,-0.00022928,0.00017596,0.00009874,0.00057683,-0.0014406
 7,-0.00058852,0.00113437,0.00103020,0.00073000,-0.00067008,0.00009922,
 0.00087589,-0.04941166,-0.06848373,-0.28841012,0.00029822,-0.00022488,
 0.00137794,-0.00034900,-0.00032639,0.00058819,-0.00191904,-0.00169145,
 -0.00912984,-0.00254125,-0.00518249,-0.01576706,0.05305696,0.07608132,
 0.31032756,0.01320720,-0.00049952,0.00378184,0.00260176,-0.00043232,0.
 00610141,-0.06119245,0.00894229,-0.00837548,-0.00480656,-0.01200728,0.
 00944439,0.00031787,0.00443541,0.00011218,0.00050007,0.00061438,-0.000
 33516,0.00010352,-0.00015378,-0.00043016,0.00020965,-0.00003784,-0.000
 30756,-0.00045606,0.00056744,0.00021857,0.00018274,0.00006077,-0.00001
 539,0.00009941,0.00014708,-0.00003486,-0.00010291,-0.00005720,0.000002
 92,0.12584326,-0.00022163,0.01144110,0.00864820,0.00135048,0.00166417,
 -0.00743320,0.00710573,-0.06590557,-0.00659781,-0.01109593,-0.00778770
 ,0.00533504,0.00321211,0.00513686,0.00194695,0.00114838,0.00147098,-0.
 00081288,0.00044400,-0.00064165,-0.00031951,0.00040683,0.00000362,-0.0
 0005358,0.00015997,-0.00017012,0.00014390,0.00034473,0.00014525,-0.000
 03691,-0.00007019,-0.00000407,0.00005974,-0.00006405,0.00011742,0.0000
 3334,-0.04290878,0.14689047,0.00196296,0.00925270,-0.02751339,-0.00142
 340,0.00279412,-0.00562519,-0.00029530,-0.00797175,-0.02946071,0.01678
 775,0.02332519,0.00509703,-0.00637100,-0.01610779,-0.00736941,-0.00388
 099,-0.00426315,-0.00080140,-0.00125327,0.00147214,0.00091616,0.000062
 73,0.00021248,-0.00022469,-0.00018476,0.00012813,0.00060432,-0.0009080
 1,-0.00042303,0.00003296,0.00003800,-0.00022632,-0.00012654,-0.0001438
 7,-0.00039641,-0.00019053,0.18898652,-0.23455044,1.16487929,-0.0046424
 1,0.00070402,-0.00339233,-0.00050090,0.00010395,-0.00158611,0.02096601
 ,-0.00122993,-0.00645674,0.00011552,0.00189224,-0.00260715,0.00031248,
 -0.00046343,0.00038221,0.00010966,-0.00010178,0.00014800,0.00005297,-0
 .00002552,0.00007411,-0.00005158,0.00005732,0.00013817,0.00012201,-0.0
 0010816,-0.00013985,0.00001505,0.00000537,-0.00000271,-0.00002886,-0.0
 0002889,0.00002201,0.00005825,0.00006209,0.00001581,-0.07185098,0.0412
 1126,-0.18298909,0.05275080,0.00021618,-0.00456129,-0.00069246,-0.0003
 4435,-0.00026887,0.00187709,-0.00068449,0.02106876,0.01667763,0.004301
 71,0.00423188,-0.00133905,-0.00163336,-0.00306021,-0.00111918,-0.00046
 940,-0.00071226,0.00037710,-0.00016645,0.00025037,0.00014480,-0.000151
 01,0.00001325,-0.00003155,-0.00003727,0.00002246,-0.00001804,-0.000148
 83,-0.00006507,0.00002138,0.00001488,-0.00000299,-0.00002653,0.0000113
 6,-0.00006807,-0.00002979,0.04157837,-0.09069084,0.22998401,-0.0427241
 5,0.07290746,-0.00082157,-0.00087817,-0.00139180,0.00051299,-0.0016885
 3,0.00436581,-0.00940331,0.01744660,-0.05468690,-0.01076942,-0.0140248
 2,-0.00167822,0.00435354,0.01008853,0.00431953,0.00202066,0.00247593,-
 0.00013027,0.00064505,-0.00086393,-0.00054163,0.00007791,-0.00005693,0
 .00027081,0.00016633,-0.00007981,-0.00021864,0.00052855,0.00024487,-0.
 00003751,-0.00002433,0.00007204,0.00008378,0.00010029,0.00027478,0.000
 14074,-0.18415275,0.22962262,-1.08624135,0.19187373,-0.24397796,1.1296
 5159,0.00049080,0.00149708,-0.00081902,0.00124511,0.00856768,0.0021132
 3,-0.04118572,0.00725590,0.00242212,-0.00869099,0.00695332,0.00172138,
 0.00112920,-0.00311006,-0.00051025,0.00039897,-0.00039632,-0.00031127,
 0.00023131,-0.00041777,-0.00014324,0.00011977,0.00002228,-0.00013564,0
 .00026390,0.00000484,0.00008381,0.00030381,0.00004603,-0.00004899,-0.0
 0006398,0.00005297,0.00003442,-0.00004368,0.00007648,0.00003356,-0.000
 42832,0.00561121,-0.00734553,0.00092946,-0.00200095,0.00464651,0.34263
 578,0.00088326,0.00004270,0.00121938,0.00827671,-0.00424658,-0.0028349
 7,0.00939806,-0.05668714,-0.00373526,0.00552175,0.01278254,0.00260703,
 -0.00099589,-0.00909319,-0.00196052,-0.00127037,-0.00197942,-0.0004895
 1,-0.00062090,0.00064537,0.00029306,0.00004156,-0.00010544,-0.00011113
 ,0.00010209,-0.00010135,-0.00009090,-0.00033465,-0.00021707,0.00000629
 ,-0.00005526,-0.00013079,0.00006240,-0.00003032,-0.00005259,-0.0000632
 6,0.00753719,-0.00716969,0.01286922,-0.00288271,0.00276123,-0.00801143
 ,0.01344040,0.34198251,0.00251965,-0.00448534,-0.00091247,0.00261300,-
 0.00332571,0.00510847,-0.00135625,0.00237032,-0.03593256,0.00176336,0.
 00205046,0.00356588,-0.00028497,-0.00226727,-0.00304686,-0.00000584,-0
 .00040879,-0.00001237,-0.00009038,0.00008114,0.00004678,0.00009486,-0.
 00014243,-0.00004632,-0.00013186,0.00002503,-0.00008396,-0.00005110,-0
 .00002346,-0.00000513,0.00007445,0.00006306,-0.00000124,-0.00005667,-0
 .00002009,-0.00006142,-0.00438385,0.00917010,0.00057630,0.00116936,-0.
 00259352,-0.00042628,0.00207224,-0.00417397,0.35701859,0.00025451,-0.0
 0029468,-0.00002990,-0.00017527,0.00136711,0.00044804,-0.00338562,-0.0
 0077911,-0.00153150,0.00023764,0.00013478,-0.00006661,-0.00032264,0.00
 004279,-0.00005238,-0.00012165,-0.00002551,0.00002049,-0.00001534,0.00
 002408,0.00002912,-0.00001007,0.00000233,-0.00001607,0.00000506,-0.000
 02571,0.00002266,-0.00003804,-0.00000223,0.00000602,0.00000236,-0.0000
 1471,-0.00000001,-0.00000065,-0.00000890,-0.00001075,0.00032469,-0.000
 35897,0.00135950,-0.00011749,0.00015280,-0.00077706,-0.16681358,-0.016
 10633,-0.01761861,0.41263377,-0.00043649,0.00065086,-0.00024674,0.0002
 0943,-0.00347596,-0.00104219,0.00939797,0.00266804,0.00367842,-0.00113
 465,-0.00168717,-0.00010978,0.00114861,0.00150339,0.00028428,0.0003154
 0,0.00025373,0.00008733,0.00007396,-0.00010241,-0.00006602,0.00000768,
 -0.00003885,0.00005406,-0.00003167,0.00007278,-0.00008101,0.00008069,0
 .00003346,-0.00000990,0.00002483,0.00005632,-0.00001588,0.00000404,0.0
 0001835,0.00001851,-0.00087151,0.00101216,-0.00409389,0.00039144,-0.00
 043268,0.00231545,0.00491274,-0.04760507,0.00116537,-0.01579375,0.5470
 5034,-0.00014828,0.00028963,0.00007431,-0.00000405,-0.00032729,-0.0003
 4206,0.00124133,-0.00005884,0.00212694,-0.00023828,-0.00017978,-0.0001
 5069,0.00018115,0.00014472,0.00056424,0.00001433,0.00008213,-0.0000435
 2,0.00000870,0.00000364,-0.00003254,0.00000727,0.00001059,0.00000615,-
 0.00001011,0.00000925,-0.00000106,0.00001399,-0.00000023,0.00000277,-0
 .00001194,-0.00000751,0.00000273,0.00000892,0.00000112,0.00001451,-0.0
 0004223,-0.00022531,-0.00089676,0.00006667,-0.00001649,0.00059311,-0.0
 1355215,-0.00158419,-0.05221601,-0.02111044,-0.00278686,0.54608140,0.0
 0041032,-0.00056198,-0.00001202,-0.00138828,0.00049184,0.00084489,0.00
 407041,0.00738338,-0.00492489,0.00154555,0.00050043,0.00034082,-0.0003
 5936,-0.00096201,-0.00041384,-0.00011442,-0.00004593,-0.00010392,-0.00
 001428,0.00006857,0.00001381,0.00001213,0.00000352,-0.00004359,-0.0000
 3968,-0.00005448,0.00004636,-0.00005357,-0.00002408,0.00000639,-0.0000
 0764,-0.00003486,0.00001656,-0.00000630,-0.00001975,-0.00001821,-0.000
 11283,-0.00010566,0.00164217,-0.00003560,0.00001981,-0.00111570,-0.052
 94259,-0.01221468,0.00874456,-0.00798408,-0.02021625,0.01886907,0.5474
 1836,-0.00065972,0.00080468,0.00018354,0.00132318,-0.00071665,-0.00101
 246,-0.00245215,-0.00773198,0.00685827,-0.00225272,-0.00065621,-0.0003
 2481,0.00143297,0.00106605,0.00120539,0.00012666,0.00002921,0.00020683
 ,0.00004139,-0.00011513,-0.00002761,-0.00001163,-0.00001638,0.00001648
 ,0.00009518,0.00007671,-0.00008465,0.00007790,0.00003012,-0.00000543,0
 .00000583,0.00004968,-0.00001199,0.00000556,0.00002230,0.00001797,-0.0
 0007341,-0.00012357,-0.00229236,0.00012892,-0.00001700,0.00152672,-0.0
 2762025,-0.11846181,0.06509171,-0.00015055,-0.00335231,0.00310686,-0.0
 2457669,0.47655787,-0.00018335,0.00039237,-0.00029478,0.00039436,-0.00
 027538,-0.00046617,-0.00025832,-0.00248815,0.00311474,-0.00108329,-0.0
 0111081,-0.00081874,-0.00068593,0.00220152,0.00010876,0.00009280,0.000
 18180,0.00029274,0.00002976,0.00001107,-0.00004367,-0.00006053,0.00005
 423,0.00004821,0.00001222,-0.00000175,-0.00002330,0.00001844,0.0000033
 8,0.00000674,-0.00002238,-0.00000812,-0.00000372,0.00001806,-0.0000027
 5,0.00002140,-0.00006821,-0.00011029,-0.00124049,0.00007548,-0.0000273
 3,0.00081537,0.01831931,0.05085752,-0.09564530,-0.00122695,-0.00227000
 ,0.00402682,0.02493022,0.06808709,0.49133915,-0.00019541,0.00024454,-0
 .00001845,-0.00168570,0.00137235,-0.00034306,0.00336267,0.00354802,0.0
 0534108,0.00112178,0.00021120,0.00015863,-0.00063504,-0.00054424,0.000
 01534,-0.00007499,0.00001897,-0.00006162,0.00000757,0.00000743,0.00002
 717,-0.00000043,0.00001293,-0.00003536,0.00001194,-0.00003506,0.000056
 22,-0.00004033,-0.00000552,0.00000289,-0.00000364,-0.00002833,0.000003
 02,-0.00001053,-0.00001574,-0.00002018,0.00083148,-0.00127268,0.002104
 49,-0.00041539,0.00063930,-0.00121877,-0.04844975,0.00121300,0.0064049
 9,-0.00215794,-0.01170326,-0.02645967,0.00235804,0.00440879,0.00760034
 ,0.55454396,0.00016247,-0.00043219,-0.00009448,0.00223140,-0.00247756,
 0.00059242,-0.00204889,-0.00332024,-0.00795785,-0.00196502,-0.00102354
 ,-0.00004619,0.00100815,0.00197455,-0.00023111,0.00018949,0.00015527,0
 .00019124,0.00003461,-0.00005061,-0.00003915,-0.00001231,-0.00002038,0
 .00007854,-0.00004951,0.00005175,-0.00008239,0.00005760,0.00002457,-0.
 00000385,0.00002565,0.00005418,-0.00001795,0.00001210,0.00001680,0.000
 02196,-0.00128780,0.00192339,-0.00413264,0.00059974,-0.00064827,0.0022
 5512,-0.00566059,-0.07655534,-0.06058873,0.00080604,-0.00150516,-0.003
 70134,0.00241666,0.00812729,0.01824144,-0.00434004,0.52303484,0.000016
 10,-0.00002015,0.00007663,-0.00014086,0.00029112,-0.00015699,-0.000219
 19,0.00039171,0.00149083,0.00069339,0.00128183,0.00034287,0.00113286,-
 0.00170660,-0.00088537,-0.00006040,-0.00020542,-0.00013830,-0.00003425
 ,0.00001256,-0.00001022,0.00002733,0.00000655,-0.00001276,0.00001108,-
 0.00004650,0.00001554,0.00000030,-0.00001226,-0.00000019,-0.00001755,-
 0.00001763,0.00000978,0.00000371,0.00000303,0.00000867,0.00009714,-0.0
 0036252,0.00007372,-0.00016328,0.00037950,-0.00028866,-0.00704152,-0.0
 4320376,-0.14116149,-0.00016647,-0.00288605,-0.00342647,-0.00120258,-0
 .00822408,-0.01568896,-0.00957688,-0.05552181,0.43256716,-0.00003310,0
 .00002670,-0.00006204,-0.00002416,0.00000299,0.00003522,0.00006489,0.0
 0007819,-0.00047522,-0.00029716,-0.00076843,-0.00020401,-0.00047726,0.
 00083190,0.00045261,0.00000746,0.00014970,0.00005017,0.00002063,0.0000
 0274,0.00000263,-0.00001877,0.00001016,0.00001260,-0.00002650,0.000018
 76,0.00001000,-0.00000296,0.00000603,0.00000200,0.00000475,0.00000118,
 -0.00000869,0.00000217,-0.00000615,0.00000096,-0.00009601,0.00023016,0
 .00119187,-0.00028637,0.00021111,-0.00089118,-0.00121029,0.00113787,-0
 .00249037,0.00011651,0.00030658,0.00032291,0.00018940,-0.00020722,-0.0
 0106436,-0.08188490,-0.06214300,0.07156590,0.08542141,-0.00000147,0.00
 001368,0.00006329,-0.00004384,0.00006915,-0.00004787,-0.00021167,0.000
 15082,0.00046754,0.00002663,0.00015044,0.00003305,0.00009400,-0.000100
 22,0.00004854,-0.00001693,0.00000513,-0.00001817,-0.00000055,0.0000040
 0,0.00000311,0.00000105,0.00000070,-0.00000296,-0.00000271,0.00000194,
 0.00000496,-0.00000269,-0.00000072,0.00000034,-0.00000236,-0.00000329,
 -0.00000205,-0.00000088,-0.00000318,0.00000053,0.00017999,-0.00015345,
 -0.00007569,0.00025214,-0.00008954,-0.00000265,0.00524426,0.00671906,-
 0.00806007,0.00028050,0.00031147,0.00081253,-0.00066534,-0.00135774,-0
 .00302005,-0.06143268,-0.14701922,0.11702954,0.06838239,0.15891604,0.0
 0002556,0.00004401,0.00011819,0.00004389,0.00011129,-0.00015759,-0.000
 74372,-0.00015124,0.00138249,0.00011462,0.00052154,0.00006092,-0.00000
 636,-0.00038369,-0.00002188,-0.00003749,-0.00004858,-0.00002436,-0.000
 01121,0.00001561,0.00000424,-0.00000360,0.00000472,-0.00000757,0.00000
 477,-0.00000666,0.00000694,-0.00000506,-0.00000635,-0.00000049,-0.0000
 0643,-0.00000824,0.00000193,-0.00000053,-0.00000179,0.00000081,0.00024
 323,-0.00013520,-0.00022504,-0.00006192,-0.00014720,0.00016037,0.00882
 021,0.01599930,-0.01466781,-0.00004964,0.00038429,0.00154649,-0.000888
 45,-0.00362202,-0.00530572,0.07412208,0.12340307,-0.17778420,-0.077632
 01,-0.12856571,0.18843345,-0.00002790,-0.00003740,0.00004712,-0.000079
 78,-0.00006430,0.00000008,0.00055985,0.00007282,-0.00030437,-0.0000977
 1,-0.00093224,-0.00038689,-0.00037869,0.00071872,0.00078494,0.00000623
 ,0.00011701,0.00000101,0.00000165,0.00000919,-0.00000290,-0.00000470,-
 0.00000208,0.00000486,-0.00000649,0.00001836,-0.00000390,-0.00000731,0
 .00000193,0.00000334,0.00000150,-0.00000239,0.00000374,0.00000489,0.00
 000135,-0.00000148,-0.00002878,-0.00006322,0.00002168,-0.00000558,-0.0
 0001341,0.00003363,-0.00044325,-0.00231985,-0.00113380,0.00060898,-0.0
 0065696,0.00037800,-0.00009292,-0.00016292,0.00025128,-0.11888860,0.12
 003068,0.00124118,0.00644348,-0.01120224,-0.00115016,0.12432117,0.0000
 1069,-0.00004749,-0.00005604,0.00038885,-0.00051133,0.00015919,-0.0003
 7081,-0.00023154,-0.00145772,-0.00052280,-0.00047984,-0.00009590,0.000
 08054,0.00050953,0.00028462,0.00006261,0.00005673,0.00001576,0.0000124
 1,-0.00001482,-0.00001329,0.00000123,-0.00000352,0.00001606,-0.0000094
 5,0.00002068,-0.00001641,0.00001941,0.00000566,-0.00000201,0.00000347,
 0.00001257,-0.00000278,0.00000280,0.00000620,0.00000705,-0.00035221,0.
 00052148,-0.00075286,0.00006802,-0.00007848,0.00033790,0.00549866,-0.0
 1041881,-0.00040301,-0.00012215,0.00054874,0.00065666,-0.00052923,0.00
 095969,0.00081083,0.12253897,-0.24647207,0.00109802,0.00973060,-0.0144
 5657,-0.00186626,-0.13230954,0.26205032,0.00004874,-0.00012991,0.00004
 509,0.00087174,-0.00088499,0.00010090,-0.00122746,-0.00116308,-0.00187
 084,-0.00085990,-0.00056255,-0.00016738,0.00026214,0.00083652,0.000402
 54,0.00007415,0.00009759,0.00003339,0.00001535,-0.00001764,-0.00001832
 ,-0.00000303,-0.00001349,0.00002722,-0.00002110,0.00002849,-0.00003210
 ,0.00002286,0.00001015,-0.00000030,0.00000847,0.00001926,-0.00000426,0
 .00000742,0.00000936,0.00000916,-0.00065838,0.00084754,-0.00212939,0.0
 0036010,-0.00040515,0.00136544,0.01204360,-0.02134787,-0.00410888,0.00
 072961,0.00077596,0.00138563,0.00023703,-0.00004355,0.00185117,0.00550
 601,-0.00610504,-0.04126446,-0.01305552,0.01844026,0.00095903,-0.00121
 304,0.00127563,0.04423251,0.00001332,0.00002946,0.00000328,-0.00007479
 ,0.00002841,-0.00000244,0.00023055,-0.00010036,0.00009348,0.00019146,0
 .00056192,0.00005982,-0.00287328,0.00013388,0.00054412,0.00003463,-0.0
 0021463,0.00007301,-0.00001236,-0.00001212,0.00000296,0.00002072,0.000
 00656,-0.00001487,0.00007810,-0.00000861,-0.00002521,0.00001347,-0.000
 00180,-0.00000606,-0.00000361,0.00000667,0.00000145,-0.00000766,0.0000
 0494,-0.00000073,0.00007930,-0.00002878,-0.00027228,-0.00000332,-0.000
 03597,0.00019264,-0.00117816,-0.00027795,-0.00088298,0.00056584,0.0000
 6840,0.00035824,0.00008426,0.00012949,-0.00021541,-0.30275675,-0.04992
 795,-0.05734078,-0.00842017,-0.00082857,-0.00276603,-0.01204714,-0.003
 91949,-0.00280017,0.32570819,-0.00007156,-0.00004068,0.00009386,-0.000
 12966,0.00001946,-0.00005458,0.00066111,0.00041016,0.00060489,0.000063
 23,-0.00140660,-0.00061931,-0.00003289,0.00088726,0.00087432,-0.000045
 78,0.00024211,-0.00006280,0.00000999,0.00002338,-0.00000121,-0.0000123
 4,-0.00001070,0.00001191,-0.00005020,0.00001756,0.00000920,-0.00002200
 ,0.00000149,0.00000615,0.00000724,-0.00000850,0.00000623,0.00001200,0.
 00000355,-0.00000341,-0.00022411,-0.00040242,-0.00034154,0.00006013,0.
 00002493,0.00023850,-0.01125517,-0.00348651,-0.00062904,0.00027915,-0.
 00102022,-0.00309087,0.00037194,0.00011547,0.00039737,-0.05216077,-0.0
 5543906,-0.00994535,-0.01788678,-0.00407971,-0.00596472,0.02666784,0.0
 0702742,0.00678612,0.05445008,0.05640725,-0.00013304,-0.00002064,0.000
 06243,-0.00020441,-0.00003959,-0.00006483,0.00105663,0.00092507,0.0004
 0104,-0.00047865,-0.00242161,-0.00084753,0.00000204,0.00195179,0.00115
 267,-0.00001502,0.00045238,0.00011086,0.00004279,0.00002233,0.00001621
 ,-0.00006059,0.00001193,0.00003432,-0.00007483,0.00005247,0.00001646,-
 0.00002973,0.00001345,0.00000656,0.00001517,-0.00000303,-0.00001754,0.
 00000915,-0.00001284,-0.00000200,0.00002609,-0.00019958,0.00078562,-0.
 00006304,0.00001081,-0.00049846,-0.02330244,-0.00359170,-0.00416115,0.
 00016281,-0.00280470,-0.00611971,0.00046996,0.00064269,0.00118516,-0.0
 6331187,-0.01045198,-0.05428831,0.02269730,0.00364854,0.00606002,0.001
 23505,0.00021137,-0.00101432,0.06281984,0.01177996,0.05731897,-0.00001
 130,-0.00007986,-0.00011247,-0.00011356,-0.00018525,0.00005927,0.00152
 166,0.00046806,-0.00068939,-0.00015874,-0.00059120,-0.00003711,-0.0000
 0531,0.00049149,-0.00000706,0.00005621,0.00007888,0.00003505,0.0000200
 6,-0.00002613,-0.00000655,-0.00000182,-0.00000525,0.00000667,-0.000009
 48,0.00000814,-0.00000525,0.00000977,0.00001066,-0.00000030,0.00000867
 ,0.00001054,-0.00000494,0.00000070,0.00000181,0.00000026,-0.00027521,0
 .00013443,-0.00008377,0.00004174,-0.00003210,0.00000528,-0.00699181,-0
 .01647548,0.01812713,-0.08033396,-0.07020292,0.07207266,-0.00699605,-0
 .00047102,-0.00185574,0.00146875,0.00046040,0.00009542,-0.00014677,-0.
 00021624,-0.00068969,-0.00005282,0.00003620,-0.00002485,-0.00000297,0.
 00041104,0.00017534,0.08440051,0.00002311,-0.00002908,0.00001002,-0.00
 001416,-0.00001409,0.00003542,0.00018889,0.00010590,-0.00036885,0.0000
 2859,-0.00003246,-0.00000773,0.00000302,-0.00000927,-0.00003648,0.0000
 0801,-0.00000164,0.00000412,0.00000192,0.00000087,0.00000249,-0.000002
 28,-0.00000028,0.00000175,-0.00000040,0.00000130,-0.00000023,-0.000000
 48,-0.00000022,-0.00000014,0.00000131,0.00000105,-0.00000051,-0.000000
 42,-0.00000032,-0.00000108,-0.00009422,0.00005847,0.00009272,0.0000120
 2,-0.00000811,-0.00005910,-0.00007085,-0.00289201,0.00080646,-0.065619
 27,-0.16491326,0.12023694,-0.00086384,0.00035517,-0.00008415,0.0002283
 5,-0.00005555,-0.00011229,-0.00022313,-0.00001138,-0.00029284,-0.00004
 740,-0.00001941,0.00007137,0.00005014,0.00012140,-0.00010045,0.0719838
 4,0.17490939,-0.00000486,0.00001641,0.00003775,0.00002333,-0.00002306,
 -0.00003029,-0.00027939,-0.00023460,-0.00004088,0.00008662,0.00011221,
 0.00000133,-0.00005086,-0.00014534,-0.00006297,-0.00001539,-0.00002660
 ,-0.00000322,-0.00000696,0.00000687,0.00000615,-0.00000211,0.00000211,
 0.00000112,0.00000157,-0.00000123,0.00000098,-0.00000418,-0.00000192,-
 0.00000036,-0.00000020,-0.00000189,-0.00000038,-0.00000007,-0.00000106
 ,-0.00000080,0.00006047,-0.00000389,0.00025818,-0.00001692,0.00001206,
 -0.00012944,-0.00227270,-0.00364500,0.00173584,0.06689719,0.11849409,-
 0.16262979,-0.00135553,-0.00041005,0.00001095,0.00051423,0.00000431,0.
 00030574,-0.00033907,-0.00011350,-0.00020443,-0.00002398,-0.00002178,-
 0.00001975,0.00004296,0.00009682,0.00015162,-0.07255088,-0.12999967,0.
 17442594,-0.00009322,0.00003242,0.00015568,-0.00013215,-0.00003960,-0.
 00012163,0.00125443,-0.00002234,0.00101485,-0.00017785,-0.00045655,-0.
 00021444,0.00000189,0.00037955,0.00023577,0.00003469,0.00007526,0.0000
 0676,0.00001584,-0.00001330,-0.00001112,-0.00000614,0.00000951,0.00001
 094,-0.00000421,0.00000377,0.00000227,0.00000997,0.00000603,0.00000046
 ,-0.00000157,0.,-0.00000273,0.00000612,0.00000253,0.00000747,-0.000066
 80,-0.00017502,-0.00031471,0.00006194,0.00000027,0.00028755,-0.0022785
 4,-0.00863353,-0.02412776,-0.04871440,-0.01751333,-0.04831527,0.001623
 36,0.00047333,0.00043208,-0.00729213,-0.00072530,-0.00027568,0.0001049
 1,0.00030066,0.00031921,0.00006807,0.00001713,0.00035290,0.00022782,-0
 .00106405,-0.00205665,0.00169110,0.00542126,0.01166953,0.05172837,-0.0
 0002274,0.00003316,0.00001566,-0.00000612,0.00005242,-0.00000570,-0.00
 022149,-0.00017846,0.00001995,0.00014405,0.00009403,-0.00000033,-0.000
 07383,-0.00016088,-0.00000263,-0.00002500,-0.00001565,-0.00001338,-0.0
 0000778,0.00001238,0.00000420,-0.00000172,0.00000347,-0.00000069,-0.00
 000199,-0.00000212,0.00000378,-0.00000773,-0.00000248,0.00000092,-0.00
 000131,-0.00000558,0.00000017,0.00000131,-0.00000244,-0.00000001,0.000
 03418,-0.00004892,0.00024364,-0.00003106,0.00003305,-0.00013122,-0.000
 18324,-0.00284236,-0.00196661,-0.01474938,-0.07811519,-0.08956491,0.00
 033009,-0.00006617,0.00009395,-0.00109030,0.00023711,-0.00016462,0.000
 04415,-0.00000679,-0.00019566,0.00008547,0.00033463,0.00034189,0.00000
 442,0.00027878,-0.00035845,0.00504373,0.00785046,0.01987785,0.01673631
 ,0.08126208,-0.00008011,0.00001693,0.00000980,-0.00006829,0.00004449,-
 0.00000751,0.00054206,0.00013762,0.00054282,-0.00009815,-0.00020857,-0
 .00006567,0.00002982,0.00020858,0.00008542,0.00001984,0.00003721,0.000
 00325,0.00000918,-0.00000861,-0.00000638,-0.00000042,0.00000030,0.0000
 0205,-0.00000244,0.00000247,0.00000027,0.00000461,0.00000344,0.0000003
 1,0.00000087,0.00000153,-0.00000064,0.00000110,0.00000121,0.00000190,0
 .00000222,-0.00007449,-0.00022596,0.00002082,0.00000145,0.00014793,0.0
 0084420,-0.00066697,-0.00360456,-0.04149795,-0.08896247,-0.27968661,-0
 .00005448,-0.00003070,0.00028994,-0.00080626,0.00028698,0.00039887,0.0
 0010577,0.00001467,0.00023892,0.00007339,0.00010399,0.00009484,0.00015
 390,-0.00014949,-0.00003687,-0.00435013,-0.00793650,-0.01713700,0.0455
 9521,0.09658944,0.30008467,0.00016439,-0.00028976,0.00007207,-0.000193
 74,0.00128412,0.00040507,-0.00204288,-0.00094676,-0.00143287,0.0004737
 2,0.00037592,-0.00000200,-0.00049093,-0.00035676,-0.00008806,-0.000120
 59,-0.00006233,-0.00001889,-0.00002316,0.00003632,0.00002666,-0.000007
 07,0.00001161,-0.00002031,0.00000575,-0.00002862,0.00003179,-0.0000360
 6,-0.00000895,0.00000525,-0.00000488,-0.00002088,0.00000430,-0.0000000
 3,-0.00000842,-0.00000891,0.00031057,-0.00043437,0.00160187,-0.0001499
 9,0.00017750,-0.00091400,-0.01546090,0.02194092,0.00240932,-0.10524743
 ,0.12098507,0.01642592,0.00193715,0.00058490,-0.00014306,0.00196041,0.
 00022576,0.00075649,-0.00001541,-0.00007040,-0.00002841,0.00005946,-0.
 00062573,-0.00067784,0.00016054,-0.00008671,0.00054999,0.00605344,-0.0
 1143293,-0.00247865,0.00248712,-0.00638048,-0.00024415,0.11071007,-0.0
 0000972,-0.00008025,0.00002088,-0.00006683,0.00005936,0.00007504,0.000
 23204,0.00019656,-0.00021782,-0.00012438,-0.00020473,-0.00004086,-0.00
 008323,0.00015776,0.00004343,0.00002984,0.00003950,0.00000285,0.000010
 67,-0.00000907,-0.00000717,-0.00000198,0.00000227,0.00000198,-0.000004
 56,0.00000346,0.00000245,0.00000800,0.00000278,-0.00000045,0.00000014,
 0.00000211,0.00000012,0.00000107,0.00000243,0.00000247,-0.00007719,-0.
 00001395,-0.00010181,0.00001642,0.00000101,0.00004904,-0.00322504,0.00
 210104,0.00030067,0.11210880,-0.25223278,-0.02587184,-0.00003789,0.000
 99240,-0.00004043,-0.00003067,0.00076856,0.00041480,0.00005381,-0.0000
 7056,-0.00001431,0.00016577,-0.00005036,0.00021411,-0.00004932,0.00012
 022,0.00010603,0.00992506,-0.01585629,-0.00377760,0.00436068,-0.008226
 09,0.00039731,-0.12312024,0.27199280,-0.00006150,0.00005150,0.00005066
 ,-0.00005371,0.00026754,0.00001264,-0.00032080,-0.00029300,0.00052551,
 0.00002910,0.00004381,-0.00003016,-0.00006504,-0.00002134,-0.00003061,
 -0.00001583,-0.00001138,0.00000200,-0.00000160,0.00000165,0.00000656,-
 0.00000191,0.00000180,-0.00000250,0.00000250,-0.00000500,0.00000536,-0
 .00000399,-0.00000072,0.00000036,-0.00000015,-0.00000139,0.00000021,-0
 .00000058,-0.00000058,-0.00000242,0.00017714,-0.00025921,0.00031494,-0
 .00005123,0.00008256,-0.00016714,-0.00261426,0.00342331,-0.00096393,0.
 01464453,-0.02467651,-0.04920566,0.00038933,-0.00025279,-0.00027157,0.
 00019198,0.00072672,0.00010958,-0.00004393,0.00003591,-0.00006561,-0.0
 0018361,-0.00027891,0.00000831,0.00010968,-0.00004056,0.00008704,-0.01
 145152,0.01756269,0.00280667,0.01506938,-0.02512260,-0.00125144,-0.015
 84079,0.02863860,0.04813950,-0.00000559,0.00013024,0.00007299,0.000004
 17,0.00000335,-0.00000733,-0.00019758,0.00014285,-0.00023711,-0.000183
 38,-0.00054579,-0.00041144,-0.00041136,0.00081579,-0.00014168,0.000007
 35,0.00005585,0.00012052,0.00000648,0.00002767,-0.00000246,-0.00004614
 ,0.00005962,0.00003069,-0.00000074,-0.00000394,0.00001322,-0.00000272,
 -0.00000094,0.00000271,-0.00001452,-0.00002221,-0.00001248,0.00001308,
 -0.00000793,0.00001577,-0.00002091,0.00002796,0.00009698,0.00001897,-0
 .00002673,0.00001271,-0.00091346,0.00232043,0.00660953,0.00020375,0.00
 055907,-0.00040258,-0.04894523,-0.01091990,-0.03545709,-0.00041641,-0.
 00153547,0.00148223,0.00036043,0.00013545,0.00060770,0.00001511,-0.000
 21246,-0.00033419,0.00006471,-0.00000214,0.00017363,0.00019056,0.00002
 777,-0.00012591,-0.00040804,-0.00040109,0.00017652,-0.00001354,0.00001
 940,0.00006910,0.04973047,0.00019946,-0.00029552,-0.00006291,0.0000240
 8,-0.00003518,0.00009758,-0.00024598,0.00046379,-0.00064928,0.00017890
 ,0.00033455,0.00020106,0.00010664,-0.00027194,-0.00015227,-0.00003065,
 -0.00003134,-0.00000586,-0.00001056,0.00001803,0.00000076,0.00000024,-
 0.00001027,-0.00001268,-0.00000658,-0.00000108,-0.00000017,-0.00001017
 ,-0.00000314,0.00000024,0.00000124,-0.00000505,-0.00000123,-0.00000379
 ,-0.00000664,-0.00000212,0.00005193,0.00009321,0.00011591,-0.00007110,
 0.00003686,-0.00025313,0.00389202,0.00663142,0.01768086,0.00052457,0.0
 0073356,-0.00092530,-0.01129330,-0.07157638,-0.08317894,-0.00198632,-0
 .00398903,0.00318406,0.00007420,0.00105122,0.00153524,-0.00019835,0.00
 002819,-0.00010784,0.00003204,-0.00015122,-0.00027276,0.00038182,-0.00
 006534,-0.00003429,-0.00049471,-0.00011938,-0.00000608,-0.00004759,-0.
 00006249,-0.00005404,0.01402780,0.07760124,-0.00001156,-0.00021171,0.0
 0045653,-0.00010977,0.00009100,-0.00003930,0.00037455,-0.00044835,0.00
 057956,-0.00024385,-0.00056080,-0.00038484,-0.00002769,0.00060400,0.00
 016755,0.00002813,0.00007203,0.00003301,0.00001503,-0.00000848,-0.0000
 0561,-0.00001701,0.00002078,0.00001457,0.00000098,-0.00000280,0.000006
 24,0.00000643,0.00000506,0.00000224,-0.00000415,-0.00000406,-0.0000032
 4,0.00000717,0.00000071,0.00000618,-0.00004146,-0.00016243,-0.00002508
 ,0.00005761,0.00000580,0.00020623,-0.00304261,-0.00725564,-0.01487434,
 -0.00008539,-0.00046240,0.00086016,-0.03794553,-0.08889017,-0.28894731
 ,0.00138717,0.00366336,-0.00200822,-0.00023109,-0.00066040,-0.00105109
 ,-0.00001840,0.00016002,0.00045124,-0.00001883,0.00003278,0.00025627,-
 0.00019485,0.00012239,0.00019831,0.00047946,0.00017067,0.00015345,-0.0
 0001332,0.00002587,-0.00004942,0.03953014,0.09336076,0.30777661,0.0000
 1107,-0.00002606,-0.00000587,-0.00002403,-0.00001895,0.00000772,0.0000
 9632,-0.00005397,0.00002297,-0.00017545,0.00087503,-0.00013472,-0.0033
 3696,0.00110809,-0.00160292,0.00003696,-0.00005928,-0.00004835,0.00000
 604,0.00002279,-0.00001865,0.00002973,0.00001508,0.00002339,0.00000356
 ,-0.00001806,0.00000819,0.00001127,-0.00001575,0.00000749,-0.00001581,
 -0.00001056,0.00001515,0.00000140,-0.00000106,0.00000390,0.00001473,0.
 00000258,-0.00009353,0.00000352,-0.00000677,0.00005237,-0.00619757,-0.
 00142633,-0.00029488,0.00035439,-0.00083337,0.00081703,-0.30903249,-0.
 06350788,-0.03282799,0.00023603,0.00031584,0.00004702,0.00011279,-0.00
 002138,-0.00003832,-0.00005770,-0.00003009,0.00002354,0.00005441,-0.00
 000790,0.00023925,-0.00016254,-0.00003491,-0.00020472,0.00005173,0.000
 05042,-0.00005033,0.00029416,0.00001062,-0.00005986,-0.00152218,0.0001
 1210,0.00048141,0.33270661,-0.00006529,0.00002317,-0.00004204,-0.00014
 149,-0.00009287,0.00004043,0.00102975,0.00104539,-0.00046091,0.0002341
 2,-0.00280600,-0.00056273,0.00070697,0.00186340,0.00019901,0.00006617,
 0.00021192,0.00029551,0.00001255,0.00002776,0.00000889,-0.00007984,-0.
 00000382,0.00003747,-0.00005271,-0.00001531,-0.00001941,-0.00003980,0.
 00000887,0.00000930,0.00002813,0.00001147,0.00000359,0.00000771,-0.000
 00199,-0.00001676,-0.00017824,-0.00016649,0.00041694,0.00000008,0.0000
 7654,-0.00030244,-0.01819629,-0.00430609,-0.00464448,-0.00082525,-0.00
 357062,0.00381334,-0.06742399,-0.05997287,-0.01068779,0.00065561,0.000
 60032,-0.00050281,0.00010167,-0.00019469,-0.00019003,0.00009205,-0.000
 02389,0.00004753,0.00000840,0.00027618,0.00034442,-0.00168732,0.000182
 27,-0.00020641,0.00046671,0.00008938,0.00002554,0.00006015,0.00014217,
 0.00009587,-0.00909445,-0.00333911,0.00000698,0.06850747,0.06182194,0.
 00000672,0.00006318,-0.00013337,0.00009175,0.00007606,0.00000537,-0.00
 063832,-0.00081886,0.00022141,0.00017283,0.00185127,0.00081976,-0.0011
 1861,-0.00130256,-0.00055855,-0.00000253,-0.00023653,-0.00029317,-0.00
 001545,-0.00006221,0.00001695,0.00009836,-0.00007196,-0.00004831,0.000
 03072,0.00001002,-0.00000815,0.00002041,0.00000122,-0.00001208,0.00002
 207,0.00003154,0.00001541,-0.00002086,0.00001931,-0.00002163,0.0001243
 3,0.00010979,-0.00016824,-0.00002320,-0.00002960,0.00006658,0.01696492
 ,0.00259698,0.00186789,0.00110751,0.00368622,-0.00329730,-0.02812596,-
 0.00929926,-0.04526034,-0.00050097,-0.00082292,0.00067346,-0.00017923,
 0.00011562,0.00027350,0.00002632,0.00002257,-0.00002056,-0.00007253,0.
 00000241,-0.00055711,0.00149237,0.00031452,0.00049585,-0.00005916,0.00
 009898,0.00012325,-0.00047696,-0.00006214,-0.00008018,-0.02955001,-0.0
 0700064,-0.00160576,0.03540051,0.00887497,0.04816193,-0.00006362,0.000
 07366,-0.00004956,0.00011590,-0.00011325,-0.00011166,0.00001475,-0.000
 79154,0.00066985,-0.00021616,-0.00105003,-0.00039082,-0.00022438,0.001
 29560,-0.00018142,0.00005082,0.00008605,0.00010148,0.00000646,-0.00000
 867,0.00000644,-0.00001896,-0.00001149,0.00001867,-0.00001716,-0.00000
 700,-0.00001336,-0.00000832,0.00000836,0.00000129,0.00001805,0.0000135
 4,0.00000018,0.00000172,0.00000396,-0.00000892,-0.00003619,-0.00010556
 ,-0.00003185,-0.00000139,0.00004121,0.00002502,0.00195676,-0.00726846,
 0.00029214,0.00093286,-0.00028077,-0.00053910,-0.13030288,0.12328069,0
 .02266313,0.00012937,0.00002333,-0.00066266,-0.00001979,-0.00017464,-0
 .00016554,0.00005783,0.00020722,-0.00016044,-0.00004594,0.00009387,0.0
 0000864,0.00017512,0.00014723,-0.00000406,-0.00006569,-0.00001777,-0.0
 0001510,-0.00017206,0.00010347,0.00022637,0.00237378,-0.00514247,-0.00
 045306,-0.01342921,0.02577260,0.00528753,0.13859037,-0.00025581,0.0003
 3078,0.00013278,0.00046627,-0.00031026,-0.00031842,-0.00099450,-0.0021
 0625,0.00200175,-0.00107433,-0.00057450,-0.00036435,0.00026691,0.00100
 054,0.00012307,0.00009419,0.00004630,0.00008375,0.00002177,-0.00003952
 ,-0.00001347,-0.00001076,-0.00000351,0.00002132,0.00001879,0.00002525,
 -0.00002775,0.00003023,0.00001192,-0.00000278,0.00000452,0.00002075,-0
 .00000373,0.00000357,0.00001041,0.00000690,-0.00010395,0.00004320,-0.0
 0090302,0.00008110,-0.00004238,0.00062804,0.00997486,-0.01701834,-0.00
 195531,0.00038487,0.00113809,-0.00070866,0.12857886,-0.22576008,-0.038
 41357,-0.00011424,0.00125458,-0.00097453,-0.00023712,0.00015089,-0.000
 34330,-0.00000436,0.00048598,0.00067722,-0.00002615,0.00000335,-0.0000
 6183,0.00016489,0.00046118,0.00006381,0.00000731,-0.00002019,0.0000282
 2,-0.00087942,0.00000068,0.00006143,0.00437538,-0.00692598,0.00017077,
 -0.00493475,0.00799601,0.00195265,-0.13631241,0.23946503,0.00020308,-0
 .00043042,0.00035522,-0.00052812,0.00030939,0.00032919,0.00113230,0.00
 188248,-0.00170720,0.00068288,0.00011164,-0.00001290,-0.00028479,-0.00
 038940,-0.00015330,-0.00005046,-0.00001366,-0.00006270,-0.00001185,0.0
 0002870,0.00001232,-0.00000191,0.00002904,-0.00000304,-0.00001595,-0.0
 0002957,0.00003387,-0.00001750,-0.00000995,0.00000203,-0.00001067,-0.0
 0001996,0.00000130,0.00000070,-0.00000587,-0.00000178,0.00005524,-0.00
 014547,0.00093168,-0.00002481,0.00003284,-0.00045318,-0.00913949,0.015
 44670,-0.00027716,-0.00075546,-0.00091681,0.00050031,0.01986239,-0.032
 61256,-0.04918043,-0.00075266,-0.00008812,0.00119025,0.00015780,-0.000
 12074,0.00039823,0.00030846,-0.00032627,-0.00044061,-0.00001559,-0.000
 00763,-0.00003087,-0.00030146,-0.00016649,-0.00011294,0.00003737,-0.00
 009026,-0.00002124,0.00041055,-0.00019184,0.00016810,0.01766383,-0.023
 55948,-0.00207378,-0.00178564,0.00338913,-0.00064421,-0.02656143,0.038
 03894,0.05137775,-0.00137196,-0.00338358,-0.00459919,-0.00727415,-0.00
 514707,-0.00218507,-0.03061384,0.02393083,0.01485164,-0.01034551,-0.01
 290801,-0.00239632,-0.00576063,-0.00792436,-0.00192899,-0.00169291,-0.
 00193546,-0.00056901,-0.00038673,0.00057136,0.00029477,-0.00000947,0.0
 0002603,0.00060226,-0.00022573,0.00038025,-0.00037022,-0.00005304,-0.0
 0012684,-0.00003159,0.00006769,0.00007882,-0.00007186,0.00011244,0.000
 03034,0.00007055,-0.00931213,-0.00454592,-0.02198920,0.00450183,0.0003
 2179,0.01119151,0.00799836,-0.00578531,0.00000654,-0.00166242,0.002699
 08,0.00029003,-0.00261425,0.00210160,0.00068135,-0.00246022,0.00245867
 ,-0.00054636,0.00018704,-0.00004182,-0.00003037,0.00008810,0.00072285,
 0.00104873,-0.00005923,-0.00027316,-0.00021894,-0.00034490,0.00036460,
 0.00092437,-0.00019484,0.00091891,-0.00077055,-0.00153561,-0.00046447,
 -0.00032083,0.00021721,-0.00012826,0.00011519,-0.00006222,-0.00028095,
 0.00008976,0.00030659,0.00102584,-0.00060802,0.69841697,-0.00430605,-0
 .00009265,-0.00254832,0.00550090,0.00187350,-0.00045214,0.02009550,-0.
 05536333,0.00532686,-0.02378130,0.00588225,-0.00225246,0.00371449,-0.0
 0069762,0.00071264,-0.00070892,-0.00306967,0.00028349,-0.00033578,0.00
 052869,0.00037886,-0.00016803,0.00029133,0.00037416,0.00023265,0.00017
 397,-0.00017446,-0.00004229,-0.00020384,-0.00006259,-0.00000724,0.0000
 0796,0.00002140,0.00003247,0.00004154,-0.00002851,-0.00774167,0.004706
 10,-0.01285812,0.00340412,-0.00177776,0.00819381,0.00155326,-0.0174388
 4,-0.00401645,-0.00147172,0.00275464,0.00028712,-0.00138452,0.00141363
 ,0.00057189,-0.00115740,0.00156546,-0.00028261,0.00013773,-0.00001343,
 -0.00008324,0.00000365,0.00049712,0.00063217,-0.00004133,-0.00016597,-
 0.00006911,0.00027342,0.00001973,0.00028573,0.00045887,0.00002743,-0.0
 0011101,-0.00165906,-0.00004799,-0.00021493,0.00012014,-0.00015670,0.0
 0019291,0.00002107,-0.00018243,0.00000769,0.00016119,0.00070280,-0.000
 33724,0.51091152,0.52042865,0.00764624,0.00661293,-0.00131981,0.001072
 15,-0.00021307,0.00266683,-0.00016828,-0.00630564,-0.05422824,-0.00593
 664,-0.00339171,0.01793026,0.00240038,0.00278872,-0.00314309,-0.000338
 45,-0.00011105,-0.00184433,-0.00006815,0.00020481,-0.00017750,0.000350
 37,-0.00010878,-0.00021387,-0.00036104,0.00041143,0.00009589,0.0000668
 5,-0.00005840,-0.00004229,0.00005781,0.00004759,0.00003761,-0.00005854
 ,-0.00000375,-0.00000765,-0.01503785,-0.00453251,-0.02218120,0.0048034
 2,0.00063558,0.00908827,0.00199564,-0.00550895,0.00277633,-0.00060316,
 0.00120934,0.00033614,-0.00071240,0.00061482,0.00016656,-0.00085069,0.
 00088632,-0.00027215,0.00011154,-0.00004988,-0.00014630,-0.00001178,0.
 00028333,0.00031852,0.00001676,-0.00018296,-0.00017022,0.00021055,-0.0
 0001566,0.00009116,-0.00028338,0.00041651,-0.00033636,-0.00072805,-0.0
 0012094,-0.00020238,0.00004434,0.00011719,-0.00011538,0.00004390,-0.00
 015054,0.00005199,0.00006607,0.00029927,-0.00025687,0.27260301,0.23174
 845,0.20579053,0.00201169,0.00175263,0.00129234,0.00368531,0.00226952,
 0.00045455,-0.02624259,-0.03740584,-0.01999177,0.00403032,0.00875057,0
 .00140163,-0.00141868,-0.00460729,-0.00131727,-0.00086479,-0.00118254,
 -0.00010144,-0.00037510,0.00049573,0.00029814,-0.00013005,-0.00002566,
 -0.00004059,-0.00001684,-0.00011387,0.00002226,-0.00037301,-0.00013518
 ,0.00002772,0.00000930,-0.00011638,-0.00000656,0.00001458,-0.00008911,
 -0.00006630,0.00415991,0.00006094,0.01172403,-0.00197037,0.00078896,-0
 .00663815,-0.00441063,0.00488479,0.00000820,0.00086023,-0.00151005,-0.
 00024211,0.00139347,-0.00115034,-0.00036621,0.00133616,-0.00136270,0.0
 0027830,-0.00007626,0.00003933,0.00001367,-0.00001692,-0.00039771,-0.0
 0057648,-0.00004192,0.00023762,0.00026555,-0.00003103,-0.00008580,-0.0
 0048381,0.00006823,-0.00016999,0.00045887,0.00089753,0.00024974,0.0001
 8204,-0.00010424,0.00006278,-0.00002468,-0.00000856,0.00031549,-0.0001
 5232,-0.00010858,-0.00055156,0.00035122,-0.63591645,-0.50381566,-0.266
 33061,0.65363928,0.00235056,0.00092850,0.00078025,-0.00044297,0.000018
 93,0.00005109,-0.03621841,-0.00236150,-0.01325934,0.00922354,0.0019739
 0,0.00105243,-0.00432097,-0.00630505,-0.00191001,-0.00108962,-0.000568
 27,-0.00031163,-0.00031510,0.00039900,0.00020774,-0.00004258,-0.000097
 75,-0.00000647,-0.00012741,-0.00005277,-0.00001052,-0.00032874,-0.0000
 7765,0.00003811,0.00002285,-0.00008803,-0.00003443,0.00002887,-0.00008
 735,-0.00002712,0.00295200,-0.00194945,0.00858360,-0.00138363,0.001096
 03,-0.00543980,-0.00246743,0.00714257,0.00089909,0.00024041,-0.0007542
 4,-0.00040509,0.00084936,-0.00067597,-0.00018497,0.00081780,-0.0007804
 5,0.00009624,-0.00006679,0.00001595,0.00000797,0.00003179,-0.00025683,
 -0.00033006,-0.00004178,0.00023161,0.00023504,0.00008834,-0.00015849,-
 0.00032435,0.00038614,-0.00049569,0.00025352,0.00077713,0.00026943,0.0
 0023958,-0.00007571,0.00005374,-0.00003867,-0.00003400,0.00029938,-0.0
 0012832,-0.00002791,-0.00034674,0.00019288,-0.50359728,-0.46170457,-0.
 22552244,0.53281155,0.46433177,-0.00197250,-0.00169090,0.00075511,0.00
 019615,0.00030204,-0.00067242,-0.01344807,-0.00777138,0.01312158,0.002
 70700,0.00324276,-0.00561678,-0.00248385,-0.00442521,0.00007687,-0.000
 61116,-0.00082203,0.00045284,-0.00020657,0.00025411,0.00022744,-0.0001
 5704,0.00001403,0.00011398,0.00008731,-0.00011292,-0.00008406,-0.00021
 081,-0.00006074,0.00002522,-0.00000484,-0.00005806,-0.00002654,0.00003
 614,-0.00004300,-0.00001928,0.00444967,0.00009802,0.01017517,-0.001629
 07,0.00021123,-0.00438608,-0.00183603,0.00289385,-0.00048686,0.0001708
 7,-0.00072210,-0.00007352,0.00050354,-0.00041390,-0.00008720,0.0005208
 1,-0.00046592,0.00012367,-0.00004255,0.00002132,0.00001657,0.00002025,
 -0.00014976,-0.00019381,-0.00003821,0.00015295,0.00016369,0.00008596,-
 0.00007872,-0.00015531,0.00010564,-0.00026053,0.00020253,0.00041699,0.
 00015155,0.00008560,-0.00004035,-0.00001464,0.00001520,-0.00002806,0.0
 0017744,-0.00008437,-0.00001782,-0.00019921,0.00013196,-0.26613319,-0.
 22552598,-0.15469247,0.27955978,0.23529569,0.14089127\\0.00000402,0.00
 002050,-0.00003293,0.00002968,0.00000555,-0.00000795,0.00000153,0.0000
 1078,0.00006630,0.00001373,-0.00005538,-0.00004256,0.00000788,0.000039
 44,0.00002040,0.00001211,0.00001935,0.00000868,-0.00000291,-0.00000469
 ,-0.00000389,-0.00000379,0.00000177,-0.00000631,0.00000053,-0.00000424
 ,-0.00000344,-0.00000268,-0.00000043,-0.00000189,-0.00000058,0.0000011
 7,-0.00000128,0.00000027,0.00000074,-0.00000147,-0.00003835,-0.0000170
 8,-0.00002754,0.00000718,0.00000030,0.00000364,-0.00001282,0.00003614,
 -0.00002328,0.00001084,-0.00001545,0.00000420,-0.00000505,0.00000714,-
 0.00000300,0.00001519,-0.00002933,0.00000186,-0.00000171,0.00000173,0.
 00000070,0.00000309,0.00000174,0.00000180,0.00000150,0.00000117,0.0000
 0410,0.00000020,0.00000415,0.00000264,0.00000064,0.00000239,0.00000306
 ,-0.00000075,0.00000235,0.00000335,0.00000017,-0.00000106,0.00000309,-
 0.00000082,-0.00001149,0.00001466,-0.00000702,-0.00000221,-0.00000155,
 -0.00004028,-0.00003205,0.00002326,0.00000822,0.00001701,-0.00000462\\
 \@


 TO DETECT ERRORS, THE PROGRAMMER MUST HAVE A CONNIVING MIND,
 ONE THAT DELIGHTS IN UNCOVERING FLAWS WHERE BEAUTY AND
 PERFECTION WERE ONCE THOUGHT TO LIE.

             -- THE PSYCHOLOGY OF COMPUTER PROGRAMMING
                GERALD M. WEINBERG
 Job cpu time:       1 days  0 hours 18 minutes 47.1 seconds.
 Elapsed time:       0 days  2 hours  1 minutes 56.7 seconds.
 File lengths (MBytes):  RWF=    817 Int=      0 D2E=      0 Chk=     31 Scr=      1
 Normal termination of Gaussian 16 at Tue Oct  4 20:59:33 2022.
