 Entering Gaussian System, Link 0=g16
 Initial command:
 /mnt/data/applications/G16/g16/l1.exe "/scratch/Gau-32029.inp" -scrdir="/scratch/"
 Entering Link 1 = /mnt/data/applications/G16/g16/l1.exe PID=     32030.
  
 Copyright (c) 1988,1990,1992,1993,1995,1998,2003,2009,2016,
            Gaussian, Inc.  All Rights Reserved.
  
 This is part of the Gaussian(R) 16 program.  It is based on
 the Gaussian(R) 09 system (copyright 2009, Gaussian, Inc.),
 the Gaussian(R) 03 system (copyright 2003, Gaussian, Inc.),
 the Gaussian(R) 98 system (copyright 1998, Gaussian, Inc.),
 the Gaussian(R) 94 system (copyright 1995, Gaussian, Inc.),
 the Gaussian 92(TM) system (copyright 1992, Gaussian, Inc.),
 the Gaussian 90(TM) system (copyright 1990, Gaussian, Inc.),
 the Gaussian 88(TM) system (copyright 1988, Gaussian, Inc.),
 the Gaussian 86(TM) system (copyright 1986, Carnegie Mellon
 University), and the Gaussian 82(TM) system (copyright 1983,
 Carnegie Mellon University). Gaussian is a federally registered
 trademark of Gaussian, Inc.
  
 This software contains proprietary and confidential information,
 including trade secrets, belonging to Gaussian, Inc.
  
 This software is provided under written license and may be
 used, copied, transmitted, or stored only in accord with that
 written license.
  
 The following legend is applicable only to US Government
 contracts under FAR:
  
                    RESTRICTED RIGHTS LEGEND
  
 Use, reproduction and disclosure by the US Government is
 subject to restrictions as set forth in subparagraphs (a)
 and (c) of the Commercial Computer Software - Restricted
 Rights clause in FAR 52.227-19.
  
 Gaussian, Inc.
 340 Quinnipiac St., Bldg. 40, Wallingford CT 06492
  
  
 ---------------------------------------------------------------
 Warning -- This program may not be used in any manner that
 competes with the business of Gaussian, Inc. or will provide
 assistance to any competitor of Gaussian, Inc.  The licensee
 of this program is prohibited from giving any competitor of
 Gaussian, Inc. access to this program.  By using this program,
 the user acknowledges that Gaussian, Inc. is engaged in the
 business of creating and licensing software in the field of
 computational chemistry and represents and warrants to the
 licensee that it is not a competitor of Gaussian, Inc. and that
 it will not use this program in any manner prohibited above.
 ---------------------------------------------------------------
  

 Cite this work as:
 Gaussian 16, Revision A.03,
 M. J. Frisch, G. W. Trucks, H. B. Schlegel, G. E. Scuseria, 
 M. A. Robb, J. R. Cheeseman, G. Scalmani, V. Barone, 
 G. A. Petersson, H. Nakatsuji, X. Li, M. Caricato, A. V. Marenich, 
 J. Bloino, B. G. Janesko, R. Gomperts, B. Mennucci, H. P. Hratchian, 
 J. V. Ortiz, A. F. Izmaylov, J. L. Sonnenberg, D. Williams-Young, 
 F. Ding, F. Lipparini, F. Egidi, J. Goings, B. Peng, A. Petrone, 
 T. Henderson, D. Ranasinghe, V. G. Zakrzewski, J. Gao, N. Rega, 
 G. Zheng, W. Liang, M. Hada, M. Ehara, K. Toyota, R. Fukuda, 
 J. Hasegawa, M. Ishida, T. Nakajima, Y. Honda, O. Kitao, H. Nakai, 
 T. Vreven, K. Throssell, J. A. Montgomery, Jr., J. E. Peralta, 
 F. Ogliaro, M. J. Bearpark, J. J. Heyd, E. N. Brothers, K. N. Kudin, 
 V. N. Staroverov, T. A. Keith, R. Kobayashi, J. Normand, 
 K. Raghavachari, A. P. Rendell, J. C. Burant, S. S. Iyengar, 
 J. Tomasi, M. Cossi, J. M. Millam, M. Klene, C. Adamo, R. Cammi, 
 J. W. Ochterski, R. L. Martin, K. Morokuma, O. Farkas, 
 J. B. Foresman, and D. J. Fox, Gaussian, Inc., Wallingford CT, 2016.
 
 ******************************************
 Gaussian 16:  AM64L-G16RevA.03 25-Dec-2016
                 4-Oct-2022 
 ******************************************
 %nprocshared=12
 Will use up to   12 processors via shared memory.
 %mem=22GB
 %chk=I9c.chk
 ----------------------------------------------------------------------
 #p opt=(maxstep=5) freq pseudo=read WB97XD gen scrf(smd,solvent=toluen
 e)
 ----------------------------------------------------------------------
 1/8=5,18=20,19=15,26=3,38=1/1,3;
 2/9=110,12=2,17=6,18=5,40=1/2;
 3/5=7,11=2,16=1,17=8,25=1,30=1,70=32201,71=1,72=13,74=-58/1,2,3;
 4//1;
 5/5=2,38=5,53=13/2;
 6/7=2,8=2,9=2,10=2,28=1/1;
 7//1,2,3,16;
 1/8=5,18=20,19=15,26=3/3(2);
 2/9=110/2;
 99//99;
 2/9=110/2;
 3/5=7,6=1,11=2,16=1,17=8,25=1,30=1,70=32205,71=1,72=13,74=-58,82=7/1,2,3;
 4/5=5,16=3,69=1/1;
 5/5=2,38=5,53=13/2;
 7//1,2,3,16;
 1/8=5,18=20,19=15,26=3/3(-5);
 2/9=110/2;
 6/7=2,8=2,9=2,10=2,19=2,28=1/1;
 99/9=1/99;
 Leave Link    1 at Tue Oct  4 18:03:33 2022, MaxMem=  2952790016 cpu:               0.9 elap:               0.1
 (Enter /mnt/data/applications/G16/g16/l101.exe)
 --------------------------
 Auto-generated job for I9c
 --------------------------
 Symbolic Z-matrix:
 Charge =  0 Multiplicity = 1
 Rh                    0.84732   0.73754   0.15907 
 P                     0.90479  -1.60267   0.27688 
 C                     0.80937  -2.53235  -1.2812 
 C                    -0.44005  -2.32188   1.26371 
 C                     2.41072  -2.25284   1.05795 
 H                     3.28498  -1.90756   0.50481 
 H                     2.40295  -3.34482   1.07405 
 H                     1.64257  -2.24816  -1.92588 
 H                    -0.12418  -2.28275  -1.78643 
 H                     0.84588  -3.60914  -1.10352 
 H                    -1.38654  -2.12711   0.75954 
 H                    -0.45841  -1.85714   2.24943 
 H                    -0.30907  -3.40086   1.37065 
 C                     0.96481   2.58484   0.49811 
 O                     1.05426   3.69331   0.73854 
 C                     0.5354    0.83576  -1.71636 
 O                     0.34471   0.90097  -2.83672 
 H                     2.47962  -1.87151   2.07669 
 H                     1.10858   0.56957   1.7684 
 O                    -2.49723  -1.05677  -1.3381 
 C                    -3.21136  -0.25895  -0.78624 
 H                    -4.27144  -0.16054  -1.10319 
 C                    -2.80491   0.63159   0.34463 
 H                    -1.72743   0.54154   0.51115 
 H                    -3.01684   1.66219   0.04089 
 C                    -3.5972    0.30148   1.60921 
 H                    -3.33628   0.9963    2.40748 
 H                    -4.67389   0.37415   1.4389 
 H                    -3.37617  -0.70942   1.95717 
 
 Add virtual bond connecting atoms O20        and H9         Dist= 5.12D+00.
 Add virtual bond connecting atoms O20        and H11        Dist= 4.92D+00.
 Add virtual bond connecting atoms H24        and Rh1        Dist= 4.92D+00.
 Add virtual bond connecting atoms H24        and H11        Dist= 5.11D+00.
 Add virtual bond connecting atoms H29        and H11        Dist= 5.14D+00.
 ITRead=  0  0  0  0  0  0  0  0  0  0  0  0  0  0  0  0  0  0  0  0
 ITRead=  0  0  0  0  0  0  0  0  0
 MicOpt= -1 -1 -1 -1 -1 -1 -1 -1 -1 -1 -1 -1 -1 -1 -1 -1 -1 -1 -1 -1
 MicOpt= -1 -1 -1 -1 -1 -1 -1 -1 -1
 NAtoms=     29 NQM=       29 NQMF=       0 NMMI=      0 NMMIF=      0
                NMic=       0 NMicF=      0.
                    Isotopes and Nuclear Properties:
 (Nuclear quadrupole moments (NQMom) in fm**2, nuclear magnetic moments (NMagM)
  in nuclear magnetons)

  Atom         1           2           3           4           5           6           7           8           9          10
 IAtWgt=         103          31          12          12          12           1           1           1           1           1
 AtmWgt= 102.9048000  30.9737634  12.0000000  12.0000000  12.0000000   1.0078250   1.0078250   1.0078250   1.0078250   1.0078250
 NucSpn=           1           1           0           0           0           1           1           1           1           1
 AtZEff=  -0.0000000  -0.0000000  -0.0000000  -0.0000000  -0.0000000  -0.0000000  -0.0000000  -0.0000000  -0.0000000  -0.0000000
 NQMom=    0.0000000   0.0000000   0.0000000   0.0000000   0.0000000   0.0000000   0.0000000   0.0000000   0.0000000   0.0000000
 NMagM=   -0.0884000   1.1316000   0.0000000   0.0000000   0.0000000   2.7928460   2.7928460   2.7928460   2.7928460   2.7928460
 AtZNuc=  45.0000000  15.0000000   6.0000000   6.0000000   6.0000000   1.0000000   1.0000000   1.0000000   1.0000000   1.0000000

  Atom        11          12          13          14          15          16          17          18          19          20
 IAtWgt=           1           1           1          12          16          12          16           1           1          16
 AtmWgt=   1.0078250   1.0078250   1.0078250  12.0000000  15.9949146  12.0000000  15.9949146   1.0078250   1.0078250  15.9949146
 NucSpn=           1           1           1           0           0           0           0           1           1           0
 AtZEff=  -0.0000000  -0.0000000  -0.0000000  -0.0000000  -0.0000000  -0.0000000  -0.0000000  -0.0000000  -0.0000000  -0.0000000
 NQMom=    0.0000000   0.0000000   0.0000000   0.0000000   0.0000000   0.0000000   0.0000000   0.0000000   0.0000000   0.0000000
 NMagM=    2.7928460   2.7928460   2.7928460   0.0000000   0.0000000   0.0000000   0.0000000   2.7928460   2.7928460   0.0000000
 AtZNuc=   1.0000000   1.0000000   1.0000000   6.0000000   8.0000000   6.0000000   8.0000000   1.0000000   1.0000000   8.0000000

  Atom        21          22          23          24          25          26          27          28          29
 IAtWgt=          12           1          12           1           1          12           1           1           1
 AtmWgt=  12.0000000   1.0078250  12.0000000   1.0078250   1.0078250  12.0000000   1.0078250   1.0078250   1.0078250
 NucSpn=           0           1           0           1           1           0           1           1           1
 AtZEff=  -0.0000000  -0.0000000  -0.0000000  -0.0000000  -0.0000000  -0.0000000  -0.0000000  -0.0000000  -0.0000000
 NQMom=    0.0000000   0.0000000   0.0000000   0.0000000   0.0000000   0.0000000   0.0000000   0.0000000   0.0000000
 NMagM=    0.0000000   2.7928460   0.0000000   2.7928460   2.7928460   0.0000000   2.7928460   2.7928460   2.7928460
 AtZNuc=   6.0000000   1.0000000   6.0000000   1.0000000   1.0000000   6.0000000   1.0000000   1.0000000   1.0000000
 Leave Link  101 at Tue Oct  4 18:03:33 2022, MaxMem=  2952790016 cpu:               5.2 elap:               0.5
 (Enter /mnt/data/applications/G16/g16/l103.exe)

 GradGradGradGradGradGradGradGradGradGradGradGradGradGradGradGradGradGrad
 Berny optimization.
 Initialization pass.
                           ----------------------------
                           !    Initial Parameters    !
                           ! (Angstroms and Degrees)  !
 --------------------------                            --------------------------
 ! Name  Definition              Value          Derivative Info.                !
 --------------------------------------------------------------------------------
 ! R1    R(1,2)                  2.3439         estimate D2E/DX2                !
 ! R2    R(1,14)                 1.8818         estimate D2E/DX2                !
 ! R3    R(1,16)                 1.9037         estimate D2E/DX2                !
 ! R4    R(1,19)                 1.639          estimate D2E/DX2                !
 ! R5    R(1,24)                 2.6061         estimate D2E/DX2                !
 ! R6    R(2,3)                  1.8169         estimate D2E/DX2                !
 ! R7    R(2,4)                  1.8165         estimate D2E/DX2                !
 ! R8    R(2,5)                  1.8168         estimate D2E/DX2                !
 ! R9    R(3,8)                  1.0911         estimate D2E/DX2                !
 ! R10   R(3,9)                  1.0904         estimate D2E/DX2                !
 ! R11   R(3,10)                 1.092          estimate D2E/DX2                !
 ! R12   R(4,11)                 1.0899         estimate D2E/DX2                !
 ! R13   R(4,12)                 1.0899         estimate D2E/DX2                !
 ! R14   R(4,13)                 1.0922         estimate D2E/DX2                !
 ! R15   R(5,6)                  1.0907         estimate D2E/DX2                !
 ! R16   R(5,7)                  1.0921         estimate D2E/DX2                !
 ! R17   R(5,18)                 1.0899         estimate D2E/DX2                !
 ! R18   R(9,20)                 2.7084         estimate D2E/DX2                !
 ! R19   R(11,20)                2.6037         estimate D2E/DX2                !
 ! R20   R(11,24)                2.7018         estimate D2E/DX2                !
 ! R21   R(11,29)                2.7208         estimate D2E/DX2                !
 ! R22   R(14,15)                1.1378         estimate D2E/DX2                !
 ! R23   R(16,17)                1.1383         estimate D2E/DX2                !
 ! R24   R(20,21)                1.2046         estimate D2E/DX2                !
 ! R25   R(21,22)                1.1108         estimate D2E/DX2                !
 ! R26   R(21,23)                1.4957         estimate D2E/DX2                !
 ! R27   R(23,24)                1.094          estimate D2E/DX2                !
 ! R28   R(23,25)                1.0951         estimate D2E/DX2                !
 ! R29   R(23,26)                1.5283         estimate D2E/DX2                !
 ! R30   R(26,27)                1.09           estimate D2E/DX2                !
 ! R31   R(26,28)                1.0925         estimate D2E/DX2                !
 ! R32   R(26,29)                1.0917         estimate D2E/DX2                !
 ! A1    A(2,1,16)              96.0299         estimate D2E/DX2                !
 ! A2    A(2,1,19)              81.0495         estimate D2E/DX2                !
 ! A3    A(2,1,24)              86.6948         estimate D2E/DX2                !
 ! A4    A(14,1,16)             97.8785         estimate D2E/DX2                !
 ! A5    A(14,1,19)             85.0517         estimate D2E/DX2                !
 ! A6    A(14,1,24)             96.383          estimate D2E/DX2                !
 ! A7    A(16,1,24)             88.5728         estimate D2E/DX2                !
 ! A8    A(19,1,24)             90.9815         estimate D2E/DX2                !
 ! A9    A(1,2,3)              117.8072         estimate D2E/DX2                !
 ! A10   A(1,2,4)              113.8574         estimate D2E/DX2                !
 ! A11   A(1,2,5)              113.5312         estimate D2E/DX2                !
 ! A12   A(3,2,4)              102.968          estimate D2E/DX2                !
 ! A13   A(3,2,5)              103.2443         estimate D2E/DX2                !
 ! A14   A(4,2,5)              103.7933         estimate D2E/DX2                !
 ! A15   A(2,3,8)              109.4691         estimate D2E/DX2                !
 ! A16   A(2,3,9)              108.9754         estimate D2E/DX2                !
 ! A17   A(2,3,10)             111.3019         estimate D2E/DX2                !
 ! A18   A(8,3,9)              108.6862         estimate D2E/DX2                !
 ! A19   A(8,3,10)             109.1133         estimate D2E/DX2                !
 ! A20   A(9,3,10)             109.2522         estimate D2E/DX2                !
 ! A21   A(2,4,11)             108.7147         estimate D2E/DX2                !
 ! A22   A(2,4,12)             109.5706         estimate D2E/DX2                !
 ! A23   A(2,4,13)             110.8279         estimate D2E/DX2                !
 ! A24   A(11,4,12)            109.1177         estimate D2E/DX2                !
 ! A25   A(11,4,13)            109.0245         estimate D2E/DX2                !
 ! A26   A(12,4,13)            109.556          estimate D2E/DX2                !
 ! A27   A(2,5,6)              109.4575         estimate D2E/DX2                !
 ! A28   A(2,5,7)              110.9938         estimate D2E/DX2                !
 ! A29   A(2,5,18)             109.2103         estimate D2E/DX2                !
 ! A30   A(6,5,7)              109.2517         estimate D2E/DX2                !
 ! A31   A(6,5,18)             108.2158         estimate D2E/DX2                !
 ! A32   A(7,5,18)             109.6628         estimate D2E/DX2                !
 ! A33   A(3,9,20)             140.99           estimate D2E/DX2                !
 ! A34   A(4,11,20)            144.7417         estimate D2E/DX2                !
 ! A35   A(4,11,24)            109.184          estimate D2E/DX2                !
 ! A36   A(4,11,29)            121.636          estimate D2E/DX2                !
 ! A37   A(20,11,24)            57.7285         estimate D2E/DX2                !
 ! A38   A(20,11,29)            80.1238         estimate D2E/DX2                !
 ! A39   A(24,11,29)            55.496          estimate D2E/DX2                !
 ! A40   A(9,20,11)             64.7554         estimate D2E/DX2                !
 ! A41   A(9,20,21)            153.5178         estimate D2E/DX2                !
 ! A42   A(11,20,21)            98.979          estimate D2E/DX2                !
 ! A43   A(20,21,22)           119.5854         estimate D2E/DX2                !
 ! A44   A(20,21,23)           125.4243         estimate D2E/DX2                !
 ! A45   A(22,21,23)           114.9806         estimate D2E/DX2                !
 ! A46   A(21,23,24)           109.4948         estimate D2E/DX2                !
 ! A47   A(21,23,25)           107.3392         estimate D2E/DX2                !
 ! A48   A(21,23,26)           110.862          estimate D2E/DX2                !
 ! A49   A(24,23,25)           108.0762         estimate D2E/DX2                !
 ! A50   A(24,23,26)           111.5218         estimate D2E/DX2                !
 ! A51   A(25,23,26)           109.416          estimate D2E/DX2                !
 ! A52   A(1,24,11)             87.8251         estimate D2E/DX2                !
 ! A53   A(1,24,23)            161.1408         estimate D2E/DX2                !
 ! A54   A(11,24,23)           102.6835         estimate D2E/DX2                !
 ! A55   A(23,26,27)           110.1327         estimate D2E/DX2                !
 ! A56   A(23,26,28)           111.5644         estimate D2E/DX2                !
 ! A57   A(23,26,29)           111.0247         estimate D2E/DX2                !
 ! A58   A(27,26,28)           107.9195         estimate D2E/DX2                !
 ! A59   A(27,26,29)           107.9608         estimate D2E/DX2                !
 ! A60   A(28,26,29)           108.1078         estimate D2E/DX2                !
 ! A61   A(11,29,26)           119.3558         estimate D2E/DX2                !
 ! A62   L(2,1,14,16,-1)       193.9084         estimate D2E/DX2                !
 ! A63   L(16,1,19,2,-1)       177.0794         estimate D2E/DX2                !
 ! A64   L(1,14,15,25,-1)      181.0525         estimate D2E/DX2                !
 ! A65   L(1,16,17,3,-1)       180.3385         estimate D2E/DX2                !
 ! A66   L(2,1,14,16,-2)       182.7716         estimate D2E/DX2                !
 ! A67   L(16,1,19,2,-2)       180.2707         estimate D2E/DX2                !
 ! A68   L(1,14,15,25,-2)      178.1433         estimate D2E/DX2                !
 ! A69   L(1,16,17,3,-2)       179.8001         estimate D2E/DX2                !
 ! D1    D(16,1,2,3)             5.188          estimate D2E/DX2                !
 ! D2    D(16,1,2,4)          -115.5191         estimate D2E/DX2                !
 ! D3    D(16,1,2,5)           125.9963         estimate D2E/DX2                !
 ! D4    D(19,1,2,3)          -175.0827         estimate D2E/DX2                !
 ! D5    D(19,1,2,4)            64.2102         estimate D2E/DX2                !
 ! D6    D(19,1,2,5)           -54.2744         estimate D2E/DX2                !
 ! D7    D(24,1,2,3)            93.4007         estimate D2E/DX2                !
 ! D8    D(24,1,2,4)           -27.3064         estimate D2E/DX2                !
 ! D9    D(24,1,2,5)          -145.7909         estimate D2E/DX2                !
 ! D10   D(2,1,24,11)            3.165          estimate D2E/DX2                !
 ! D11   D(2,1,24,23)         -121.4851         estimate D2E/DX2                !
 ! D12   D(14,1,24,11)        -162.941          estimate D2E/DX2                !
 ! D13   D(14,1,24,23)          72.4088         estimate D2E/DX2                !
 ! D14   D(16,1,24,11)          99.2898         estimate D2E/DX2                !
 ! D15   D(16,1,24,23)         -25.3603         estimate D2E/DX2                !
 ! D16   D(19,1,24,11)         -77.8108         estimate D2E/DX2                !
 ! D17   D(19,1,24,23)         157.5391         estimate D2E/DX2                !
 ! D18   D(1,2,3,8)             59.2417         estimate D2E/DX2                !
 ! D19   D(1,2,3,9)            -59.5023         estimate D2E/DX2                !
 ! D20   D(1,2,3,10)           179.9458         estimate D2E/DX2                !
 ! D21   D(4,2,3,8)           -174.5529         estimate D2E/DX2                !
 ! D22   D(4,2,3,9)             66.7031         estimate D2E/DX2                !
 ! D23   D(4,2,3,10)           -53.8487         estimate D2E/DX2                !
 ! D24   D(5,2,3,8)            -66.7619         estimate D2E/DX2                !
 ! D25   D(5,2,3,9)            174.494          estimate D2E/DX2                !
 ! D26   D(5,2,3,10)            53.9422         estimate D2E/DX2                !
 ! D27   D(1,2,4,11)            65.9695         estimate D2E/DX2                !
 ! D28   D(1,2,4,12)           -53.2021         estimate D2E/DX2                !
 ! D29   D(1,2,4,13)          -174.2217         estimate D2E/DX2                !
 ! D30   D(3,2,4,11)           -62.7327         estimate D2E/DX2                !
 ! D31   D(3,2,4,12)           178.0957         estimate D2E/DX2                !
 ! D32   D(3,2,4,13)            57.0761         estimate D2E/DX2                !
 ! D33   D(5,2,4,11)          -170.1071         estimate D2E/DX2                !
 ! D34   D(5,2,4,12)            70.7213         estimate D2E/DX2                !
 ! D35   D(5,2,4,13)           -50.2983         estimate D2E/DX2                !
 ! D36   D(1,2,5,6)            -58.2488         estimate D2E/DX2                !
 ! D37   D(1,2,5,7)           -178.9208         estimate D2E/DX2                !
 ! D38   D(1,2,5,18)            60.057          estimate D2E/DX2                !
 ! D39   D(3,2,5,6)             70.4483         estimate D2E/DX2                !
 ! D40   D(3,2,5,7)            -50.2236         estimate D2E/DX2                !
 ! D41   D(3,2,5,18)          -171.2458         estimate D2E/DX2                !
 ! D42   D(4,2,5,6)            177.6158         estimate D2E/DX2                !
 ! D43   D(4,2,5,7)             56.9438         estimate D2E/DX2                !
 ! D44   D(4,2,5,18)           -64.0784         estimate D2E/DX2                !
 ! D45   D(2,3,9,20)           -12.9004         estimate D2E/DX2                !
 ! D46   D(8,3,9,20)          -132.1332         estimate D2E/DX2                !
 ! D47   D(10,3,9,20)          108.903          estimate D2E/DX2                !
 ! D48   D(2,4,11,20)            1.2734         estimate D2E/DX2                !
 ! D49   D(2,4,11,24)          -59.5719         estimate D2E/DX2                !
 ! D50   D(2,4,11,29)         -120.2242         estimate D2E/DX2                !
 ! D51   D(12,4,11,20)         120.7283         estimate D2E/DX2                !
 ! D52   D(12,4,11,24)          59.883          estimate D2E/DX2                !
 ! D53   D(12,4,11,29)          -0.7693         estimate D2E/DX2                !
 ! D54   D(13,4,11,20)        -119.6512         estimate D2E/DX2                !
 ! D55   D(13,4,11,24)         179.5035         estimate D2E/DX2                !
 ! D56   D(13,4,11,29)         118.8512         estimate D2E/DX2                !
 ! D57   D(3,9,20,11)          -28.326          estimate D2E/DX2                !
 ! D58   D(3,9,20,21)           27.6532         estimate D2E/DX2                !
 ! D59   D(4,11,20,9)           37.0105         estimate D2E/DX2                !
 ! D60   D(4,11,20,21)        -121.0159         estimate D2E/DX2                !
 ! D61   D(24,11,20,9)         114.3012         estimate D2E/DX2                !
 ! D62   D(24,11,20,21)        -43.7253         estimate D2E/DX2                !
 ! D63   D(29,11,20,9)         169.5446         estimate D2E/DX2                !
 ! D64   D(29,11,20,21)         11.5182         estimate D2E/DX2                !
 ! D65   D(4,11,24,1)           35.3756         estimate D2E/DX2                !
 ! D66   D(4,11,24,23)        -160.4414         estimate D2E/DX2                !
 ! D67   D(20,11,24,1)        -108.0241         estimate D2E/DX2                !
 ! D68   D(20,11,24,23)         56.159          estimate D2E/DX2                !
 ! D69   D(29,11,24,1)         151.1452         estimate D2E/DX2                !
 ! D70   D(29,11,24,23)        -44.6718         estimate D2E/DX2                !
 ! D71   D(4,11,29,26)         108.1843         estimate D2E/DX2                !
 ! D72   D(20,11,29,26)        -41.8412         estimate D2E/DX2                !
 ! D73   D(24,11,29,26)         15.6126         estimate D2E/DX2                !
 ! D74   D(9,20,21,22)         176.6587         estimate D2E/DX2                !
 ! D75   D(9,20,21,23)          -4.5353         estimate D2E/DX2                !
 ! D76   D(11,20,21,22)       -133.9671         estimate D2E/DX2                !
 ! D77   D(11,20,21,23)         44.8389         estimate D2E/DX2                !
 ! D78   D(20,21,23,24)          7.2007         estimate D2E/DX2                !
 ! D79   D(20,21,23,25)        124.2882         estimate D2E/DX2                !
 ! D80   D(20,21,23,26)       -116.2614         estimate D2E/DX2                !
 ! D81   D(22,21,23,24)       -173.9448         estimate D2E/DX2                !
 ! D82   D(22,21,23,25)        -56.8573         estimate D2E/DX2                !
 ! D83   D(22,21,23,26)         62.5931         estimate D2E/DX2                !
 ! D84   D(21,23,24,1)          69.9043         estimate D2E/DX2                !
 ! D85   D(21,23,24,11)        -52.6791         estimate D2E/DX2                !
 ! D86   D(25,23,24,1)         -46.7184         estimate D2E/DX2                !
 ! D87   D(25,23,24,11)       -169.3018         estimate D2E/DX2                !
 ! D88   D(26,23,24,1)        -167.0234         estimate D2E/DX2                !
 ! D89   D(26,23,24,11)         70.3932         estimate D2E/DX2                !
 ! D90   D(21,23,26,27)       -176.5305         estimate D2E/DX2                !
 ! D91   D(21,23,26,28)        -56.7123         estimate D2E/DX2                !
 ! D92   D(21,23,26,29)         63.9472         estimate D2E/DX2                !
 ! D93   D(24,23,26,27)         61.1805         estimate D2E/DX2                !
 ! D94   D(24,23,26,28)       -179.0013         estimate D2E/DX2                !
 ! D95   D(24,23,26,29)        -58.3418         estimate D2E/DX2                !
 ! D96   D(25,23,26,27)        -58.334          estimate D2E/DX2                !
 ! D97   D(25,23,26,28)         61.4842         estimate D2E/DX2                !
 ! D98   D(25,23,26,29)       -177.8563         estimate D2E/DX2                !
 ! D99   D(23,26,29,11)          7.4866         estimate D2E/DX2                !
 ! D100  D(27,26,29,11)       -113.3258         estimate D2E/DX2                !
 ! D101  D(28,26,29,11)        130.1678         estimate D2E/DX2                !
 --------------------------------------------------------------------------------
 Trust Radius=5.00D-02 FncErr=1.00D-07 GrdErr=1.00D-06 EigMax=2.50D+02 EigMin=1.00D-04
 Number of steps in this run=    174 maximum allowed number of steps=    174.
 GradGradGradGradGradGradGradGradGradGradGradGradGradGradGradGradGradGrad

 Leave Link  103 at Tue Oct  4 18:03:33 2022, MaxMem=  2952790016 cpu:               0.2 elap:               0.0
 (Enter /mnt/data/applications/G16/g16/l202.exe)
                          Input orientation:                          
 ---------------------------------------------------------------------
 Center     Atomic      Atomic             Coordinates (Angstroms)
 Number     Number       Type             X           Y           Z
 ---------------------------------------------------------------------
      1         45           0        0.847316    0.737542    0.159067
      2         15           0        0.904791   -1.602672    0.276878
      3          6           0        0.809374   -2.532348   -1.281203
      4          6           0       -0.440045   -2.321879    1.263714
      5          6           0        2.410715   -2.252840    1.057955
      6          1           0        3.284980   -1.907556    0.504812
      7          1           0        2.402947   -3.344821    1.074053
      8          1           0        1.642574   -2.248164   -1.925876
      9          1           0       -0.124183   -2.282752   -1.786427
     10          1           0        0.845882   -3.609136   -1.103518
     11          1           0       -1.386535   -2.127109    0.759540
     12          1           0       -0.458413   -1.857136    2.249430
     13          1           0       -0.309072   -3.400862    1.370646
     14          6           0        0.964811    2.584838    0.498112
     15          8           0        1.054260    3.693306    0.738541
     16          6           0        0.535395    0.835764   -1.716356
     17          8           0        0.344709    0.900969   -2.836723
     18          1           0        2.479618   -1.871512    2.076694
     19          1           0        1.108584    0.569574    1.768397
     20          8           0       -2.497232   -1.056771   -1.338097
     21          6           0       -3.211356   -0.258954   -0.786237
     22          1           0       -4.271439   -0.160539   -1.103186
     23          6           0       -2.804910    0.631587    0.344627
     24          1           0       -1.727432    0.541542    0.511145
     25          1           0       -3.016845    1.662192    0.040887
     26          6           0       -3.597201    0.301482    1.609205
     27          1           0       -3.336282    0.996301    2.407480
     28          1           0       -4.673887    0.374147    1.438898
     29          1           0       -3.376173   -0.709417    1.957174
 ---------------------------------------------------------------------
                    Distance matrix (angstroms):
                    1          2          3          4          5
     1  Rh   0.000000
     2  P    2.343882   0.000000
     3  C    3.573234   1.816870   0.000000
     4  C    3.498228   1.816504   2.842877   0.000000
     5  C    3.492077   1.816757   2.848522   2.859010   0.000000
     6  H    3.613625   2.410437   3.115901   3.824056   1.090655
     7  H    4.463505   2.432086   2.957502   3.027373   1.092127
     8  H    3.727447   2.411039   1.091140   3.810016   3.081122
     9  H    3.721684   2.403856   1.090449   3.066702   3.810133
    10  H    4.526338   2.436157   1.091960   2.985704   2.993360
    11  H    3.681967   2.399619   3.025040   1.089940   3.811032
    12  H    3.578673   2.411232   3.811635   1.089936   3.131787
    13  H    4.464476   2.429666   3.006250   1.092150   2.968665
    14  C    1.881823   4.193780   5.419937   5.160973   5.080078
    15  O    3.019132   5.318163   6.549664   6.220225   6.107262
    16  C    1.903721   3.171026   3.407140   4.450057   4.555557
    17  O    3.042052   4.034405   3.797792   5.274104   5.420647
    18  H    3.626136   2.406594   3.808135   3.064017   1.089949
    19  H    1.639029   2.642880   4.360219   3.318653   3.188463
    20  O    4.080081   3.805248   3.621354   3.549921   5.591028
    21  C    4.284790   4.458526   4.645383   4.017228   6.243741
    22  H    5.348036   5.547764   5.609976   4.995316   7.327990
    23  C    3.658472   4.331095   5.071179   3.893619   6.002624
    24  H    2.606089   3.403106   4.369977   3.228452   5.023130
    25  H    3.975007   5.108254   5.829412   4.899799   6.769070
    26  C    4.695400   5.066442   5.983557   4.119347   6.551602
    27  H    4.756554   5.411176   6.576033   4.550462   6.738406
    28  H    5.679235   6.031563   6.775899   5.022416   7.565564
    29  H    4.812976   4.684864   5.597228   3.420785   6.056304
                    6          7          8          9         10
     6  H    0.000000
     7  H    1.779817   0.000000
     8  H    2.953262   3.283352   0.000000
     9  H    4.124675   3.961909   1.772589   0.000000
    10  H    3.381020   2.690005   1.778549   1.779518   0.000000
    11  H    4.683604   3.992733   4.049891   2.845998   3.263598
    12  H    4.130282   3.432506   4.690440   4.071977   4.001618
    13  H    3.987084   2.728764   4.000586   3.354320   2.738391
    14  C    5.056168   6.128687   5.449127   5.486206   6.398803
    15  O    6.033274   7.174033   6.538065   6.593744   7.534073
    16  C    4.474328   5.362035   3.283345   3.188275   4.497678
    17  O    5.262971   6.128397   3.525781   3.385123   4.857594
    18  H    1.766556   1.783762   4.106468   4.676815   3.975195
    19  H    3.531221   4.180906   4.676799   4.721467   5.077256
    20  O    6.128142   5.921604   4.347746   2.708393   4.212601
    21  C    6.825473   6.671106   5.368088   3.824497   5.271202
    22  H    7.920681   7.708920   6.325389   4.708539   6.170883
    23  C    6.599975   6.592849   5.764396   4.496783   5.780064
    24  H    5.578745   5.699185   5.007841   3.978176   5.143657
    25  H    7.257501   7.450621   6.392904   5.221987   6.634548
    26  C    7.311905   7.041569   6.815624   5.501858   6.510974
    27  H    7.476205   7.318614   7.354831   6.217606   7.143364
    28  H    8.332002   8.002838   7.622067   6.177511   7.266242
    29  H    6.922128   6.412760   6.529444   5.202439   5.966737
                   11         12         13         14         15
    11  H    0.000000
    12  H    1.775970   0.000000
    13  H    1.776745   1.782598   0.000000
    14  C    5.272534   4.982350   6.181642   0.000000
    15  O    6.311509   5.947972   7.251583   1.137765   0.000000
    16  C    4.313061   4.895592   5.309586   2.854387   3.802800
    17  O    5.009947   5.841327   6.052696   3.786960   4.591636
    18  H    4.092354   2.943140   3.257945   4.964435   5.898262
    19  H    3.809923   2.928446   4.234657   2.386542   3.289568
    20  O    2.603719   4.203298   4.197630   5.349647   6.284008
    21  C    3.034700   4.398654   4.790301   5.213164   6.011721
    22  H    3.957249   5.353283   5.685059   6.125322   6.826943
    23  C    3.129592   3.915107   4.852068   4.248475   4.941911
    24  H    2.701779   3.222685   4.277036   3.379852   4.209885
    25  H    4.187263   4.879437   5.893624   4.112653   4.602830
    26  C    3.392201   3.862837   4.957424   5.221130   5.822252
    27  H    4.033969   4.055763   5.438204   4.966743   5.416277
    28  H    4.186226   4.837955   5.771218   6.129205   6.657251
    29  H    2.720816   3.148967   4.122499   5.641376   6.363786
                   16         17         18         19         20
    16  C    0.000000
    17  O    1.138348   0.000000
    18  H    5.049413   6.032094   0.000000
    19  H    3.541597   4.679793   2.816679   0.000000
    20  O    3.594662   3.762347   6.090455   5.029633   0.000000
    21  C    4.012689   4.265620   6.571446   5.086698   1.204589
    22  H    4.947146   5.043885   7.656098   6.141962   2.001556
    23  C    3.930264   4.484825   6.098508   4.164901   2.403493
    24  H    3.188842   3.953628   5.096375   3.102331   2.562595
    25  H    4.048369   4.490005   6.844171   4.604049   3.092629
    26  C    5.331338   5.971961   6.470562   4.716103   3.426569
    27  H    5.658770   6.407843   6.492955   4.510804   4.352982
    28  H    6.107810   6.613984   7.524786   5.795147   3.807500
    29  H    5.584154   6.278515   5.971184   4.667387   3.428119
                   21         22         23         24         25
    21  C    0.000000
    22  H    1.110819   0.000000
    23  C    1.495699   2.207789   0.000000
    24  H    2.127445   3.093696   1.093981   0.000000
    25  H    2.100660   2.491035   1.095135   1.771887   0.000000
    26  C    2.490202   2.832865   1.528349   2.181605   2.155914
    27  H    3.433817   3.812817   2.161188   2.528100   2.479156
    28  H    2.736976   2.628696   2.181004   3.093597   2.521762
    29  H    2.785029   3.235517   2.173693   2.524727   3.070147
                   26         27         28         29
    26  C    0.000000
    27  H    1.089998   0.000000
    28  H    1.092491   1.764770   0.000000
    29  H    1.091720   1.764608   1.768271   0.000000
 Stoichiometry    C8H16O3PRh
 Framework group  C1[X(C8H16O3PRh)]
 Deg. of freedom    81
 Full point group                 C1      NOp   1
 Largest Abelian subgroup         C1      NOp   1
 Largest concise Abelian subgroup C1      NOp   1
                         Standard orientation:                         
 ---------------------------------------------------------------------
 Center     Atomic      Atomic             Coordinates (Angstroms)
 Number     Number       Type             X           Y           Z
 ---------------------------------------------------------------------
      1         45           0       -0.847316    0.737542   -0.159067
      2         15           0       -0.904790   -1.602672   -0.276878
      3          6           0       -0.809373   -2.532348    1.281203
      4          6           0        0.440046   -2.321879   -1.263714
      5          6           0       -2.410714   -2.252841   -1.057955
      6          1           0       -3.284979   -1.907557   -0.504812
      7          1           0       -2.402946   -3.344822   -1.074053
      8          1           0       -1.642573   -2.248165    1.925876
      9          1           0        0.124184   -2.282752    1.786427
     10          1           0       -0.845880   -3.609136    1.103518
     11          1           0        1.386536   -2.127108   -0.759540
     12          1           0        0.458414   -1.857136   -2.249430
     13          1           0        0.309074   -3.400862   -1.370646
     14          6           0       -0.964812    2.584838   -0.498112
     15          8           0       -1.054262    3.693306   -0.738541
     16          6           0       -0.535395    0.835764    1.716356
     17          8           0       -0.344709    0.900969    2.836723
     18          1           0       -2.479617   -1.871513   -2.076694
     19          1           0       -1.108584    0.569574   -1.768397
     20          8           0        2.497232   -1.056770    1.338097
     21          6           0        3.211356   -0.258953    0.786237
     22          1           0        4.271439   -0.160537    1.103186
     23          6           0        2.804910    0.631588   -0.344627
     24          1           0        1.727432    0.541543   -0.511145
     25          1           0        3.016844    1.662193   -0.040887
     26          6           0        3.597201    0.301484   -1.609205
     27          1           0        3.336282    0.996303   -2.407480
     28          1           0        4.673887    0.374149   -1.438898
     29          1           0        3.376173   -0.709415   -1.957174
 ---------------------------------------------------------------------
 Rotational constants (GHZ):           0.4730828           0.4408291           0.3287818
 Leave Link  202 at Tue Oct  4 18:03:33 2022, MaxMem=  2952790016 cpu:               0.1 elap:               0.0
 (Enter /mnt/data/applications/G16/g16/l301.exe)
 General basis read from cards:  (5D, 7F)
 Centers:       1
 SDD
 ****
 Centers:      15     17     20      6      7      8      9     10     11     12
 Centers:      13     18     19     22     24     25     27     28     29      3
 Centers:       4      5     14     16     21     23     26      2
 def2tzvp
 ****
 ======================================================================================================
                                       Pseudopotential Parameters
 ======================================================================================================
  Center     Atomic      Valence      Angular      Power
  Number     Number     Electrons     Momentum     of R      Exponent        Coefficient   SO-Coeffient
 ======================================================================================================
    1         45           17
                                      G and up 
                                                     2        1.0000000        0.00000000    0.00000000
                                      S - G
                                                     2       11.7200000      225.34775400    0.00000000
                                                     2        5.8200000       32.82318900    0.00000000
                                      P - G
                                                     2       10.4200000      158.70941200    0.00000000
                                                     2        5.4500000       26.44410000    0.00000000
                                      D - G
                                                     2        8.8200000       62.75862600    0.00000000
                                                     2        3.8700000       10.97871900    0.00000000
                                      F - G
                                                     2       12.3100000      -30.09345600    0.00000000
                                                     2        6.1600000       -5.21848200    0.00000000
    2         15
                                   No pseudopotential on this center.
    3          6
                                   No pseudopotential on this center.
    4          6
                                   No pseudopotential on this center.
    5          6
                                   No pseudopotential on this center.
    6          1
                                   No pseudopotential on this center.
    7          1
                                   No pseudopotential on this center.
    8          1
                                   No pseudopotential on this center.
    9          1
                                   No pseudopotential on this center.
   10          1
                                   No pseudopotential on this center.
   11          1
                                   No pseudopotential on this center.
   12          1
                                   No pseudopotential on this center.
   13          1
                                   No pseudopotential on this center.
   14          6
                                   No pseudopotential on this center.
   15          8
                                   No pseudopotential on this center.
   16          6
                                   No pseudopotential on this center.
   17          8
                                   No pseudopotential on this center.
   18          1
                                   No pseudopotential on this center.
   19          1
                                   No pseudopotential on this center.
   20          8
                                   No pseudopotential on this center.
   21          6
                                   No pseudopotential on this center.
   22          1
                                   No pseudopotential on this center.
   23          6
                                   No pseudopotential on this center.
   24          1
                                   No pseudopotential on this center.
   25          1
                                   No pseudopotential on this center.
   26          6
                                   No pseudopotential on this center.
   27          1
                                   No pseudopotential on this center.
   28          1
                                   No pseudopotential on this center.
   29          1
                                   No pseudopotential on this center.
 ======================================================================================================
 Ernie: Thresh=  0.10000D-02 Tol=  0.10000D-05 Strict=F.
 There are   573 symmetry adapted cartesian basis functions of A   symmetry.
 There are   510 symmetry adapted basis functions of A   symmetry.
   510 basis functions,   823 primitive gaussians,   573 cartesian basis functions
    60 alpha electrons       60 beta electrons
       nuclear repulsion energy      1070.5252192489 Hartrees.
 IExCor= 4639 DFT=T Ex+Corr=wB97XD ExCW=0 ScaHFX=  1.000000
 ScaDFX=  1.000000  1.000000  1.000000  1.000000 ScalE2=  1.000000  1.000000
 IRadAn=      5 IRanWt=     -1 IRanGd=            0 ICorTp=0 IEmpDi=121
 HFx  wShort=  0.000000 wLong=  0.200000 cFull=  0.222036 cShort=  0.000000 cLong=  0.777964
 DFx  wShort=  0.000000 wLong=  0.200000 cFull=  0.000000 cShort=  0.000000 cLong=  1.000000
 NAtoms=   29 NActive=   29 NUniq=   29 SFac= 1.00D+00 NAtFMM=   60 NAOKFM=F Big=F
 Integral buffers will be    131072 words long.
 Raffenetti 2 integral format.
 Two-electron integral symmetry is turned on.
 R6Disp:  Grimme-D2 Dispersion energy=       -0.0235848955 Hartrees.
 Nuclear repulsion after empirical dispersion term =     1070.5016343534 Hartrees.
 ------------------------------------------------------------------------------
 Polarizable Continuum Model (PCM)
 =================================
 Model                : PCM.
 Atomic radii         : SMD-Coulomb.
 Polarization charges : Total charges.
 Charge compensation  : None.
 Solution method      : On-the-fly selection.
 Cavity type          : VdW (van der Waals Surface) (Alpha=1.000).
 Cavity algorithm     : GePol (No added spheres)
                        Default sphere list used, NSphG=   29.
                        Lebedev-Laikov grids with approx.  5.0 points / Ang**2.
                        Smoothing algorithm: York/Karplus (Gamma=1.0000).
                        Polarization charges: spherical gaussians, with
                                              point-specific exponents (IZeta= 3).
                        Self-potential: point-specific (ISelfS= 7).
                        Self-field    : sphere-specific E.n sum rule (ISelfD= 2).
 1st derivatives      : Analytical E(r).r(x)/FMM algorithm (CHGder, D1EAlg=3).
                        Cavity 1st derivative terms included.
 Solvent              : Toluene, Eps=   2.374100 Eps(inf)=   2.238315
 ------------------------------------------------------------------------------
 GePol: Number of generator spheres                  =      29
 GePol: Total number of spheres                      =      29
 GePol: Number of exposed spheres                    =      29 (100.00%)
 GePol: Number of points                             =    2670
 GePol: Average weight of points                     =       0.12
 GePol: Minimum weight of points                     =   0.47D-10
 GePol: Maximum weight of points                     =    0.20615
 GePol: Number of points with low weight             =     128
 GePol: Fraction of low-weight points (<1% of avg)   =       4.79%
 GePol: Cavity surface area                          =    323.227 Ang**2
 GePol: Cavity volume                                =    296.940 Ang**3
 ------------------------------------------------------------------------------
 Atomic radii for non-electrostatic terms: SMD-CDS.
 ------------------------------------------------------------------------------
 PCM non-electrostatic energy =         0.0007633858 Hartrees.
 Nuclear repulsion after PCM non-electrostatic terms =     1070.5023977391 Hartrees.
 Leave Link  301 at Tue Oct  4 18:03:34 2022, MaxMem=  2952790016 cpu:               2.6 elap:               0.2
 (Enter /mnt/data/applications/G16/g16/l302.exe)
 NPDir=0 NMtPBC=     1 NCelOv=     1 NCel=       1 NClECP=     1 NCelD=      1
         NCelK=      1 NCelE2=     1 NClLst=     1 CellRange=     0.0.
 One-electron integrals computed using PRISM.
 One-electron integral symmetry used in STVInt
   1 Symmetry operations used in ECPInt.
 ECPInt:  NShTT=   22578 NPrTT=   66767 LenC2=   20834 LenP2D=   45559.
 LDataN:  DoStor=T MaxTD1= 7 Len=  274
 NBasis=   510 RedAO= T EigKep=  1.89D-04  NBF=   510
 NBsUse=   510 1.00D-06 EigRej= -1.00D+00 NBFU=   510
 Precomputing XC quadrature grid using
 IXCGrd= 4 IRadAn=           5 IRanWt=          -1 IRanGd=           0 AccXCQ= 0.00D+00.
 Defaulting to unpruned grid for atomic number  45.
 Generated NRdTot=       0 NPtTot=           0 NUsed=           0 NTot=          32
 NSgBfM=   568   568   568   568   568 MxSgAt=    29 MxSgA2=    29.
 Leave Link  302 at Tue Oct  4 18:03:35 2022, MaxMem=  2952790016 cpu:              22.3 elap:               1.9
 (Enter /mnt/data/applications/G16/g16/l303.exe)
 DipDrv:  MaxL=1.
 Leave Link  303 at Tue Oct  4 18:03:36 2022, MaxMem=  2952790016 cpu:               1.2 elap:               0.1
 (Enter /mnt/data/applications/G16/g16/l401.exe)
 ExpMin= 1.60D-02 ExpMax= 5.24D+04 ExpMxC= 1.79D+03 IAcc=3 IRadAn=         5 AccDes= 0.00D+00
 Harris functional with IExCor= 4639 and IRadAn=       5 diagonalized for initial guess.
 HarFok:  IExCor= 4639 AccDes= 0.00D+00 IRadAn=         5 IDoV= 1 UseB2=F ITyADJ=14
 ICtDFT=  3500011 ScaDFX=  1.000000  1.000000  1.000000  1.000000
 Defaulting to unpruned grid for atomic number  45.
 FoFCou: FMM=F IPFlag=           0 FMFlag=      100000 FMFlg1=           0
         NFxFlg=           0 DoJE=T BraDBF=F KetDBF=T FulRan=T
         wScrn=  0.000000 ICntrl=       500 IOpCl=  0 I1Cent=   200000004 NGrid=           0
         NMat0=    1 NMatS0=      1 NMatT0=    0 NMatD0=    1 NMtDS0=    0 NMtDT0=    0
 Petite list used in FoFCou.
 Harris En= -959.524498239480    
 JPrj=0 DoOrth=F DoCkMO=F.
 Leave Link  401 at Tue Oct  4 18:03:44 2022, MaxMem=  2952790016 cpu:             102.4 elap:               8.6
 (Enter /mnt/data/applications/G16/g16/l502.exe)
 Integral symmetry usage will be decided dynamically.
 Closed shell SCF:
 Using DIIS extrapolation, IDIIS=  1040.
 NGot=  2952790016 LenX=  2952121193 LenY=  2951792291
 Requested convergence on RMS density matrix=1.00D-08 within 128 cycles.
 Requested convergence on MAX density matrix=1.00D-06.
 Requested convergence on             energy=1.00D-06.
 No special actions if energy rises.
 Fock matrices will be formed incrementally for  20 cycles.

 Cycle   1  Pass 1  IDiag  1:
 FoFJK:  IHMeth= 1 ICntrl=       0 DoSepK=T KAlg= 0 I1Cent=           0 FoldK=F
 IRaf=         1 NMat=       1 IRICut=       1 DoRegI=T DoRafI=F ISym2E= 0 IDoP0=0 IntGTp=1.
 FoFCou: FMM=F IPFlag=           0 FMFlag=      100000 FMFlg1=           0
         NFxFlg=           0 DoJE=T BraDBF=F KetDBF=F FulRan=T
         wScrn=  0.000000 ICntrl=       500 IOpCl=  0 I1Cent=           0 NGrid=           0
         NMat0=    1 NMatS0=      1 NMatT0=    0 NMatD0=    1 NMtDS0=    0 NMtDT0=    0
 Symmetry not used in FoFCou.
 Defaulting to unpruned grid for atomic number  45.
 Defaulting to unpruned grid for atomic number  45.
 Defaulting to unpruned grid for atomic number  45.
 Defaulting to unpruned grid for atomic number  45.
 Defaulting to unpruned grid for atomic number  45.
 Defaulting to unpruned grid for atomic number  45.
 Defaulting to unpruned grid for atomic number  45.
 Defaulting to unpruned grid for atomic number  45.
 Defaulting to unpruned grid for atomic number  45.
 Defaulting to unpruned grid for atomic number  45.
 Defaulting to unpruned grid for atomic number  45.
 Defaulting to unpruned grid for atomic number  45.
 Inv3:  Mode=1 IEnd=    21386700.
 Iteration    1 A*A^-1 deviation from unit magnitude is 2.66D-15 for    103.
 Iteration    1 A*A^-1 deviation from orthogonality  is 1.85D-15 for   1402    627.
 Iteration    1 A^-1*A deviation from unit magnitude is 2.44D-15 for    103.
 Iteration    1 A^-1*A deviation from orthogonality  is 1.88D-15 for   2478   1506.
 E= -990.613469940304    
 DIIS: error= 7.39D-02 at cycle   1 NSaved=   1.
 NSaved= 1 IEnMin= 1 EnMin= -990.613469940304     IErMin= 1 ErrMin= 7.39D-02
 ErrMax= 7.39D-02  0.00D+00 EMaxC= 1.00D-01 BMatC= 3.35D+00 BMatP= 3.35D+00
 IDIUse=3 WtCom= 2.61D-01 WtEn= 7.39D-01
 Coeff-Com:  0.100D+01
 Coeff-En:   0.100D+01
 Coeff:      0.100D+01
 Gap=     0.549 Goal=   None    Shift=    0.000
 GapD=    0.549 DampG=2.000 DampE=0.250 DampFc=0.5000 IDamp=-1.
 Damping current iteration by 5.00D-01
 RMSDP=5.86D-03 MaxDP=7.37D-01              OVMax= 5.81D-01

 Cycle   2  Pass 1  IDiag  1:
 RMSU=  2.93D-03    CP:  1.01D+00
 E= -991.278471166296     Delta-E=       -0.665001225992 Rises=F Damp=T
 DIIS: error= 2.51D-02 at cycle   2 NSaved=   2.
 NSaved= 2 IEnMin= 2 EnMin= -991.278471166296     IErMin= 2 ErrMin= 2.51D-02
 ErrMax= 2.51D-02  0.00D+00 EMaxC= 1.00D-01 BMatC= 4.70D-01 BMatP= 3.35D+00
 IDIUse=3 WtCom= 7.49D-01 WtEn= 2.51D-01
 Coeff-Com:  0.827D-01 0.917D+00
 Coeff-En:   0.278D+00 0.722D+00
 Coeff:      0.132D+00 0.868D+00
 Gap=     0.379 Goal=   None    Shift=    0.000
 RMSDP=2.23D-03 MaxDP=2.38D-01 DE=-6.65D-01 OVMax= 4.22D-01

 Cycle   3  Pass 1  IDiag  1:
 RMSU=  1.44D-03    CP:  9.89D-01  4.22D-01
 E= -992.148773991994     Delta-E=       -0.870302825698 Rises=F Damp=F
 DIIS: error= 1.42D-02 at cycle   3 NSaved=   3.
 NSaved= 3 IEnMin= 3 EnMin= -992.148773991994     IErMin= 3 ErrMin= 1.42D-02
 ErrMax= 1.42D-02  0.00D+00 EMaxC= 1.00D-01 BMatC= 1.23D-01 BMatP= 4.70D-01
 IDIUse=3 WtCom= 8.58D-01 WtEn= 1.42D-01
 Coeff-Com: -0.606D-01 0.319D+00 0.742D+00
 Coeff-En:   0.000D+00 0.000D+00 0.100D+01
 Coeff:     -0.520D-01 0.274D+00 0.778D+00
 Gap=     0.315 Goal=   None    Shift=    0.000
 RMSDP=6.96D-04 MaxDP=1.07D-01 DE=-8.70D-01 OVMax= 1.24D-01

 Cycle   4  Pass 1  IDiag  1:
 RMSU=  5.52D-04    CP:  9.87D-01  5.66D-01  1.02D+00
 E= -992.179691396620     Delta-E=       -0.030917404626 Rises=F Damp=F
 DIIS: error= 1.02D-02 at cycle   4 NSaved=   4.
 NSaved= 4 IEnMin= 4 EnMin= -992.179691396620     IErMin= 4 ErrMin= 1.02D-02
 ErrMax= 1.02D-02  0.00D+00 EMaxC= 1.00D-01 BMatC= 8.09D-02 BMatP= 1.23D-01
 IDIUse=3 WtCom= 8.98D-01 WtEn= 1.02D-01
 Coeff-Com: -0.109D-01 0.637D-01 0.473D+00 0.474D+00
 Coeff-En:   0.000D+00 0.000D+00 0.414D+00 0.586D+00
 Coeff:     -0.980D-02 0.572D-01 0.467D+00 0.485D+00
 Gap=     0.291 Goal=   None    Shift=    0.000
 RMSDP=3.03D-04 MaxDP=3.44D-02 DE=-3.09D-02 OVMax= 4.20D-02

 Cycle   5  Pass 1  IDiag  1:
 RMSU=  1.82D-04    CP:  9.85D-01  5.07D-01  1.07D+00  7.20D-01
 E= -992.234480493445     Delta-E=       -0.054789096825 Rises=F Damp=F
 DIIS: error= 1.93D-03 at cycle   5 NSaved=   5.
 NSaved= 5 IEnMin= 5 EnMin= -992.234480493445     IErMin= 5 ErrMin= 1.93D-03
 ErrMax= 1.93D-03  0.00D+00 EMaxC= 1.00D-01 BMatC= 2.85D-03 BMatP= 8.09D-02
 IDIUse=3 WtCom= 9.81D-01 WtEn= 1.93D-02
 Coeff-Com:  0.112D-01-0.280D-01 0.113D+00 0.215D+00 0.689D+00
 Coeff-En:   0.000D+00 0.000D+00 0.000D+00 0.000D+00 0.100D+01
 Coeff:      0.110D-01-0.275D-01 0.111D+00 0.211D+00 0.695D+00
 Gap=     0.289 Goal=   None    Shift=    0.000
 RMSDP=9.16D-05 MaxDP=7.67D-03 DE=-5.48D-02 OVMax= 9.84D-03

 Cycle   6  Pass 1  IDiag  1:
 RMSU=  7.45D-05    CP:  9.84D-01  4.97D-01  1.09D+00  7.73D-01  1.11D+00
 E= -992.236643424376     Delta-E=       -0.002162930932 Rises=F Damp=F
 DIIS: error= 3.88D-04 at cycle   6 NSaved=   6.
 NSaved= 6 IEnMin= 6 EnMin= -992.236643424376     IErMin= 6 ErrMin= 3.88D-04
 ErrMax= 3.88D-04  0.00D+00 EMaxC= 1.00D-01 BMatC= 1.23D-04 BMatP= 2.85D-03
 IDIUse=3 WtCom= 9.96D-01 WtEn= 3.88D-03
 Coeff-Com:  0.435D-02-0.129D-01-0.293D-01-0.192D-01 0.139D+00 0.918D+00
 Coeff-En:   0.000D+00 0.000D+00 0.000D+00 0.000D+00 0.000D+00 0.100D+01
 Coeff:      0.434D-02-0.129D-01-0.292D-01-0.191D-01 0.138D+00 0.919D+00
 Gap=     0.290 Goal=   None    Shift=    0.000
 RMSDP=4.64D-05 MaxDP=3.38D-03 DE=-2.16D-03 OVMax= 7.85D-03

 Cycle   7  Pass 1  IDiag  1:
 RMSU=  2.55D-05    CP:  9.84D-01  4.94D-01  1.09D+00  8.10D-01  1.27D+00
                    CP:  1.13D+00
 E= -992.236860180198     Delta-E=       -0.000216755821 Rises=F Damp=F
 DIIS: error= 1.21D-04 at cycle   7 NSaved=   7.
 NSaved= 7 IEnMin= 7 EnMin= -992.236860180198     IErMin= 7 ErrMin= 1.21D-04
 ErrMax= 1.21D-04  0.00D+00 EMaxC= 1.00D-01 BMatC= 2.16D-05 BMatP= 1.23D-04
 IDIUse=3 WtCom= 9.99D-01 WtEn= 1.21D-03
 Coeff-Com:  0.681D-03-0.190D-02-0.177D-01-0.279D-01-0.220D-01 0.301D+00
 Coeff-Com:  0.768D+00
 Coeff-En:   0.000D+00 0.000D+00 0.000D+00 0.000D+00 0.000D+00 0.000D+00
 Coeff-En:   0.100D+01
 Coeff:      0.680D-03-0.190D-02-0.177D-01-0.279D-01-0.220D-01 0.301D+00
 Coeff:      0.768D+00
 Gap=     0.290 Goal=   None    Shift=    0.000
 RMSDP=1.61D-05 MaxDP=1.29D-03 DE=-2.17D-04 OVMax= 3.53D-03

 Cycle   8  Pass 1  IDiag  1:
 RMSU=  8.97D-06    CP:  9.84D-01  4.94D-01  1.09D+00  8.17D-01  1.30D+00
                    CP:  1.23D+00  1.27D+00
 E= -992.236897093854     Delta-E=       -0.000036913656 Rises=F Damp=F
 DIIS: error= 6.48D-05 at cycle   8 NSaved=   8.
 NSaved= 8 IEnMin= 8 EnMin= -992.236897093854     IErMin= 8 ErrMin= 6.48D-05
 ErrMax= 6.48D-05  0.00D+00 EMaxC= 1.00D-01 BMatC= 4.34D-06 BMatP= 2.16D-05
 IDIUse=1 WtCom= 1.00D+00 WtEn= 0.00D+00
 Coeff-Com: -0.230D-03 0.674D-03-0.286D-02-0.100D-01-0.279D-01-0.628D-02
 Coeff-Com:  0.291D+00 0.756D+00
 Coeff:     -0.230D-03 0.674D-03-0.286D-02-0.100D-01-0.279D-01-0.628D-02
 Coeff:      0.291D+00 0.756D+00
 Gap=     0.289 Goal=   None    Shift=    0.000
 RMSDP=8.58D-06 MaxDP=7.25D-04 DE=-3.69D-05 OVMax= 2.18D-03

 Cycle   9  Pass 1  IDiag  1:
 RMSU=  4.18D-06    CP:  9.84D-01  4.93D-01  1.10D+00  8.19D-01  1.32D+00
                    CP:  1.28D+00  1.47D+00  1.28D+00
 E= -992.236906616296     Delta-E=       -0.000009522442 Rises=F Damp=F
 DIIS: error= 3.47D-05 at cycle   9 NSaved=   9.
 NSaved= 9 IEnMin= 9 EnMin= -992.236906616296     IErMin= 9 ErrMin= 3.47D-05
 ErrMax= 3.47D-05  0.00D+00 EMaxC= 1.00D-01 BMatC= 1.11D-06 BMatP= 4.34D-06
 IDIUse=1 WtCom= 1.00D+00 WtEn= 0.00D+00
 Coeff-Com: -0.330D-03 0.916D-03 0.345D-02 0.217D-02-0.745D-02-0.883D-01
 Coeff-Com: -0.715D-01 0.385D+00 0.776D+00
 Coeff:     -0.330D-03 0.916D-03 0.345D-02 0.217D-02-0.745D-02-0.883D-01
 Coeff:     -0.715D-01 0.385D+00 0.776D+00
 Gap=     0.289 Goal=   None    Shift=    0.000
 RMSDP=5.85D-06 MaxDP=4.90D-04 DE=-9.52D-06 OVMax= 1.70D-03

 Cycle  10  Pass 1  IDiag  1:
 RMSU=  2.33D-06    CP:  9.84D-01  4.93D-01  1.10D+00  8.20D-01  1.32D+00
                    CP:  1.30D+00  1.61D+00  1.61D+00  1.34D+00
 E= -992.236910144218     Delta-E=       -0.000003527922 Rises=F Damp=F
 DIIS: error= 1.25D-05 at cycle  10 NSaved=  10.
 NSaved=10 IEnMin=10 EnMin= -992.236910144218     IErMin=10 ErrMin= 1.25D-05
 ErrMax= 1.25D-05  0.00D+00 EMaxC= 1.00D-01 BMatC= 1.41D-07 BMatP= 1.11D-06
 IDIUse=1 WtCom= 1.00D+00 WtEn= 0.00D+00
 Coeff-Com: -0.406D-04 0.888D-04 0.606D-03 0.198D-02 0.417D-02-0.845D-02
 Coeff-Com: -0.626D-01-0.911D-01 0.998D-01 0.106D+01
 Coeff:     -0.406D-04 0.888D-04 0.606D-03 0.198D-02 0.417D-02-0.845D-02
 Coeff:     -0.626D-01-0.911D-01 0.998D-01 0.106D+01
 Gap=     0.289 Goal=   None    Shift=    0.000
 RMSDP=3.37D-06 MaxDP=2.89D-04 DE=-3.53D-06 OVMax= 1.07D-03

 Cycle  11  Pass 1  IDiag  1:
 RMSU=  1.01D-06    CP:  9.84D-01  4.93D-01  1.10D+00  8.20D-01  1.33D+00
                    CP:  1.30D+00  1.67D+00  1.80D+00  1.73D+00  1.58D+00
 E= -992.236911046910     Delta-E=       -0.000000902692 Rises=F Damp=F
 DIIS: error= 5.39D-06 at cycle  11 NSaved=  11.
 NSaved=11 IEnMin=11 EnMin= -992.236911046910     IErMin=11 ErrMin= 5.39D-06
 ErrMax= 5.39D-06  0.00D+00 EMaxC= 1.00D-01 BMatC= 2.40D-08 BMatP= 1.41D-07
 IDIUse=1 WtCom= 1.00D+00 WtEn= 0.00D+00
 Coeff-Com:  0.519D-04-0.173D-03-0.689D-03-0.115D-03 0.213D-02 0.203D-01
 Coeff-Com:  0.907D-02-0.101D+00-0.172D+00 0.144D+00 0.110D+01
 Coeff:      0.519D-04-0.173D-03-0.689D-03-0.115D-03 0.213D-02 0.203D-01
 Coeff:      0.907D-02-0.101D+00-0.172D+00 0.144D+00 0.110D+01
 Gap=     0.289 Goal=   None    Shift=    0.000
 RMSDP=1.85D-06 MaxDP=1.37D-04 DE=-9.03D-07 OVMax= 5.89D-04

 Cycle  12  Pass 1  IDiag  1:
 RMSU=  3.91D-07    CP:  9.84D-01  4.93D-01  1.10D+00  8.20D-01  1.33D+00
                    CP:  1.31D+00  1.69D+00  1.88D+00  1.95D+00  2.04D+00
                    CP:  1.63D+00
 E= -992.236911229336     Delta-E=       -0.000000182426 Rises=F Damp=F
 DIIS: error= 2.39D-06 at cycle  12 NSaved=  12.
 NSaved=12 IEnMin=12 EnMin= -992.236911229336     IErMin=12 ErrMin= 2.39D-06
 ErrMax= 2.39D-06  0.00D+00 EMaxC= 1.00D-01 BMatC= 3.51D-09 BMatP= 2.40D-08
 IDIUse=1 WtCom= 1.00D+00 WtEn= 0.00D+00
 Coeff-Com:  0.211D-04-0.454D-04-0.738D-04-0.200D-03-0.201D-03 0.185D-02
 Coeff-Com:  0.550D-02 0.353D-03-0.214D-01-0.968D-01 0.637D-01 0.105D+01
 Coeff:      0.211D-04-0.454D-04-0.738D-04-0.200D-03-0.201D-03 0.185D-02
 Coeff:      0.550D-02 0.353D-03-0.214D-01-0.968D-01 0.637D-01 0.105D+01
 Gap=     0.289 Goal=   None    Shift=    0.000
 RMSDP=5.78D-07 MaxDP=4.68D-05 DE=-1.82D-07 OVMax= 1.73D-04

 Cycle  13  Pass 1  IDiag  1:
 RMSU=  1.48D-07    CP:  9.84D-01  4.93D-01  1.10D+00  8.20D-01  1.33D+00
                    CP:  1.31D+00  1.70D+00  1.90D+00  2.01D+00  2.18D+00
                    CP:  1.90D+00  1.43D+00
 E= -992.236911245050     Delta-E=       -0.000000015713 Rises=F Damp=F
 DIIS: error= 1.29D-06 at cycle  13 NSaved=  13.
 NSaved=13 IEnMin=13 EnMin= -992.236911245050     IErMin=13 ErrMin= 1.29D-06
 ErrMax= 1.29D-06  0.00D+00 EMaxC= 1.00D-01 BMatC= 1.28D-09 BMatP= 3.51D-09
 IDIUse=1 WtCom= 1.00D+00 WtEn= 0.00D+00
 Coeff-Com:  0.460D-05 0.360D-06 0.734D-04-0.945D-04-0.481D-03-0.225D-02
 Coeff-Com:  0.182D-02 0.169D-01 0.158D-01-0.780D-01-0.139D+00 0.584D+00
 Coeff-Com:  0.602D+00
 Coeff:      0.460D-05 0.360D-06 0.734D-04-0.945D-04-0.481D-03-0.225D-02
 Coeff:      0.182D-02 0.169D-01 0.158D-01-0.780D-01-0.139D+00 0.584D+00
 Coeff:      0.602D+00
 Gap=     0.289 Goal=   None    Shift=    0.000
 RMSDP=1.57D-07 MaxDP=1.30D-05 DE=-1.57D-08 OVMax= 4.25D-05

 Cycle  14  Pass 1  IDiag  1:
 RMSU=  5.27D-08    CP:  9.84D-01  4.93D-01  1.10D+00  8.20D-01  1.33D+00
                    CP:  1.31D+00  1.70D+00  1.90D+00  2.02D+00  2.21D+00
                    CP:  1.99D+00  1.60D+00  1.21D+00
 E= -992.236911247131     Delta-E=       -0.000000002081 Rises=F Damp=F
 DIIS: error= 4.58D-07 at cycle  14 NSaved=  14.
 NSaved=14 IEnMin=14 EnMin= -992.236911247131     IErMin=14 ErrMin= 4.58D-07
 ErrMax= 4.58D-07  0.00D+00 EMaxC= 1.00D-01 BMatC= 1.37D-10 BMatP= 1.28D-09
 IDIUse=1 WtCom= 1.00D+00 WtEn= 0.00D+00
 Coeff-Com: -0.314D-05 0.972D-05 0.364D-04 0.119D-04-0.131D-03-0.103D-02
 Coeff-Com: -0.272D-03 0.579D-02 0.953D-02-0.541D-02-0.591D-01-0.275D-01
 Coeff-Com:  0.197D+00 0.881D+00
 Coeff:     -0.314D-05 0.972D-05 0.364D-04 0.119D-04-0.131D-03-0.103D-02
 Coeff:     -0.272D-03 0.579D-02 0.953D-02-0.541D-02-0.591D-01-0.275D-01
 Coeff:      0.197D+00 0.881D+00
 Gap=     0.289 Goal=   None    Shift=    0.000
 RMSDP=7.96D-08 MaxDP=5.93D-06 DE=-2.08D-09 OVMax= 1.75D-05

 Cycle  15  Pass 1  IDiag  1:
 RMSU=  2.81D-08    CP:  9.84D-01  4.93D-01  1.10D+00  8.20D-01  1.33D+00
                    CP:  1.31D+00  1.70D+00  1.90D+00  2.03D+00  2.22D+00
                    CP:  2.02D+00  1.71D+00  1.43D+00  1.43D+00
 E= -992.236911247649     Delta-E=       -0.000000000518 Rises=F Damp=F
 DIIS: error= 1.70D-07 at cycle  15 NSaved=  15.
 NSaved=15 IEnMin=15 EnMin= -992.236911247649     IErMin=15 ErrMin= 1.70D-07
 ErrMax= 1.70D-07  0.00D+00 EMaxC= 1.00D-01 BMatC= 2.65D-11 BMatP= 1.37D-10
 IDIUse=1 WtCom= 1.00D+00 WtEn= 0.00D+00
 Coeff-Com: -0.224D-05 0.357D-05-0.325D-05 0.266D-04 0.607D-04 0.951D-04
 Coeff-Com: -0.504D-03-0.152D-02-0.863D-04 0.136D-01 0.740D-02-0.120D+00
 Coeff-Com: -0.533D-01 0.275D+00 0.879D+00
 Coeff:     -0.224D-05 0.357D-05-0.325D-05 0.266D-04 0.607D-04 0.951D-04
 Coeff:     -0.504D-03-0.152D-02-0.863D-04 0.136D-01 0.740D-02-0.120D+00
 Coeff:     -0.533D-01 0.275D+00 0.879D+00
 Gap=     0.289 Goal=   None    Shift=    0.000
 RMSDP=3.54D-08 MaxDP=2.70D-06 DE=-5.18D-10 OVMax= 8.77D-06

 Cycle  16  Pass 1  IDiag  1:
 RMSU=  1.29D-08    CP:  9.84D-01  4.93D-01  1.10D+00  8.20D-01  1.33D+00
                    CP:  1.31D+00  1.70D+00  1.90D+00  2.03D+00  2.22D+00
                    CP:  2.03D+00  1.74D+00  1.57D+00  1.69D+00  1.34D+00
 E= -992.236911247689     Delta-E=       -0.000000000040 Rises=F Damp=F
 DIIS: error= 8.08D-08 at cycle  16 NSaved=  16.
 NSaved=16 IEnMin=16 EnMin= -992.236911247689     IErMin=16 ErrMin= 8.08D-08
 ErrMax= 8.08D-08  0.00D+00 EMaxC= 1.00D-01 BMatC= 3.27D-12 BMatP= 2.65D-11
 IDIUse=1 WtCom= 1.00D+00 WtEn= 0.00D+00
 Coeff-Com:  0.539D-10-0.516D-06-0.719D-05-0.181D-05 0.278D-04 0.169D-03
 Coeff-Com:  0.296D-04-0.107D-02-0.179D-02 0.195D-02 0.105D-01-0.310D-02
 Coeff-Com: -0.383D-01-0.139D+00 0.263D-01 0.114D+01
 Coeff:      0.539D-10-0.516D-06-0.719D-05-0.181D-05 0.278D-04 0.169D-03
 Coeff:      0.296D-04-0.107D-02-0.179D-02 0.195D-02 0.105D-01-0.310D-02
 Coeff:     -0.383D-01-0.139D+00 0.263D-01 0.114D+01
 Gap=     0.289 Goal=   None    Shift=    0.000
 RMSDP=1.78D-08 MaxDP=1.22D-06 DE=-4.00D-11 OVMax= 4.55D-06

 Cycle  17  Pass 1  IDiag  1:
 RMSU=  4.86D-09    CP:  9.84D-01  4.93D-01  1.10D+00  8.20D-01  1.33D+00
                    CP:  1.31D+00  1.70D+00  1.90D+00  2.03D+00  2.22D+00
                    CP:  2.04D+00  1.76D+00  1.62D+00  1.83D+00  1.63D+00
                    CP:  1.60D+00
 E= -992.236911247736     Delta-E=       -0.000000000047 Rises=F Damp=F
 DIIS: error= 1.94D-08 at cycle  17 NSaved=  17.
 NSaved=17 IEnMin=17 EnMin= -992.236911247736     IErMin=17 ErrMin= 1.94D-08
 ErrMax= 1.94D-08  0.00D+00 EMaxC= 1.00D-01 BMatC= 3.17D-13 BMatP= 3.27D-12
 IDIUse=1 WtCom= 1.00D+00 WtEn= 0.00D+00
 Coeff-Com:  0.242D-06-0.472D-06-0.200D-06-0.283D-05-0.267D-05-0.596D-06
 Coeff-Com:  0.383D-04 0.334D-04-0.138D-03-0.115D-02 0.223D-03 0.127D-01
 Coeff-Com:  0.119D-02-0.473D-01-0.103D+00 0.159D+00 0.979D+00
 Coeff:      0.242D-06-0.472D-06-0.200D-06-0.283D-05-0.267D-05-0.596D-06
 Coeff:      0.383D-04 0.334D-04-0.138D-03-0.115D-02 0.223D-03 0.127D-01
 Coeff:      0.119D-02-0.473D-01-0.103D+00 0.159D+00 0.979D+00
 Gap=     0.289 Goal=   None    Shift=    0.000
 RMSDP=5.08D-09 MaxDP=3.45D-07 DE=-4.73D-11 OVMax= 1.11D-06

 Error on total polarization charges =  0.03379
 SCF Done:  E(RwB97XD) =  -992.236911248     A.U. after   17 cycles
            NFock= 17  Conv=0.51D-08     -V/T= 2.0796
 KE= 9.190819249453D+02 PE=-4.448690724885D+03 EE= 1.466869490953D+03
 SMD-CDS (non-electrostatic) energy       (kcal/mol) =       0.48
 (included in total energy above)
 Leave Link  502 at Tue Oct  4 18:21:46 2022, MaxMem=  2952790016 cpu:           12904.6 elap:            1082.2
 (Enter /mnt/data/applications/G16/g16/l601.exe)
 Copying SCF densities to generalized density rwf, IOpCl= 0 IROHF=0.

 **********************************************************************

            Population analysis using the SCF density.

 **********************************************************************

 Orbital symmetries:
       Occupied  (A) (A) (A) (A) (A) (A) (A) (A) (A) (A) (A) (A)
                 (A) (A) (A) (A) (A) (A) (A) (A) (A) (A) (A) (A)
                 (A) (A) (A) (A) (A) (A) (A) (A) (A) (A) (A) (A)
                 (A) (A) (A) (A) (A) (A) (A) (A) (A) (A) (A) (A)
                 (A) (A) (A) (A) (A) (A) (A) (A) (A) (A) (A) (A)
       Virtual   (A) (A) (A) (A) (A) (A) (A) (A) (A) (A) (A) (A)
                 (A) (A) (A) (A) (A) (A) (A) (A) (A) (A) (A) (A)
                 (A) (A) (A) (A) (A) (A) (A) (A) (A) (A) (A) (A)
                 (A) (A) (A) (A) (A) (A) (A) (A) (A) (A) (A) (A)
                 (A) (A) (A) (A) (A) (A) (A) (A) (A) (A) (A) (A)
                 (A) (A) (A) (A) (A) (A) (A) (A) (A) (A) (A) (A)
                 (A) (A) (A) (A) (A) (A) (A) (A) (A) (A) (A) (A)
                 (A) (A) (A) (A) (A) (A) (A) (A) (A) (A) (A) (A)
                 (A) (A) (A) (A) (A) (A) (A) (A) (A) (A) (A) (A)
                 (A) (A) (A) (A) (A) (A) (A) (A) (A) (A) (A) (A)
                 (A) (A) (A) (A) (A) (A) (A) (A) (A) (A) (A) (A)
                 (A) (A) (A) (A) (A) (A) (A) (A) (A) (A) (A) (A)
                 (A) (A) (A) (A) (A) (A) (A) (A) (A) (A) (A) (A)
                 (A) (A) (A) (A) (A) (A) (A) (A) (A) (A) (A) (A)
                 (A) (A) (A) (A) (A) (A) (A) (A) (A) (A) (A) (A)
                 (A) (A) (A) (A) (A) (A) (A) (A) (A) (A) (A) (A)
                 (A) (A) (A) (A) (A) (A) (A) (A) (A) (A) (A) (A)
                 (A) (A) (A) (A) (A) (A) (A) (A) (A) (A) (A) (A)
                 (A) (A) (A) (A) (A) (A) (A) (A) (A) (A) (A) (A)
                 (A) (A) (A) (A) (A) (A) (A) (A) (A) (A) (A) (A)
                 (A) (A) (A) (A) (A) (A) (A) (A) (A) (A) (A) (A)
                 (A) (A) (A) (A) (A) (A) (A) (A) (A) (A) (A) (A)
                 (A) (A) (A) (A) (A) (A) (A) (A) (A) (A) (A) (A)
                 (A) (A) (A) (A) (A) (A) (A) (A) (A) (A) (A) (A)
                 (A) (A) (A) (A) (A) (A) (A) (A) (A) (A) (A) (A)
                 (A) (A) (A) (A) (A) (A) (A) (A) (A) (A) (A) (A)
                 (A) (A) (A) (A) (A) (A) (A) (A) (A) (A) (A) (A)
                 (A) (A) (A) (A) (A) (A) (A) (A) (A) (A) (A) (A)
                 (A) (A) (A) (A) (A) (A) (A) (A) (A) (A) (A) (A)
                 (A) (A) (A) (A) (A) (A) (A) (A) (A) (A) (A) (A)
                 (A) (A) (A) (A) (A) (A) (A) (A) (A) (A) (A) (A)
                 (A) (A) (A) (A) (A) (A) (A) (A) (A) (A) (A) (A)
                 (A) (A) (A) (A) (A) (A) (A) (A) (A) (A) (A) (A)
                 (A) (A) (A) (A) (A) (A) (A) (A) (A) (A) (A) (A)
                 (A) (A) (A) (A) (A) (A) (A) (A) (A) (A) (A) (A)
                 (A) (A) (A) (A) (A) (A) (A) (A) (A) (A) (A) (A)
                 (A) (A) (A) (A) (A) (A) (A) (A) (A) (A) (A) (A)
                 (A) (A) (A) (A) (A) (A)
 The electronic state is 1-A.
 Alpha  occ. eigenvalues --  -77.23976 -19.31878 -19.31795 -19.25038 -10.39985
 Alpha  occ. eigenvalues --  -10.39600 -10.37332 -10.28535 -10.28187 -10.28126
 Alpha  occ. eigenvalues --  -10.28116 -10.27897  -6.68389  -4.83074  -4.83072
 Alpha  occ. eigenvalues --   -4.82770  -3.32462  -2.08649  -2.08328  -2.04165
 Alpha  occ. eigenvalues --   -1.23375  -1.23250  -1.15524  -0.88641  -0.87869
 Alpha  occ. eigenvalues --   -0.79750  -0.79576  -0.75343  -0.66652  -0.66192
 Alpha  occ. eigenvalues --   -0.65091  -0.63714  -0.57343  -0.55697  -0.55204
 Alpha  occ. eigenvalues --   -0.54697  -0.54369  -0.54335  -0.54162  -0.53852
 Alpha  occ. eigenvalues --   -0.52932  -0.52559  -0.52058  -0.51802  -0.49723
 Alpha  occ. eigenvalues --   -0.49247  -0.49059  -0.47460  -0.46335  -0.44471
 Alpha  occ. eigenvalues --   -0.43392  -0.42505  -0.42412  -0.37101  -0.36012
 Alpha  occ. eigenvalues --   -0.34402  -0.34088  -0.32315  -0.31837  -0.27704
 Alpha virt. eigenvalues --    0.01214   0.04460   0.05058   0.06891   0.07688
 Alpha virt. eigenvalues --    0.08072   0.08543   0.08709   0.09528   0.09824
 Alpha virt. eigenvalues --    0.13007   0.13378   0.14000   0.14696   0.15524
 Alpha virt. eigenvalues --    0.16202   0.17006   0.17851   0.18310   0.18506
 Alpha virt. eigenvalues --    0.18824   0.19652   0.20047   0.20303   0.20747
 Alpha virt. eigenvalues --    0.20975   0.21360   0.21977   0.22466   0.22799
 Alpha virt. eigenvalues --    0.23659   0.24485   0.25502   0.25965   0.26227
 Alpha virt. eigenvalues --    0.26774   0.27463   0.28046   0.28549   0.28823
 Alpha virt. eigenvalues --    0.30568   0.31207   0.31850   0.33037   0.33838
 Alpha virt. eigenvalues --    0.34384   0.35312   0.35354   0.37291   0.37499
 Alpha virt. eigenvalues --    0.38240   0.39727   0.40738   0.41262   0.43111
 Alpha virt. eigenvalues --    0.43931   0.44599   0.45283   0.46061   0.46215
 Alpha virt. eigenvalues --    0.46630   0.47223   0.48200   0.48483   0.48947
 Alpha virt. eigenvalues --    0.49732   0.50278   0.50595   0.51505   0.51963
 Alpha virt. eigenvalues --    0.52430   0.52619   0.52963   0.53580   0.54164
 Alpha virt. eigenvalues --    0.54596   0.55198   0.55562   0.55999   0.56716
 Alpha virt. eigenvalues --    0.57832   0.58429   0.59020   0.59491   0.60862
 Alpha virt. eigenvalues --    0.61826   0.61977   0.62515   0.63143   0.64266
 Alpha virt. eigenvalues --    0.65137   0.65912   0.66999   0.67523   0.68377
 Alpha virt. eigenvalues --    0.68843   0.69547   0.70410   0.71266   0.71947
 Alpha virt. eigenvalues --    0.73027   0.74036   0.74802   0.75908   0.76845
 Alpha virt. eigenvalues --    0.77597   0.78215   0.79991   0.80914   0.81362
 Alpha virt. eigenvalues --    0.81999   0.82738   0.83703   0.84803   0.85443
 Alpha virt. eigenvalues --    0.87318   0.87400   0.89003   0.90049   0.91083
 Alpha virt. eigenvalues --    0.91478   0.94229   0.94971   0.95414   0.97625
 Alpha virt. eigenvalues --    0.98518   0.98985   1.00691   1.02213   1.02305
 Alpha virt. eigenvalues --    1.03988   1.05754   1.06670   1.07789   1.08104
 Alpha virt. eigenvalues --    1.09692   1.10913   1.12234   1.12816   1.12988
 Alpha virt. eigenvalues --    1.13933   1.14455   1.15441   1.16267   1.17203
 Alpha virt. eigenvalues --    1.19136   1.20064   1.20605   1.21683   1.24751
 Alpha virt. eigenvalues --    1.25715   1.27862   1.29503   1.30511   1.34600
 Alpha virt. eigenvalues --    1.35887   1.37154   1.39232   1.50134   1.51451
 Alpha virt. eigenvalues --    1.52249   1.53036   1.53482   1.54768   1.55325
 Alpha virt. eigenvalues --    1.56684   1.57458   1.58387   1.58660   1.59121
 Alpha virt. eigenvalues --    1.59721   1.60422   1.61133   1.61255   1.62093
 Alpha virt. eigenvalues --    1.62238   1.62598   1.62934   1.63084   1.63735
 Alpha virt. eigenvalues --    1.63904   1.64494   1.64953   1.65304   1.66114
 Alpha virt. eigenvalues --    1.66584   1.67015   1.67645   1.68798   1.69276
 Alpha virt. eigenvalues --    1.70573   1.71305   1.71436   1.72564   1.73575
 Alpha virt. eigenvalues --    1.73724   1.74634   1.74901   1.75798   1.76398
 Alpha virt. eigenvalues --    1.78212   1.79491   1.82256   1.83034   1.85851
 Alpha virt. eigenvalues --    1.87169   1.89302   1.91775   1.93042   1.94964
 Alpha virt. eigenvalues --    1.96349   1.99212   1.99885   2.01476   2.02141
 Alpha virt. eigenvalues --    2.03723   2.05182   2.06572   2.08565   2.09509
 Alpha virt. eigenvalues --    2.09869   2.11753   2.13267   2.14541   2.14951
 Alpha virt. eigenvalues --    2.15801   2.16250   2.17130   2.17933   2.18962
 Alpha virt. eigenvalues --    2.20207   2.20821   2.23250   2.25650   2.26929
 Alpha virt. eigenvalues --    2.29217   2.31052   2.33288   2.33722   2.34432
 Alpha virt. eigenvalues --    2.35459   2.37201   2.38410   2.40324   2.40804
 Alpha virt. eigenvalues --    2.42280   2.43107   2.44287   2.46574   2.46898
 Alpha virt. eigenvalues --    2.47046   2.48215   2.49840   2.50643   2.51492
 Alpha virt. eigenvalues --    2.53890   2.56380   2.58202   2.58885   2.61916
 Alpha virt. eigenvalues --    2.62549   2.64266   2.64933   2.65731   2.66433
 Alpha virt. eigenvalues --    2.67080   2.68427   2.69242   2.70313   2.71779
 Alpha virt. eigenvalues --    2.72660   2.72900   2.74015   2.74340   2.75183
 Alpha virt. eigenvalues --    2.75712   2.75780   2.76717   2.78132   2.80473
 Alpha virt. eigenvalues --    2.82884   2.83643   2.86602   2.87263   2.87438
 Alpha virt. eigenvalues --    2.89086   2.89902   2.90528   2.92129   2.92411
 Alpha virt. eigenvalues --    2.93891   2.94296   2.95024   2.95617   2.97000
 Alpha virt. eigenvalues --    2.97913   2.98991   3.01685   3.02811   3.03868
 Alpha virt. eigenvalues --    3.04745   3.06572   3.07070   3.08092   3.09006
 Alpha virt. eigenvalues --    3.10919   3.11243   3.12645   3.14522   3.15975
 Alpha virt. eigenvalues --    3.16609   3.17144   3.18647   3.19233   3.21602
 Alpha virt. eigenvalues --    3.22157   3.22616   3.23681   3.23912   3.24574
 Alpha virt. eigenvalues --    3.25639   3.25873   3.27339   3.29180   3.30085
 Alpha virt. eigenvalues --    3.30549   3.31742   3.33139   3.35771   3.37114
 Alpha virt. eigenvalues --    3.38382   3.38807   3.39496   3.40447   3.42175
 Alpha virt. eigenvalues --    3.43342   3.43629   3.44336   3.45817   3.47513
 Alpha virt. eigenvalues --    3.49060   3.51544   3.55106   3.55270   3.56373
 Alpha virt. eigenvalues --    3.57409   3.59370   3.61756   3.63400   3.64092
 Alpha virt. eigenvalues --    3.64710   3.67817   3.68515   3.69033   3.70205
 Alpha virt. eigenvalues --    3.70609   3.71295   3.71759   3.73321   3.73789
 Alpha virt. eigenvalues --    3.78204   3.79092   3.79400   3.81048   3.84014
 Alpha virt. eigenvalues --    3.85928   3.89658   3.97009   3.99868   4.01868
 Alpha virt. eigenvalues --    4.04141   4.04496   4.08389   4.16668   4.20502
 Alpha virt. eigenvalues --    4.32132   4.33184   4.35017   4.35608   4.36092
 Alpha virt. eigenvalues --    4.38593   4.40385   4.40923   4.42916   4.47655
 Alpha virt. eigenvalues --    4.49751   4.51225   4.53314   4.54306   4.55446
 Alpha virt. eigenvalues --    4.60851   4.65405   4.76219   4.85255   4.92341
 Alpha virt. eigenvalues --    5.19559   5.19576   5.19621   5.19674   5.27242
 Alpha virt. eigenvalues --    5.27999   5.57875   5.58209   5.58554   5.59256
 Alpha virt. eigenvalues --    5.65172   5.74525   6.21240   6.28859   6.30789
 Alpha virt. eigenvalues --    6.31610   6.33773   6.34839   6.35215   6.35611
 Alpha virt. eigenvalues --    6.36274   6.43094   6.45442   6.49573   6.55647
 Alpha virt. eigenvalues --    6.62697   6.64822   6.81742   6.81786   6.82150
 Alpha virt. eigenvalues --    6.84879   6.90166   7.03404   7.16516   7.17340
 Alpha virt. eigenvalues --    7.17870   7.86176   7.88959   7.89983  15.69408
 Alpha virt. eigenvalues --   22.39085  22.43351  22.43752  22.45532  22.59259
 Alpha virt. eigenvalues --   22.65399  22.88652  22.89785  37.65642  38.38242
 Alpha virt. eigenvalues --   38.53398  43.93229  43.95160  43.98096  49.85849
          Condensed to atoms (all electrons):
               1          2          3          4          5          6
     1  Rh  16.057540   0.254691  -0.020660  -0.018538  -0.033293  -0.004764
     2  P    0.254691  13.774789   0.333238   0.329469   0.340925  -0.021719
     3  C   -0.020660   0.333238   5.034304  -0.034872  -0.038884  -0.001774
     4  C   -0.018538   0.329469  -0.034872   5.027911  -0.033272   0.004166
     5  C   -0.033293   0.340925  -0.038884  -0.033272   5.010187   0.401474
     6  H   -0.004764  -0.021719  -0.001774   0.004166   0.401474   0.492798
     7  H    0.007812  -0.026519  -0.004699  -0.006301   0.395687  -0.022731
     8  H   -0.002603  -0.025951   0.398751   0.004134   0.000712   0.000678
     9  H   -0.004461  -0.021526   0.400406  -0.001307   0.004152  -0.000055
    10  H    0.006928  -0.023538   0.392047  -0.004970  -0.005615  -0.000106
    11  H   -0.009269  -0.022231  -0.000306   0.395484   0.004306  -0.000080
    12  H   -0.002746  -0.022476   0.003768   0.396994  -0.000523  -0.000101
    13  H    0.007298  -0.027067  -0.004122   0.394843  -0.004354  -0.000117
    14  C    0.139759  -0.029504  -0.000006   0.000362   0.000661  -0.000004
    15  O   -0.006962   0.000278  -0.000002  -0.000005  -0.000005  -0.000000
    16  C    0.093016   0.015843  -0.004632   0.000879   0.000113   0.000199
    17  O   -0.002691  -0.004238   0.002433   0.000023   0.000031  -0.000014
    18  H   -0.004435  -0.021129   0.004159  -0.000263   0.399481  -0.013344
    19  H    0.311124   0.025761   0.001231  -0.008005  -0.007218  -0.000609
    20  O    0.006576   0.010051  -0.007937  -0.011686   0.000208  -0.000000
    21  C   -0.003777  -0.000332  -0.000024  -0.003376  -0.000027  -0.000001
    22  H   -0.001351   0.000302  -0.000102  -0.000395   0.000003  -0.000000
    23  C   -0.024257  -0.005954   0.000590   0.011450   0.000049   0.000005
    24  H    0.023282   0.002346  -0.000605  -0.004455   0.000175  -0.000012
    25  H   -0.001409   0.000184  -0.000001  -0.000169   0.000002   0.000000
    26  C    0.001813   0.000014   0.000017  -0.001715  -0.000017  -0.000000
    27  H    0.000699   0.000003  -0.000000   0.000031  -0.000001  -0.000000
    28  H   -0.000355   0.000004  -0.000001  -0.000013   0.000000   0.000000
    29  H   -0.000497   0.000102   0.000001  -0.000437   0.000002   0.000000
               7          8          9         10         11         12
     1  Rh   0.007812  -0.002603  -0.004461   0.006928  -0.009269  -0.002746
     2  P   -0.026519  -0.025951  -0.021526  -0.023538  -0.022231  -0.022476
     3  C   -0.004699   0.398751   0.400406   0.392047  -0.000306   0.003768
     4  C   -0.006301   0.004134  -0.001307  -0.004970   0.395484   0.396994
     5  C    0.395687   0.000712   0.004152  -0.005615   0.004306  -0.000523
     6  H   -0.022731   0.000678  -0.000055  -0.000106  -0.000080  -0.000101
     7  H    0.525302  -0.000384  -0.000139   0.003807  -0.000095  -0.000187
     8  H   -0.000384   0.499510  -0.014074  -0.020994  -0.000060  -0.000056
     9  H   -0.000139  -0.014074   0.467158  -0.018166   0.000772  -0.000093
    10  H    0.003807  -0.020994  -0.018166   0.520269  -0.000091  -0.000132
    11  H   -0.000095  -0.000060   0.000772  -0.000091   0.502981  -0.013026
    12  H   -0.000187  -0.000056  -0.000093  -0.000132  -0.013026   0.487811
    13  H    0.003834  -0.000145  -0.000197   0.003383  -0.019860  -0.020350
    14  C   -0.000010   0.000024   0.000063  -0.000009  -0.000004   0.000089
    15  O    0.000000  -0.000000  -0.000000   0.000000  -0.000000  -0.000001
    16  C   -0.000021  -0.001240  -0.000917   0.000508  -0.000047   0.000029
    17  O   -0.000001  -0.000101  -0.000092  -0.000022  -0.000010  -0.000001
    18  H   -0.021986  -0.000109  -0.000071  -0.000113  -0.000072   0.000717
    19  H    0.000440   0.000022   0.000009  -0.000010  -0.000149  -0.000714
    20  O   -0.000001   0.000159   0.007593  -0.000068   0.011354   0.000349
    21  C    0.000001   0.000010  -0.000850  -0.000003  -0.000589  -0.000105
    22  H   -0.000000   0.000003   0.000080  -0.000000   0.000591   0.000016
    23  C   -0.000008  -0.000034   0.000002  -0.000020   0.000770  -0.000401
    24  H    0.000004   0.000034   0.000027   0.000001  -0.001709  -0.000234
    25  H   -0.000000   0.000001  -0.000012   0.000000   0.000437   0.000013
    26  C    0.000001   0.000001  -0.000004  -0.000001  -0.002365  -0.000049
    27  H    0.000000  -0.000000   0.000000   0.000000   0.000036  -0.000050
    28  H   -0.000000   0.000000   0.000001  -0.000000   0.000042   0.000021
    29  H   -0.000000   0.000000  -0.000012   0.000001   0.001753  -0.000173
              13         14         15         16         17         18
     1  Rh   0.007298   0.139759  -0.006962   0.093016  -0.002691  -0.004435
     2  P   -0.027067  -0.029504   0.000278   0.015843  -0.004238  -0.021129
     3  C   -0.004122  -0.000006  -0.000002  -0.004632   0.002433   0.004159
     4  C    0.394843   0.000362  -0.000005   0.000879   0.000023  -0.000263
     5  C   -0.004354   0.000661  -0.000005   0.000113   0.000031   0.399481
     6  H   -0.000117  -0.000004  -0.000000   0.000199  -0.000014  -0.013344
     7  H    0.003834  -0.000010   0.000000  -0.000021  -0.000001  -0.021986
     8  H   -0.000145   0.000024  -0.000000  -0.001240  -0.000101  -0.000109
     9  H   -0.000197   0.000063  -0.000000  -0.000917  -0.000092  -0.000071
    10  H    0.003383  -0.000009   0.000000   0.000508  -0.000022  -0.000113
    11  H   -0.019860  -0.000004  -0.000000  -0.000047  -0.000010  -0.000072
    12  H   -0.020350   0.000089  -0.000001   0.000029  -0.000001   0.000717
    13  H    0.516597  -0.000012   0.000000  -0.000043  -0.000001  -0.000362
    14  C   -0.000012   5.385228   0.551919   0.027418  -0.003806  -0.000038
    15  O    0.000000   0.551919   7.579584  -0.002901   0.000188  -0.000000
    16  C   -0.000043   0.027418  -0.002901   5.432352   0.540817   0.000018
    17  O   -0.000001  -0.003806   0.000188   0.540817   7.587485  -0.000001
    18  H   -0.000362  -0.000038  -0.000000   0.000018  -0.000001   0.488442
    19  H    0.000411   0.032882  -0.003511  -0.026742   0.000271  -0.000672
    20  O    0.000158   0.000196   0.000000  -0.001166  -0.000328  -0.000001
    21  C    0.000163   0.000028  -0.000001  -0.002354   0.000446   0.000002
    22  H    0.000007   0.000016   0.000000   0.000003  -0.000036  -0.000000
    23  C   -0.000410  -0.000532  -0.000011   0.004517   0.000042  -0.000006
    24  H    0.000256  -0.000704  -0.000162  -0.011087  -0.000378   0.000016
    25  H    0.000003  -0.000438   0.000019  -0.000278  -0.000042   0.000000
    26  C    0.000114   0.000120  -0.000006   0.000131  -0.000007  -0.000000
    27  H   -0.000007  -0.000036  -0.000007   0.000000  -0.000000  -0.000000
    28  H   -0.000002   0.000002  -0.000000  -0.000007   0.000000  -0.000000
    29  H    0.000065  -0.000007   0.000000   0.000009  -0.000001  -0.000000
              19         20         21         22         23         24
     1  Rh   0.311124   0.006576  -0.003777  -0.001351  -0.024257   0.023282
     2  P    0.025761   0.010051  -0.000332   0.000302  -0.005954   0.002346
     3  C    0.001231  -0.007937  -0.000024  -0.000102   0.000590  -0.000605
     4  C   -0.008005  -0.011686  -0.003376  -0.000395   0.011450  -0.004455
     5  C   -0.007218   0.000208  -0.000027   0.000003   0.000049   0.000175
     6  H   -0.000609  -0.000000  -0.000001  -0.000000   0.000005  -0.000012
     7  H    0.000440  -0.000001   0.000001  -0.000000  -0.000008   0.000004
     8  H    0.000022   0.000159   0.000010   0.000003  -0.000034   0.000034
     9  H    0.000009   0.007593  -0.000850   0.000080   0.000002   0.000027
    10  H   -0.000010  -0.000068  -0.000003  -0.000000  -0.000020   0.000001
    11  H   -0.000149   0.011354  -0.000589   0.000591   0.000770  -0.001709
    12  H   -0.000714   0.000349  -0.000105   0.000016  -0.000401  -0.000234
    13  H    0.000411   0.000158   0.000163   0.000007  -0.000410   0.000256
    14  C    0.032882   0.000196   0.000028   0.000016  -0.000532  -0.000704
    15  O   -0.003511   0.000000  -0.000001   0.000000  -0.000011  -0.000162
    16  C   -0.026742  -0.001166  -0.002354   0.000003   0.004517  -0.011087
    17  O    0.000271  -0.000328   0.000446  -0.000036   0.000042  -0.000378
    18  H   -0.000672  -0.000001   0.000002  -0.000000  -0.000006   0.000016
    19  H    0.820202   0.000088   0.000256   0.000006  -0.002772   0.004202
    20  O    0.000088   7.918349   0.559198  -0.046034  -0.115902   0.007577
    21  C    0.000256   0.559198   4.668790   0.421331   0.268292  -0.023915
    22  H    0.000006  -0.046034   0.421331   0.634665  -0.128302   0.008054
    23  C   -0.002772  -0.115902   0.268292  -0.128302   5.226293   0.364543
    24  H    0.004202   0.007577  -0.023915   0.008054   0.364543   0.568428
    25  H    0.000012   0.004296  -0.022860   0.003930   0.388489  -0.020642
    26  C    0.000238   0.002346  -0.014767   0.006115   0.259904  -0.026459
    27  H   -0.000004  -0.000279   0.005830  -0.000737  -0.032895  -0.004475
    28  H    0.000000   0.000213  -0.002011   0.003394  -0.047113   0.008418
    29  H   -0.000018   0.001378  -0.005102   0.001272  -0.028870  -0.007610
              25         26         27         28         29
     1  Rh  -0.001409   0.001813   0.000699  -0.000355  -0.000497
     2  P    0.000184   0.000014   0.000003   0.000004   0.000102
     3  C   -0.000001   0.000017  -0.000000  -0.000001   0.000001
     4  C   -0.000169  -0.001715   0.000031  -0.000013  -0.000437
     5  C    0.000002  -0.000017  -0.000001   0.000000   0.000002
     6  H    0.000000  -0.000000  -0.000000   0.000000   0.000000
     7  H   -0.000000   0.000001   0.000000  -0.000000  -0.000000
     8  H    0.000001   0.000001  -0.000000   0.000000   0.000000
     9  H   -0.000012  -0.000004   0.000000   0.000001  -0.000012
    10  H    0.000000  -0.000001   0.000000  -0.000000   0.000001
    11  H    0.000437  -0.002365   0.000036   0.000042   0.001753
    12  H    0.000013  -0.000049  -0.000050   0.000021  -0.000173
    13  H    0.000003   0.000114  -0.000007  -0.000002   0.000065
    14  C   -0.000438   0.000120  -0.000036   0.000002  -0.000007
    15  O    0.000019  -0.000006  -0.000007  -0.000000   0.000000
    16  C   -0.000278   0.000131   0.000000  -0.000007   0.000009
    17  O   -0.000042  -0.000007  -0.000000   0.000000  -0.000001
    18  H    0.000000  -0.000000  -0.000000  -0.000000  -0.000000
    19  H    0.000012   0.000238  -0.000004   0.000000  -0.000018
    20  O    0.004296   0.002346  -0.000279   0.000213   0.001378
    21  C   -0.022860  -0.014767   0.005830  -0.002011  -0.005102
    22  H    0.003930   0.006115  -0.000737   0.003394   0.001272
    23  C    0.388489   0.259904  -0.032895  -0.047113  -0.028870
    24  H   -0.020642  -0.026459  -0.004475   0.008418  -0.007610
    25  H    0.550280  -0.026504  -0.006525  -0.003910   0.006464
    26  C   -0.026504   4.938651   0.416423   0.419054   0.405271
    27  H   -0.006525   0.416423   0.519830  -0.021436  -0.021191
    28  H   -0.003910   0.419054  -0.021436   0.541854  -0.027172
    29  H    0.006464   0.405271  -0.021191  -0.027172   0.547452
 Mulliken charges:
               1
     1  Rh   0.231530
     2  P    0.164184
     3  C   -0.452315
     4  C   -0.435965
     5  C   -0.434958
     6  H    0.166111
     7  H    0.146195
     8  H    0.161714
     9  H    0.181717
    10  H    0.146912
    11  H    0.151439
    12  H    0.171613
    13  H    0.149917
    14  C   -0.103659
    15  O   -0.118411
    16  C   -0.064416
    17  O   -0.119965
    18  H    0.169765
    19  H   -0.146730
    20  O   -0.346687
    21  C    0.155747
    22  H    0.097169
    23  C   -0.137458
    24  H    0.115084
    25  H    0.128659
    26  C   -0.378318
    27  H    0.144790
    28  H    0.129017
    29  H    0.127320
 Sum of Mulliken charges =  -0.00000
 Mulliken charges with hydrogens summed into heavy atoms:
               1
     1  Rh   0.084800
     2  P    0.164184
     3  C    0.038027
     4  C    0.037004
     5  C    0.047113
    14  C   -0.103659
    15  O   -0.118411
    16  C   -0.064416
    17  O   -0.119965
    20  O   -0.346687
    21  C    0.252916
    23  C    0.106285
    26  C    0.022810
 Electronic spatial extent (au):  <R**2>=           3785.3095
 Charge=             -0.0000 electrons
 Dipole moment (field-independent basis, Debye):
    X=              1.8879    Y=             -3.8708    Z=             -1.3933  Tot=              4.5265
 Quadrupole moment (field-independent basis, Debye-Ang):
   XX=            -91.3073   YY=           -100.3969   ZZ=           -108.4408
   XY=             11.4067   XZ=             -4.8592   YZ=              5.0468
 Traceless Quadrupole moment (field-independent basis, Debye-Ang):
   XX=              8.7411   YY=             -0.3486   ZZ=             -8.3925
   XY=             11.4067   XZ=             -4.8592   YZ=              5.0468
 Octapole moment (field-independent basis, Debye-Ang**2):
  XXX=              2.9633  YYY=             -6.8682  ZZZ=            -12.6356  XYY=            -16.0845
  XXY=             16.9254  XXZ=             -0.3505  XZZ=            -14.6147  YZZ=              7.4633
  YYZ=              1.7367  XYZ=              2.6631
 Hexadecapole moment (field-independent basis, Debye-Ang**3):
 XXXX=          -1963.2825 YYYY=          -1953.6898 ZZZZ=          -1028.9214 XXXY=              8.4725
 XXXZ=             14.1637 YYYX=             19.5448 YYYZ=             34.7783 ZZZX=              2.9216
 ZZZY=            -10.8782 XXYY=           -681.6124 XXZZ=           -527.1048 YYZZ=           -485.6479
 XXYZ=             15.2204 YYXZ=            -10.2713 ZZXY=              7.1455
 N-N= 1.070502397739D+03 E-N=-4.448690727469D+03  KE= 9.190819249453D+02
 No NMR shielding tensors so no spin-rotation constants.
 Leave Link  601 at Tue Oct  4 18:21:47 2022, MaxMem=  2952790016 cpu:               8.5 elap:               0.8
 (Enter /mnt/data/applications/G16/g16/l701.exe)
 ... and contract with generalized density number  0.
 Compute integral first derivatives.
 R6Disp: Adding Grimme-D2 dispersion energy 1st derivatives to the gradient.
   1 Symmetry operations used in ECPInt.
 ECPInt:  NShTT=   22578 NPrTT=   66767 LenC2=   20834 LenP2D=   45559.
 LDataN:  DoStor=T MaxTD1= 8 Len=  415
 D1PCM: PCM CHGder 1st derivatives, ID1Alg=3 FixD1E=F DoIter=F DoCFld=F I1PDM=0.
 GePol: Maximum number of non-zero 1st derivatives   =     422
 Leave Link  701 at Tue Oct  4 18:21:59 2022, MaxMem=  2952790016 cpu:             144.1 elap:              12.1
 (Enter /mnt/data/applications/G16/g16/l702.exe)
 L702 exits ... SP integral derivatives will be done elsewhere.
 Leave Link  702 at Tue Oct  4 18:21:59 2022, MaxMem=  2952790016 cpu:               0.2 elap:               0.0
 (Enter /mnt/data/applications/G16/g16/l703.exe)
 Integral derivatives from FoFJK, PRISM(SPDF).
 Compute integral first derivatives, UseDBF=F ICtDFT=           0.
 Calling FoFJK, ICntrl=      2127 FMM=F ISym2X=0 I1Cent= 0 IOpClX= 0 NMat=1 NMatS=1 NMatT=0.
 FoFJK:  IHMeth= 1 ICntrl=    2127 DoSepK=T KAlg= 0 I1Cent=           0 FoldK=F
 IRaf=         1 NMat=       1 IRICut=       1 DoRegI=T DoRafI=F ISym2E= 0 IDoP0=0 IntGTp=1.
 FoFCou: FMM=F IPFlag=           0 FMFlag=      100000 FMFlg1=         800
         NFxFlg=           0 DoJE=F BraDBF=F KetDBF=F FulRan=T
         wScrn=  0.000000 ICntrl=      2527 IOpCl=  0 I1Cent=           0 NGrid=           0
         NMat0=    1 NMatS0=      1 NMatT0=    0 NMatD0=    1 NMtDS0=    0 NMtDT0=    0
 Symmetry not used in FoFCou.
 Defaulting to unpruned grid for atomic number  45.
 Defaulting to unpruned grid for atomic number  45.
 Defaulting to unpruned grid for atomic number  45.
 Defaulting to unpruned grid for atomic number  45.
 Defaulting to unpruned grid for atomic number  45.
 Defaulting to unpruned grid for atomic number  45.
 Defaulting to unpruned grid for atomic number  45.
 Defaulting to unpruned grid for atomic number  45.
 Defaulting to unpruned grid for atomic number  45.
 Defaulting to unpruned grid for atomic number  45.
 Defaulting to unpruned grid for atomic number  45.
 Defaulting to unpruned grid for atomic number  45.
 Leave Link  703 at Tue Oct  4 18:26:01 2022, MaxMem=  2952790016 cpu:            2885.6 elap:             241.1
 (Enter /mnt/data/applications/G16/g16/l716.exe)
 Dipole        = 7.42753052D-01-1.52290303D+00-5.48177085D-01
 ***** Axes restored to original set *****
 -------------------------------------------------------------------
 Center     Atomic                   Forces (Hartrees/Bohr)
 Number     Number              X              Y              Z
 -------------------------------------------------------------------
      1       45          -0.000154753   -0.000907268    0.000388949
      2       15           0.000090822    0.000049214    0.000228062
      3        6          -0.000002640    0.000105169   -0.000035825
      4        6           0.000002220    0.000026820   -0.000009417
      5        6          -0.000008353    0.000004394   -0.000013260
      6        1           0.000001704    0.000006525    0.000015537
      7        1          -0.000013420   -0.000008473   -0.000013782
      8        1           0.000007056    0.000001145   -0.000005158
      9        1           0.000006520   -0.000001395   -0.000005295
     10        1           0.000011691    0.000020828    0.000033450
     11        1          -0.000000988   -0.000000297   -0.000003067
     12        1          -0.000001343   -0.000006539   -0.000003009
     13        1           0.000015328   -0.000011393   -0.000029535
     14        6           0.000244830    0.001085061    0.000712246
     15        8          -0.000052426   -0.000128143   -0.000111562
     16        6          -0.000163551   -0.000151194   -0.001232597
     17        8           0.000029742    0.000013598    0.000259123
     18        1           0.000007449   -0.000000741    0.000002125
     19        1          -0.000023548   -0.000042574   -0.000165412
     20        8           0.000043801   -0.000017859   -0.000025880
     21        6          -0.000056761    0.000050639    0.000029443
     22        1           0.000011885   -0.000006272   -0.000008759
     23        6          -0.000000382   -0.000055388    0.000005227
     24        1           0.000036588    0.000008418   -0.000000965
     25        1          -0.000008220    0.000001392    0.000000796
     26        6          -0.000013636   -0.000013088   -0.000008380
     27        1           0.000001332   -0.000007975    0.000004525
     28        1          -0.000007143   -0.000008033   -0.000001869
     29        1          -0.000003803   -0.000006571   -0.000005710
 -------------------------------------------------------------------
 Cartesian Forces:  Max     0.001232597 RMS     0.000228352
 Leave Link  716 at Tue Oct  4 18:26:01 2022, MaxMem=  2952790016 cpu:               0.3 elap:               0.0
 (Enter /mnt/data/applications/G16/g16/l103.exe)

 GradGradGradGradGradGradGradGradGradGradGradGradGradGradGradGradGradGrad
 Berny optimization.
 FormGI is forming the generalized inverse of G from B-inverse, IUseBI=4.
 Internal  Forces:  Max     0.001052731 RMS     0.000115992
 Search for a local minimum.
 Step number   1 out of a maximum of  174
 All quantities printed in internal units (Hartrees-Bohrs-Radians)
 RMS Force = .11599D-03 SwitMx=.10000D-02 MixMth= 2
 Mixed Optimization -- En-DIIS/RFO-DIIS
 Second derivative matrix not updated -- first step.
 ITU=  0
     Eigenvalues ---    0.00390   0.00405   0.00496   0.00840   0.00943
     Eigenvalues ---    0.01077   0.01412   0.01737   0.02104   0.02263
     Eigenvalues ---    0.02411   0.02772   0.02980   0.03170   0.03466
     Eigenvalues ---    0.03676   0.03866   0.04062   0.04466   0.04696
     Eigenvalues ---    0.04799   0.05153   0.05153   0.05161   0.05161
     Eigenvalues ---    0.05340   0.05771   0.05787   0.05987   0.06088
     Eigenvalues ---    0.06220   0.06434   0.06452   0.06729   0.07553
     Eigenvalues ---    0.07729   0.07921   0.08377   0.08891   0.09425
     Eigenvalues ---    0.09858   0.10823   0.11025   0.11288   0.11445
     Eigenvalues ---    0.11735   0.13241   0.13562   0.14339   0.14946
     Eigenvalues ---    0.14985   0.15997   0.16000   0.16000   0.16000
     Eigenvalues ---    0.18324   0.22312   0.23641   0.23653   0.24840
     Eigenvalues ---    0.25232   0.26916   0.27415   0.29149   0.30665
     Eigenvalues ---    0.31903   0.32513   0.33752   0.34226   0.34526
     Eigenvalues ---    0.34565   0.34568   0.34587   0.34681   0.34737
     Eigenvalues ---    0.34813   0.34819   0.34820   0.88325   1.43079
     Eigenvalues ---    1.43523
 RFO step:  Lambda=-1.60686292D-05 EMin= 3.89957110D-03
 Linear search not attempted -- first point.
 Iteration  1 RMS(Cart)=  0.00152795 RMS(Int)=  0.00000209
 Iteration  2 RMS(Cart)=  0.00000329 RMS(Int)=  0.00000024
 Iteration  3 RMS(Cart)=  0.00000000 RMS(Int)=  0.00000024
 ITry= 1 IFail=0 DXMaxC= 8.88D-03 DCOld= 1.00D+10 DXMaxT= 5.00D-02 DXLimC= 3.00D+00 Rises=F
 Variable       Old X    -DE/DX   Delta X   Delta X   Delta X     New X
                                 (Linear)    (Quad)   (Total)
    R1        4.42930  -0.00013   0.00000  -0.00109  -0.00109   4.42820
    R2        3.55613   0.00105   0.00000   0.00417   0.00417   3.56030
    R3        3.59751   0.00099   0.00000   0.00417   0.00417   3.60168
    R4        3.09732  -0.00017   0.00000  -0.00112  -0.00112   3.09619
    R5        4.92480  -0.00003   0.00000  -0.00130  -0.00130   4.92350
    R6        3.43339  -0.00005   0.00000  -0.00021  -0.00021   3.43318
    R7        3.43270  -0.00004   0.00000  -0.00010  -0.00010   3.43260
    R8        3.43317  -0.00002   0.00000  -0.00006  -0.00006   3.43311
    R9        2.06196   0.00000   0.00000   0.00000   0.00000   2.06196
   R10        2.06065   0.00000   0.00000   0.00001   0.00001   2.06066
   R11        2.06351  -0.00001   0.00000  -0.00002  -0.00002   2.06348
   R12        2.05969   0.00003   0.00000   0.00003   0.00003   2.05972
   R13        2.05968   0.00000   0.00000   0.00000   0.00000   2.05968
   R14        2.06387   0.00001   0.00000   0.00002   0.00002   2.06389
   R15        2.06104  -0.00001   0.00000  -0.00002  -0.00002   2.06102
   R16        2.06382   0.00001   0.00000   0.00003   0.00003   2.06385
   R17        2.05970   0.00000   0.00000   0.00000   0.00000   2.05971
   R18        5.11812   0.00000   0.00000   0.00040   0.00040   5.11852
   R19        4.92032   0.00000   0.00000  -0.00004  -0.00004   4.92027
   R20        5.10562  -0.00004   0.00000  -0.00007  -0.00007   5.10555
   R21        5.14160   0.00001   0.00000  -0.00002  -0.00002   5.14157
   R22        2.15006  -0.00016   0.00000  -0.00011  -0.00011   2.14995
   R23        2.15117  -0.00025   0.00000  -0.00018  -0.00018   2.15099
   R24        2.27634   0.00006   0.00000   0.00006   0.00006   2.27640
   R25        2.09914  -0.00001   0.00000  -0.00003  -0.00003   2.09911
   R26        2.82646  -0.00001   0.00000  -0.00004  -0.00004   2.82642
   R27        2.06733   0.00000   0.00000   0.00002   0.00002   2.06734
   R28        2.06951   0.00001   0.00000   0.00002   0.00002   2.06952
   R29        2.88816   0.00000   0.00000  -0.00000  -0.00000   2.88816
   R30        2.05980   0.00001   0.00000   0.00002   0.00002   2.05982
   R31        2.06451   0.00000   0.00000   0.00001   0.00001   2.06452
   R32        2.06305   0.00001   0.00000  -0.00002  -0.00002   2.06304
    A1        1.67604  -0.00005   0.00000   0.00079   0.00079   1.67683
    A2        1.41458  -0.00010   0.00000  -0.00275  -0.00275   1.41183
    A3        1.51311   0.00002   0.00000   0.00048   0.00048   1.51359
    A4        1.70830   0.00032   0.00000   0.00366   0.00366   1.71197
    A5        1.48443  -0.00017   0.00000  -0.00173  -0.00173   1.48270
    A6        1.68220   0.00011   0.00000   0.00147   0.00146   1.68366
    A7        1.54589   0.00002   0.00000   0.00056   0.00056   1.54645
    A8        1.58793  -0.00002   0.00000   0.00003   0.00003   1.58795
    A9        2.05612  -0.00006   0.00000  -0.00071  -0.00071   2.05541
   A10        1.98719   0.00002   0.00000   0.00004   0.00004   1.98723
   A11        1.98149   0.00004   0.00000   0.00051   0.00051   1.98200
   A12        1.79713   0.00001   0.00000   0.00000   0.00000   1.79713
   A13        1.80195   0.00001   0.00000   0.00011   0.00011   1.80206
   A14        1.81153  -0.00001   0.00000   0.00010   0.00010   1.81164
   A15        1.91060   0.00001   0.00000   0.00017   0.00017   1.91077
   A16        1.90198   0.00002   0.00000   0.00010   0.00010   1.90208
   A17        1.94258  -0.00005   0.00000  -0.00048  -0.00048   1.94210
   A18        1.89693  -0.00000   0.00000   0.00009   0.00009   1.89702
   A19        1.90439   0.00001   0.00000   0.00004   0.00004   1.90443
   A20        1.90681   0.00001   0.00000   0.00009   0.00009   1.90690
   A21        1.89743   0.00000   0.00000   0.00012   0.00012   1.89755
   A22        1.91237  -0.00000   0.00000   0.00004   0.00004   1.91241
   A23        1.93431  -0.00001   0.00000  -0.00023  -0.00023   1.93408
   A24        1.90446  -0.00001   0.00000  -0.00000  -0.00000   1.90446
   A25        1.90284   0.00001   0.00000  -0.00001  -0.00001   1.90283
   A26        1.91211   0.00001   0.00000   0.00008   0.00008   1.91219
   A27        1.91039   0.00001   0.00000   0.00009   0.00009   1.91049
   A28        1.93721  -0.00003   0.00000  -0.00020  -0.00020   1.93700
   A29        1.90608   0.00001   0.00000   0.00009   0.00009   1.90617
   A30        1.90680   0.00001   0.00000   0.00004   0.00004   1.90685
   A31        1.88872  -0.00001   0.00000  -0.00006  -0.00006   1.88866
   A32        1.91398   0.00001   0.00000   0.00004   0.00004   1.91402
   A33        2.46074  -0.00001   0.00000  -0.00002  -0.00002   2.46072
   A34        2.52622   0.00000   0.00000   0.00002   0.00002   2.52624
   A35        1.90562  -0.00000   0.00000   0.00003   0.00003   1.90565
   A36        2.12295  -0.00002   0.00000  -0.00003  -0.00003   2.12292
   A37        1.00755  -0.00001   0.00000  -0.00011  -0.00011   1.00744
   A38        1.39842   0.00000   0.00000  -0.00001  -0.00001   1.39841
   A39        0.96859   0.00000   0.00000   0.00008   0.00008   0.96866
   A40        1.13019  -0.00001   0.00000  -0.00009  -0.00009   1.13010
   A41        2.67939  -0.00001   0.00000  -0.00002  -0.00002   2.67938
   A42        1.72751   0.00000   0.00000   0.00005   0.00005   1.72756
   A43        2.08716   0.00000   0.00000   0.00001   0.00001   2.08717
   A44        2.18907  -0.00002   0.00000  -0.00012  -0.00012   2.18894
   A45        2.00679   0.00002   0.00000   0.00011   0.00011   2.00690
   A46        1.91104  -0.00001   0.00000  -0.00016  -0.00016   1.91088
   A47        1.87342  -0.00000   0.00000  -0.00004  -0.00004   1.87338
   A48        1.93491   0.00001   0.00000   0.00009   0.00009   1.93500
   A49        1.88628   0.00001   0.00000  -0.00000  -0.00000   1.88628
   A50        1.94642   0.00000   0.00000   0.00014   0.00014   1.94656
   A51        1.90967  -0.00000   0.00000  -0.00003  -0.00003   1.90964
   A52        1.53284  -0.00002   0.00000  -0.00015  -0.00015   1.53269
   A53        2.81244   0.00000   0.00000   0.00001   0.00001   2.81245
   A54        1.79217   0.00002   0.00000   0.00001   0.00001   1.79218
   A55        1.92218   0.00000   0.00000  -0.00005  -0.00005   1.92213
   A56        1.94717  -0.00000   0.00000   0.00004   0.00004   1.94721
   A57        1.93775  -0.00000   0.00000  -0.00001  -0.00001   1.93773
   A58        1.88355   0.00000   0.00000   0.00002   0.00002   1.88357
   A59        1.88427  -0.00001   0.00000  -0.00002  -0.00002   1.88425
   A60        1.88684   0.00001   0.00000   0.00003   0.00003   1.88687
   A61        2.08315  -0.00000   0.00000  -0.00001  -0.00001   2.08314
   A62        3.38434   0.00027   0.00000   0.00445   0.00445   3.38879
   A63        3.09062  -0.00015   0.00000  -0.00196  -0.00196   3.08865
   A64        3.15996  -0.00008   0.00000  -0.00162  -0.00162   3.15834
   A65        3.14750   0.00004   0.00000   0.00073   0.00073   3.14823
   A66        3.18997   0.00013   0.00000   0.00204   0.00204   3.19201
   A67        3.14632  -0.00001   0.00000  -0.00069  -0.00069   3.14563
   A68        3.10919   0.00020   0.00000   0.00378   0.00378   3.11297
   A69        3.13810  -0.00003   0.00000  -0.00061  -0.00061   3.13750
    D1        0.09055  -0.00001   0.00000  -0.00031  -0.00031   0.09023
    D2       -2.01619   0.00002   0.00000   0.00024   0.00024  -2.01595
    D3        2.19905  -0.00001   0.00000  -0.00030  -0.00030   2.19875
    D4       -3.05577  -0.00000   0.00000   0.00038   0.00038  -3.05539
    D5        1.12068   0.00002   0.00000   0.00093   0.00093   1.12161
    D6       -0.94727  -0.00000   0.00000   0.00039   0.00039  -0.94688
    D7        1.63015   0.00002   0.00000   0.00026   0.00026   1.63041
    D8       -0.47659   0.00005   0.00000   0.00081   0.00081  -0.47578
    D9       -2.54453   0.00002   0.00000   0.00027   0.00027  -2.54427
   D10        0.05524  -0.00004   0.00000  -0.00051  -0.00051   0.05473
   D11       -2.12032  -0.00006   0.00000  -0.00005  -0.00005  -2.12036
   D12       -2.84386   0.00024   0.00000   0.00396   0.00396  -2.83989
   D13        1.26377   0.00021   0.00000   0.00443   0.00443   1.26820
   D14        1.73293  -0.00009   0.00000   0.00023   0.00023   1.73316
   D15       -0.44262  -0.00011   0.00000   0.00070   0.00070  -0.44193
   D16       -1.35805   0.00006   0.00000   0.00224   0.00224  -1.35582
   D17        2.74958   0.00004   0.00000   0.00270   0.00270   2.75228
   D18        1.03396   0.00002   0.00000   0.00043   0.00043   1.03439
   D19       -1.03851  -0.00000   0.00000   0.00017   0.00017  -1.03835
   D20        3.14065   0.00000   0.00000   0.00029   0.00029   3.14094
   D21       -3.04652   0.00001   0.00000   0.00001   0.00001  -3.04651
   D22        1.16419  -0.00001   0.00000  -0.00026  -0.00026   1.16393
   D23       -0.93984  -0.00001   0.00000  -0.00013  -0.00013  -0.93997
   D24       -1.16522  -0.00000   0.00000   0.00015   0.00015  -1.16506
   D25        3.04550  -0.00002   0.00000  -0.00011  -0.00011   3.04538
   D26        0.94147  -0.00002   0.00000   0.00001   0.00001   0.94148
   D27        1.15139  -0.00004   0.00000  -0.00084  -0.00084   1.15055
   D28       -0.92855  -0.00004   0.00000  -0.00093  -0.00093  -0.92948
   D29       -3.04074  -0.00004   0.00000  -0.00091  -0.00091  -3.04165
   D30       -1.09489   0.00002   0.00000   0.00004   0.00004  -1.09486
   D31        3.10836   0.00002   0.00000  -0.00006  -0.00006   3.10830
   D32        0.99617   0.00002   0.00000  -0.00003  -0.00003   0.99613
   D33       -2.96893   0.00001   0.00000  -0.00011  -0.00011  -2.96904
   D34        1.23432   0.00001   0.00000  -0.00021  -0.00021   1.23411
   D35       -0.87787   0.00001   0.00000  -0.00018  -0.00018  -0.87805
   D36       -1.01663   0.00003   0.00000   0.00043   0.00043  -1.01621
   D37       -3.12276   0.00003   0.00000   0.00044   0.00044  -3.12232
   D38        1.04819   0.00003   0.00000   0.00046   0.00046   1.04865
   D39        1.22955  -0.00002   0.00000  -0.00006  -0.00006   1.22949
   D40       -0.87657  -0.00002   0.00000  -0.00005  -0.00005  -0.87662
   D41       -2.98880  -0.00001   0.00000  -0.00003  -0.00003  -2.98883
   D42        3.09998  -0.00001   0.00000   0.00001   0.00001   3.09998
   D43        0.99386  -0.00001   0.00000   0.00002   0.00002   0.99387
   D44       -1.11838  -0.00001   0.00000   0.00004   0.00004  -1.11834
   D45       -0.22515   0.00002   0.00000   0.00031   0.00031  -0.22484
   D46       -2.30616  -0.00001   0.00000  -0.00000  -0.00000  -2.30616
   D47        1.90072  -0.00003   0.00000  -0.00016  -0.00016   1.90056
   D48        0.02223  -0.00001   0.00000  -0.00001  -0.00001   0.02222
   D49       -1.03973   0.00001   0.00000   0.00015   0.00015  -1.03957
   D50       -2.09831   0.00001   0.00000   0.00005   0.00005  -2.09826
   D51        2.10711  -0.00001   0.00000   0.00011   0.00011   2.10722
   D52        1.04515   0.00001   0.00000   0.00027   0.00027   1.04542
   D53       -0.01343   0.00000   0.00000   0.00017   0.00017  -0.01326
   D54       -2.08831  -0.00000   0.00000   0.00021   0.00021  -2.08810
   D55        3.13293   0.00002   0.00000   0.00036   0.00036   3.13329
   D56        2.07434   0.00001   0.00000   0.00026   0.00026   2.07461
   D57       -0.49438  -0.00001   0.00000  -0.00025  -0.00025  -0.49463
   D58        0.48264  -0.00000   0.00000  -0.00032  -0.00032   0.48232
   D59        0.64595   0.00000   0.00000   0.00000   0.00000   0.64596
   D60       -2.11213   0.00001   0.00000  -0.00000  -0.00000  -2.11213
   D61        1.99493  -0.00001   0.00000  -0.00013  -0.00013   1.99480
   D62       -0.76315  -0.00001   0.00000  -0.00013  -0.00013  -0.76328
   D63        2.95911  -0.00002   0.00000  -0.00006  -0.00006   2.95906
   D64        0.20103  -0.00001   0.00000  -0.00006  -0.00006   0.20097
   D65        0.61742   0.00003   0.00000   0.00037   0.00037   0.61779
   D66       -2.80023   0.00003   0.00000   0.00029   0.00029  -2.79994
   D67       -1.88538   0.00002   0.00000   0.00034   0.00034  -1.88504
   D68        0.98016   0.00002   0.00000   0.00025   0.00025   0.98041
   D69        2.63798   0.00001   0.00000   0.00032   0.00032   2.63830
   D70       -0.77967   0.00001   0.00000   0.00024   0.00024  -0.77943
   D71        1.88817  -0.00000   0.00000  -0.00018  -0.00018   1.88799
   D72       -0.73027  -0.00000   0.00000  -0.00017  -0.00017  -0.73044
   D73        0.27249  -0.00001   0.00000  -0.00028  -0.00028   0.27221
   D74        3.08328  -0.00000   0.00000   0.00005   0.00005   3.08332
   D75       -0.07916   0.00000   0.00000   0.00013   0.00013  -0.07902
   D76       -2.33817  -0.00000   0.00000  -0.00005  -0.00005  -2.33822
   D77        0.78259  -0.00000   0.00000   0.00004   0.00004   0.78262
   D78        0.12568  -0.00000   0.00000   0.00014   0.00014   0.12581
   D79        2.16924  -0.00000   0.00000   0.00002   0.00002   2.16926
   D80       -2.02914  -0.00000   0.00000   0.00001   0.00001  -2.02913
   D81       -3.03591   0.00000   0.00000   0.00022   0.00022  -3.03569
   D82       -0.99235   0.00000   0.00000   0.00010   0.00010  -0.99224
   D83        1.09246   0.00000   0.00000   0.00009   0.00009   1.09255
   D84        1.22006   0.00000   0.00000  -0.00073  -0.00073   1.21934
   D85       -0.91942  -0.00002   0.00000  -0.00023  -0.00023  -0.91965
   D86       -0.81539   0.00001   0.00000  -0.00059  -0.00059  -0.81598
   D87       -2.95487  -0.00001   0.00000  -0.00009  -0.00009  -2.95496
   D88       -2.91511   0.00001   0.00000  -0.00063  -0.00063  -2.91574
   D89        1.22859  -0.00001   0.00000  -0.00013  -0.00013   1.22846
   D90       -3.08104  -0.00000   0.00000  -0.00026  -0.00026  -3.08130
   D91       -0.98982  -0.00000   0.00000  -0.00025  -0.00025  -0.99006
   D92        1.11609   0.00001   0.00000  -0.00019  -0.00019   1.11590
   D93        1.06780   0.00001   0.00000  -0.00022  -0.00022   1.06758
   D94       -3.12416   0.00001   0.00000  -0.00020  -0.00020  -3.12436
   D95       -1.01826   0.00002   0.00000  -0.00015  -0.00015  -1.01840
   D96       -1.01812  -0.00000   0.00000  -0.00028  -0.00028  -1.01840
   D97        1.07310  -0.00000   0.00000  -0.00026  -0.00026   1.07284
   D98       -3.10418   0.00001   0.00000  -0.00021  -0.00021  -3.10439
   D99        0.13067   0.00001   0.00000   0.00029   0.00029   0.13096
   D100      -1.97791   0.00001   0.00000   0.00038   0.00038  -1.97753
   D101       2.27186   0.00001   0.00000   0.00035   0.00035   2.27221
         Item               Value     Threshold  Converged?
 Maximum Force            0.001053     0.000450     NO 
 RMS     Force            0.000116     0.000300     YES
 Maximum Displacement     0.008880     0.001800     NO 
 RMS     Displacement     0.001529     0.001200     NO 
 Predicted change in Energy=-8.035410D-06
 Lowest energy point so far.  Saving SCF results.
 GradGradGradGradGradGradGradGradGradGradGradGradGradGradGradGradGradGrad

 Leave Link  103 at Tue Oct  4 18:26:01 2022, MaxMem=  2952790016 cpu:               0.9 elap:               0.1
 (Enter /mnt/data/applications/G16/g16/l202.exe)
                          Input orientation:                          
 ---------------------------------------------------------------------
 Center     Atomic      Atomic             Coordinates (Angstroms)
 Number     Number       Type             X           Y           Z
 ---------------------------------------------------------------------
      1         45           0        0.846106    0.737146    0.157368
      2         15           0        0.904769   -1.602362    0.277079
      3          6           0        0.809532   -2.532213   -1.280781
      4          6           0       -0.440018   -2.321533    1.263913
      5          6           0        2.410792   -2.251967    1.058355
      6          1           0        3.285048   -1.906664    0.505228
      7          1           0        2.403093   -3.343962    1.074610
      8          1           0        1.642688   -2.248169   -1.925575
      9          1           0       -0.124119   -2.283042   -1.786056
     10          1           0        0.846300   -3.608872   -1.102436
     11          1           0       -1.386574   -2.127016    0.759731
     12          1           0       -0.458480   -1.856715    2.249593
     13          1           0       -0.308756   -3.400493    1.370840
     14          6           0        0.967793    2.585236    0.502811
     15          8           0        1.058097    3.693686    0.742729
     16          6           0        0.534077    0.835281   -1.720282
     17          8           0        0.342851    0.901150   -2.840423
     18          1           0        2.479631   -1.870446    2.077028
     19          1           0        1.108196    0.566227    1.765647
     20          8           0       -2.497569   -1.057265   -1.338020
     21          6           0       -3.211853   -0.259446   -0.786303
     22          1           0       -4.271935   -0.161260   -1.103274
     23          6           0       -2.805381    0.631359    0.344314
     24          1           0       -1.727828    0.541472    0.510492
     25          1           0       -3.017524    1.661868    0.040362
     26          6           0       -3.597388    0.301494    1.609132
     27          1           0       -3.336157    0.996413    2.407231
     28          1           0       -4.674122    0.374226    1.439124
     29          1           0       -3.376319   -0.709355    1.957196
 ---------------------------------------------------------------------
                    Distance matrix (angstroms):
                    1          2          3          4          5
     1  Rh   0.000000
     2  P    2.343304   0.000000
     3  C    3.571880   1.816761   0.000000
     4  C    3.497725   1.816453   2.842751   0.000000
     5  C    3.492108   1.816724   2.848531   2.859058   0.000000
     6  H    3.613749   2.410474   3.115978   3.824113   1.090645
     7  H    4.463294   2.431914   2.957404   3.027290   1.092143
     8  H    3.726298   2.411073   1.091141   3.809971   3.081207
     9  H    3.720184   2.403843   1.090456   3.066527   3.810173
    10  H    4.524929   2.435685   1.091949   2.985208   2.992966
    11  H    3.681186   2.399681   3.025022   1.089956   3.811139
    12  H    3.578752   2.411215   3.811522   1.089936   3.131772
    13  H    4.463886   2.429451   3.005923   1.092162   2.968619
    14  C    1.884031   4.194151   5.421673   5.161161   5.078327
    15  O    3.021376   5.318690   6.551198   6.220839   6.105751
    16  C    1.905928   3.173164   3.407206   4.451939   4.557849
    17  O    3.044161   4.037592   3.799771   5.276756   5.423929
    18  H    3.626712   2.406632   3.808156   3.064145   1.089951
    19  H    1.638435   2.638181   4.355486   3.314795   3.184217
    20  O    4.078757   3.805467   3.621556   3.549922   5.591237
    21  C    4.283776   4.458786   4.645591   4.017294   6.243960
    22  H    5.347026   5.548009   5.610190   4.995392   7.328201
    23  C    3.657799   4.331194   5.071166   3.893607   6.002656
    24  H    2.605402   3.403098   4.369714   3.228451   5.023110
    25  H    3.974473   5.108386   5.829416   4.899805   6.769123
    26  C    4.694896   5.066404   5.983514   4.119275   6.551469
    27  H    4.756094   5.410789   6.575666   4.550117   6.737868
    28  H    5.678691   6.031689   6.776116   5.022494   7.565573
    29  H    4.812548   4.684866   5.597202   3.420764   6.056255
                    6          7          8          9         10
     6  H    0.000000
     7  H    1.779850   0.000000
     8  H    2.953434   3.283304   0.000000
     9  H    4.124811   3.961788   1.772650   0.000000
    10  H    3.380768   2.689482   1.778568   1.779572   0.000000
    11  H    4.683736   3.992704   4.049935   2.845904   3.263325
    12  H    4.130292   3.432360   4.690434   4.071857   4.001076
    13  H    3.987009   2.728566   4.000292   3.353921   2.737640
    14  C    5.054388   6.127188   5.451086   5.489200   6.399887
    15  O    6.031554   7.172702   6.539666   6.596489   7.535041
    16  C    4.476494   5.363834   3.283112   3.187709   4.497745
    17  O    5.266283   6.131318   3.527710   3.386567   4.859461
    18  H    1.766512   1.783803   4.106577   4.676876   3.974782
    19  H    3.527398   4.176587   4.672433   4.717153   5.072075
    20  O    6.128434   5.921677   4.348011   2.708603   4.212797
    21  C    6.825767   6.671196   5.368382   3.824728   5.271357
    22  H    7.920966   7.709006   6.325672   4.708771   6.171091
    23  C    6.600059   6.592777   5.764494   4.496818   5.779915
    24  H    5.578739   5.699065   5.007684   3.977926   5.143251
    25  H    7.257612   7.450577   6.393033   5.222059   6.634442
    26  C    7.311805   7.041366   6.815668   5.501884   6.510755
    27  H    7.475683   7.318042   7.354551   6.217368   7.142784
    28  H    8.332048   8.002798   7.622352   6.177814   7.266338
    29  H    6.922108   6.412622   6.529494   5.202426   5.966495
                   11         12         13         14         15
    11  H    0.000000
    12  H    1.775981   0.000000
    13  H    1.776764   1.782659   0.000000
    14  C    5.273933   4.981609   6.181586   0.000000
    15  O    6.313262   5.947907   7.251909   1.137707   0.000000
    16  C    4.314461   4.898155   5.311044   2.862271   3.809396
    17  O    5.012167   5.844332   6.055037   3.795249   4.598784
    18  H    4.092510   2.943206   3.258043   4.961543   5.895818
    19  H    3.806482   2.925633   4.230661   2.385553   3.290876
    20  O    2.603697   4.203328   4.197564   5.353990   6.288387
    21  C    3.034746   4.398748   4.790346   5.217611   6.016449
    22  H    3.957309   5.353384   5.685126   6.130049   6.832098
    23  C    3.129572   3.915168   4.852084   4.252011   4.946012
    24  H    2.701741   3.222889   4.277038   3.382810   4.213284
    25  H    4.187258   4.879532   5.893649   4.116943   4.607851
    26  C    3.392173   3.862745   4.957478   5.223055   5.825046
    27  H    4.033726   4.055393   5.438019   4.967410   5.418054
    28  H    4.186378   4.837933   5.771446   6.131595   6.660489
    29  H    2.720804   3.148923   4.122619   5.642772   6.365983
                   16         17         18         19         20
    16  C    0.000000
    17  O    1.138254   0.000000
    18  H    5.052297   6.035636   0.000000
    19  H    3.543121   4.681219   2.813391   0.000000
    20  O    3.594264   3.763056   6.090676   5.026929   0.000000
    21  C    4.012821   4.266417   6.571679   5.084978   1.204620
    22  H    4.946872   5.044071   7.656322   6.140501   2.001576
    23  C    3.931427   4.486279   6.098579   4.164194   2.403424
    24  H    3.190438   3.955466   5.096479   3.101461   2.562315
    25  H    4.049319   4.491072   6.844265   4.604194   3.092567
    26  C    5.332817   5.973576   6.470426   4.715623   3.426592
    27  H    5.660481   6.409528   6.492404   4.510982   4.352899
    28  H    6.108990   6.615300   7.524736   5.794712   3.807766
    29  H    5.585781   6.280374   5.971151   4.666334   3.428074
                   21         22         23         24         25
    21  C    0.000000
    22  H    1.110804   0.000000
    23  C    1.495677   2.207835   0.000000
    24  H    2.127316   3.093631   1.093990   0.000000
    25  H    2.100615   2.491032   1.095144   1.771898   0.000000
    26  C    2.490260   2.833072   1.528349   2.181709   2.155899
    27  H    3.433845   3.813073   2.161160   2.528104   2.479199
    28  H    2.737206   2.629123   2.181037   3.093700   2.521682
    29  H    2.785005   3.235585   2.173677   2.524885   3.070127
                   26         27         28         29
    26  C    0.000000
    27  H    1.090008   0.000000
    28  H    1.092497   1.764794   0.000000
    29  H    1.091712   1.764593   1.768286   0.000000
 Stoichiometry    C8H16O3PRh
 Framework group  C1[X(C8H16O3PRh)]
 Deg. of freedom    81
 Full point group                 C1      NOp   1
 RotChk:  IX=0 Diff= 4.59D-03
 Largest Abelian subgroup         C1      NOp   1
 Largest concise Abelian subgroup C1      NOp   1
                         Standard orientation:                         
 ---------------------------------------------------------------------
 Center     Atomic      Atomic             Coordinates (Angstroms)
 Number     Number       Type             X           Y           Z
 ---------------------------------------------------------------------
      1         45           0       -0.848777    0.734545   -0.157261
      2         15           0       -0.899956   -1.605096   -0.277801
      3          6           0       -0.801262   -2.535199    1.279695
      4          6           0        0.446838   -2.319585   -1.265299
      5          6           0       -2.404119   -2.259257   -1.058859
      6          1           0       -3.279314   -1.916965   -0.505345
      7          1           0       -2.392915   -3.351216   -1.075511
      8          1           0       -1.635132   -2.254066    1.924841
      9          1           0        0.131736   -2.283210    1.784779
     10          1           0       -0.834623   -3.611906    1.100971
     11          1           0        1.392916   -2.122209   -0.761331
     12          1           0        0.463509   -1.854355   -2.250816
     13          1           0        0.319012   -3.398923   -1.372577
     14          6           0       -0.976508    2.582358   -0.502000
     15          8           0       -1.070446    3.690599   -0.741490
     16          6           0       -0.536499    0.833005    1.720330
     17          8           0       -0.345148    0.899085    2.840438
     18          1           0       -2.474490   -1.877592   -2.077374
     19          1           0       -1.110801    0.563365   -1.765524
     20          8           0        2.501099   -1.049649    1.336474
     21          6           0        3.212648   -0.249339    0.784831
     22          1           0        4.272505   -0.147860    1.101519
     23          6           0        2.802974    0.640563   -0.345342
     24          1           0        1.725666    0.547273   -0.511229
     25          1           0        3.011896    1.671638   -0.041081
     26          6           0        3.595657    0.313701   -1.610516
     27          1           0        3.331953    1.008065   -2.408286
     28          1           0        4.672203    0.389832   -1.440806
     29          1           0        3.377733   -0.697727   -1.958880
 ---------------------------------------------------------------------
 Rotational constants (GHZ):           0.4729503           0.4405064           0.3287802
 Leave Link  202 at Tue Oct  4 18:26:01 2022, MaxMem=  2952790016 cpu:               0.1 elap:               0.0
 (Enter /mnt/data/applications/G16/g16/l301.exe)
 Basis read from rwf:  (5D, 7F)
 Pseudo-potential data read from rwf file.
 There are   573 symmetry adapted cartesian basis functions of A   symmetry.
 There are   510 symmetry adapted basis functions of A   symmetry.
   510 basis functions,   823 primitive gaussians,   573 cartesian basis functions
    60 alpha electrons       60 beta electrons
       nuclear repulsion energy      1070.3404872802 Hartrees.
 IExCor= 4639 DFT=T Ex+Corr=wB97XD ExCW=0 ScaHFX=  1.000000
 ScaDFX=  1.000000  1.000000  1.000000  1.000000 ScalE2=  1.000000  1.000000
 IRadAn=      5 IRanWt=     -1 IRanGd=            0 ICorTp=0 IEmpDi=121
 HFx  wShort=  0.000000 wLong=  0.200000 cFull=  0.222036 cShort=  0.000000 cLong=  0.777964
 DFx  wShort=  0.000000 wLong=  0.200000 cFull=  0.000000 cShort=  0.000000 cLong=  1.000000
 NAtoms=   29 NActive=   29 NUniq=   29 SFac= 1.00D+00 NAtFMM=   60 NAOKFM=F Big=F
 Integral buffers will be    131072 words long.
 Raffenetti 2 integral format.
 Two-electron integral symmetry is turned on.
 R6Disp:  Grimme-D2 Dispersion energy=       -0.0235857305 Hartrees.
 Nuclear repulsion after empirical dispersion term =     1070.3169015497 Hartrees.
 No density basis found on file   724.
 ------------------------------------------------------------------------------
 Polarizable Continuum Model (PCM)
 =================================
 Model                : PCM.
 Atomic radii         : SMD-Coulomb.
 Polarization charges : Total charges.
 Charge compensation  : None.
 Solution method      : On-the-fly selection.
 Cavity type          : VdW (van der Waals Surface) (Alpha=1.000).
 Cavity algorithm     : GePol (No added spheres)
                        Default sphere list used, NSphG=   29.
                        Lebedev-Laikov grids with approx.  5.0 points / Ang**2.
                        Smoothing algorithm: York/Karplus (Gamma=1.0000).
                        Polarization charges: spherical gaussians, with
                                              point-specific exponents (IZeta= 3).
                        Self-potential: point-specific (ISelfS= 7).
                        Self-field    : sphere-specific E.n sum rule (ISelfD= 2).
 1st derivatives      : Analytical E(r).r(x)/FMM algorithm (CHGder, D1EAlg=3).
                        Cavity 1st derivative terms included.
 Solvent              : Toluene, Eps=   2.374100 Eps(inf)=   2.238315
 ------------------------------------------------------------------------------
 GePol: Number of generator spheres                  =      29
 GePol: Total number of spheres                      =      29
 GePol: Number of exposed spheres                    =      29 (100.00%)
 GePol: Number of points                             =    2667
 GePol: Average weight of points                     =       0.12
 GePol: Minimum weight of points                     =   0.17D-10
 GePol: Maximum weight of points                     =    0.20615
 GePol: Number of points with low weight             =     127
 GePol: Fraction of low-weight points (<1% of avg)   =       4.76%
 GePol: Cavity surface area                          =    323.304 Ang**2
 GePol: Cavity volume                                =    296.992 Ang**3
 ------------------------------------------------------------------------------
 Atomic radii for non-electrostatic terms: SMD-CDS.
 ------------------------------------------------------------------------------
 PCM non-electrostatic energy =         0.0007791418 Hartrees.
 Nuclear repulsion after PCM non-electrostatic terms =     1070.3176806915 Hartrees.
 Leave Link  301 at Tue Oct  4 18:26:01 2022, MaxMem=  2952790016 cpu:               2.5 elap:               0.2
 (Enter /mnt/data/applications/G16/g16/l302.exe)
 NPDir=0 NMtPBC=     1 NCelOv=     1 NCel=       1 NClECP=     1 NCelD=      1
         NCelK=      1 NCelE2=     1 NClLst=     1 CellRange=     0.0.
 One-electron integrals computed using PRISM.
 One-electron integral symmetry used in STVInt
   1 Symmetry operations used in ECPInt.
 ECPInt:  NShTT=   22578 NPrTT=   66767 LenC2=   20832 LenP2D=   45553.
 LDataN:  DoStor=T MaxTD1= 7 Len=  274
 NBasis=   510 RedAO= T EigKep=  1.89D-04  NBF=   510
 NBsUse=   510 1.00D-06 EigRej= -1.00D+00 NBFU=   510
 Precomputing XC quadrature grid using
 IXCGrd= 4 IRadAn=           5 IRanWt=          -1 IRanGd=           0 AccXCQ= 0.00D+00.
 Defaulting to unpruned grid for atomic number  45.
 Generated NRdTot=       0 NPtTot=           0 NUsed=           0 NTot=          32
 NSgBfM=   568   567   568   568   568 MxSgAt=    29 MxSgA2=    29.
 Leave Link  302 at Tue Oct  4 18:26:03 2022, MaxMem=  2952790016 cpu:              21.4 elap:               1.8
 (Enter /mnt/data/applications/G16/g16/l303.exe)
 DipDrv:  MaxL=1.
 Leave Link  303 at Tue Oct  4 18:26:03 2022, MaxMem=  2952790016 cpu:               1.2 elap:               0.1
 (Enter /mnt/data/applications/G16/g16/l401.exe)
 Initial guess from the checkpoint file:  "I9c.chk"
 B after Tr=    -0.000000   -0.000000    0.000000
         Rot=    0.999999   -0.000145   -0.000217   -0.001641 Ang=  -0.19 deg.
 Guess basis will be translated and rotated to current coordinates.
 JPrj=2 DoOrth=T DoCkMO=T.
 Leave Link  401 at Tue Oct  4 18:26:04 2022, MaxMem=  2952790016 cpu:              13.0 elap:               1.1
 (Enter /mnt/data/applications/G16/g16/l502.exe)
 Integral symmetry usage will be decided dynamically.
 Closed shell SCF:
 Using DIIS extrapolation, IDIIS=  1040.
 NGot=  2952790016 LenX=  2952121193 LenY=  2951792291
 Requested convergence on RMS density matrix=1.00D-08 within 128 cycles.
 Requested convergence on MAX density matrix=1.00D-06.
 Requested convergence on             energy=1.00D-06.
 No special actions if energy rises.
 Fock matrices will be formed incrementally for  20 cycles.

 Cycle   1  Pass 1  IDiag  1:
 FoFJK:  IHMeth= 1 ICntrl=       0 DoSepK=T KAlg= 0 I1Cent=           0 FoldK=F
 IRaf=         1 NMat=       1 IRICut=       1 DoRegI=T DoRafI=F ISym2E= 0 IDoP0=0 IntGTp=1.
 FoFCou: FMM=F IPFlag=           0 FMFlag=      100000 FMFlg1=           0
         NFxFlg=           0 DoJE=T BraDBF=F KetDBF=F FulRan=T
         wScrn=  0.000000 ICntrl=       500 IOpCl=  0 I1Cent=           0 NGrid=           0
         NMat0=    1 NMatS0=      1 NMatT0=    0 NMatD0=    1 NMtDS0=    0 NMtDT0=    0
 Symmetry not used in FoFCou.
 Defaulting to unpruned grid for atomic number  45.
 Defaulting to unpruned grid for atomic number  45.
 Defaulting to unpruned grid for atomic number  45.
 Defaulting to unpruned grid for atomic number  45.
 Defaulting to unpruned grid for atomic number  45.
 Defaulting to unpruned grid for atomic number  45.
 Defaulting to unpruned grid for atomic number  45.
 Defaulting to unpruned grid for atomic number  45.
 Defaulting to unpruned grid for atomic number  45.
 Defaulting to unpruned grid for atomic number  45.
 Defaulting to unpruned grid for atomic number  45.
 Defaulting to unpruned grid for atomic number  45.
 Inv3:  Mode=1 IEnd=    21338667.
 Iteration    1 A*A^-1 deviation from unit magnitude is 2.66D-15 for    365.
 Iteration    1 A*A^-1 deviation from orthogonality  is 1.40D-15 for   1389    502.
 Iteration    1 A^-1*A deviation from unit magnitude is 2.66D-15 for    365.
 Iteration    1 A^-1*A deviation from orthogonality  is 1.25D-15 for   1166    441.
 E= -992.236904463563    
 DIIS: error= 1.73D-04 at cycle   1 NSaved=   1.
 NSaved= 1 IEnMin= 1 EnMin= -992.236904463563     IErMin= 1 ErrMin= 1.73D-04
 ErrMax= 1.73D-04  0.00D+00 EMaxC= 1.00D-01 BMatC= 3.33D-05 BMatP= 3.33D-05
 IDIUse=3 WtCom= 9.98D-01 WtEn= 1.73D-03
 Coeff-Com:  0.100D+01
 Coeff-En:   0.100D+01
 Coeff:      0.100D+01
 Gap=     0.757 Goal=   None    Shift=    0.000
 RMSDP=9.08D-06 MaxDP=4.61D-04              OVMax= 7.76D-04

 Cycle   2  Pass 1  IDiag  1:
 RMSU=  9.08D-06    CP:  1.00D+00
 E= -992.236915006527     Delta-E=       -0.000010542964 Rises=F Damp=F
 DIIS: error= 2.00D-05 at cycle   2 NSaved=   2.
 NSaved= 2 IEnMin= 2 EnMin= -992.236915006527     IErMin= 2 ErrMin= 2.00D-05
 ErrMax= 2.00D-05  0.00D+00 EMaxC= 1.00D-01 BMatC= 4.83D-07 BMatP= 3.33D-05
 IDIUse=1 WtCom= 1.00D+00 WtEn= 0.00D+00
 Coeff-Com: -0.319D-02 0.100D+01
 Coeff:     -0.319D-02 0.100D+01
 Gap=     0.289 Goal=   None    Shift=    0.000
 RMSDP=3.13D-06 MaxDP=2.06D-04 DE=-1.05D-05 OVMax= 4.00D-04

 Cycle   3  Pass 1  IDiag  1:
 RMSU=  2.92D-06    CP:  1.00D+00  1.12D+00
 E= -992.236915725937     Delta-E=       -0.000000719411 Rises=F Damp=F
 DIIS: error= 2.92D-05 at cycle   3 NSaved=   3.
 NSaved= 3 IEnMin= 3 EnMin= -992.236915725937     IErMin= 2 ErrMin= 2.00D-05
 ErrMax= 2.92D-05  0.00D+00 EMaxC= 1.00D-01 BMatC= 5.78D-07 BMatP= 4.83D-07
 IDIUse=1 WtCom= 1.00D+00 WtEn= 0.00D+00
 Coeff-Com: -0.129D-01 0.537D+00 0.476D+00
 Coeff:     -0.129D-01 0.537D+00 0.476D+00
 Gap=     0.289 Goal=   None    Shift=    0.000
 RMSDP=9.69D-07 MaxDP=6.79D-05 DE=-7.19D-07 OVMax= 1.62D-04

 Cycle   4  Pass 1  IDiag  1:
 RMSU=  8.91D-07    CP:  1.00D+00  1.16D+00  9.79D-01
 E= -992.236916170088     Delta-E=       -0.000000444150 Rises=F Damp=F
 DIIS: error= 6.58D-06 at cycle   4 NSaved=   4.
 NSaved= 4 IEnMin= 4 EnMin= -992.236916170088     IErMin= 4 ErrMin= 6.58D-06
 ErrMax= 6.58D-06  0.00D+00 EMaxC= 1.00D-01 BMatC= 4.55D-08 BMatP= 4.83D-07
 IDIUse=1 WtCom= 1.00D+00 WtEn= 0.00D+00
 Coeff-Com: -0.322D-02-0.532D-01 0.157D+00 0.899D+00
 Coeff:     -0.322D-02-0.532D-01 0.157D+00 0.899D+00
 Gap=     0.289 Goal=   None    Shift=    0.000
 RMSDP=9.70D-07 MaxDP=6.68D-05 DE=-4.44D-07 OVMax= 1.93D-04

 Cycle   5  Pass 1  IDiag  1:
 RMSU=  6.67D-07    CP:  1.00D+00  1.21D+00  1.14D+00  1.38D+00
 E= -992.236916259592     Delta-E=       -0.000000089504 Rises=F Damp=F
 DIIS: error= 9.08D-06 at cycle   5 NSaved=   5.
 NSaved= 5 IEnMin= 5 EnMin= -992.236916259592     IErMin= 4 ErrMin= 6.58D-06
 ErrMax= 9.08D-06  0.00D+00 EMaxC= 1.00D-01 BMatC= 3.59D-08 BMatP= 4.55D-08
 IDIUse=1 WtCom= 1.00D+00 WtEn= 0.00D+00
 Coeff-Com: -0.472D-03-0.127D+00 0.305D-01 0.627D+00 0.470D+00
 Coeff:     -0.472D-03-0.127D+00 0.305D-01 0.627D+00 0.470D+00
 Gap=     0.289 Goal=   None    Shift=    0.000
 RMSDP=4.47D-07 MaxDP=6.03D-05 DE=-8.95D-08 OVMax= 8.54D-05

 Cycle   6  Pass 1  IDiag  1:
 RMSU=  3.31D-07    CP:  1.00D+00  1.22D+00  1.21D+00  1.56D+00  9.52D-01
 E= -992.236916298206     Delta-E=       -0.000000038614 Rises=F Damp=F
 DIIS: error= 2.69D-06 at cycle   6 NSaved=   6.
 NSaved= 6 IEnMin= 6 EnMin= -992.236916298206     IErMin= 6 ErrMin= 2.69D-06
 ErrMax= 2.69D-06  0.00D+00 EMaxC= 1.00D-01 BMatC= 4.68D-09 BMatP= 3.59D-08
 IDIUse=1 WtCom= 1.00D+00 WtEn= 0.00D+00
 Coeff-Com:  0.830D-03-0.574D-01-0.342D-01 0.729D-01 0.280D+00 0.738D+00
 Coeff:      0.830D-03-0.574D-01-0.342D-01 0.729D-01 0.280D+00 0.738D+00
 Gap=     0.289 Goal=   None    Shift=    0.000
 RMSDP=3.17D-07 MaxDP=2.68D-05 DE=-3.86D-08 OVMax= 7.31D-05

 Cycle   7  Pass 1  IDiag  1:
 RMSU=  1.39D-07    CP:  1.00D+00  1.23D+00  1.27D+00  1.69D+00  1.19D+00
                    CP:  1.06D+00
 E= -992.236916310018     Delta-E=       -0.000000011813 Rises=F Damp=F
 DIIS: error= 8.95D-07 at cycle   7 NSaved=   7.
 NSaved= 7 IEnMin= 7 EnMin= -992.236916310018     IErMin= 7 ErrMin= 8.95D-07
 ErrMax= 8.95D-07  0.00D+00 EMaxC= 1.00D-01 BMatC= 5.85D-10 BMatP= 4.68D-09
 IDIUse=1 WtCom= 1.00D+00 WtEn= 0.00D+00
 Coeff-Com:  0.229D-03 0.120D-01-0.161D-01-0.105D+00-0.343D-01 0.200D+00
 Coeff-Com:  0.944D+00
 Coeff:      0.229D-03 0.120D-01-0.161D-01-0.105D+00-0.343D-01 0.200D+00
 Coeff:      0.944D+00
 Gap=     0.289 Goal=   None    Shift=    0.000
 RMSDP=1.78D-07 MaxDP=1.17D-05 DE=-1.18D-08 OVMax= 4.80D-05

 Cycle   8  Pass 1  IDiag  1:
 RMSU=  6.84D-08    CP:  1.00D+00  1.23D+00  1.29D+00  1.79D+00  1.34D+00
                    CP:  1.28D+00  1.28D+00
 E= -992.236916312926     Delta-E=       -0.000000002907 Rises=F Damp=F
 DIIS: error= 2.79D-07 at cycle   8 NSaved=   8.
 NSaved= 8 IEnMin= 8 EnMin= -992.236916312926     IErMin= 8 ErrMin= 2.79D-07
 ErrMax= 2.79D-07  0.00D+00 EMaxC= 1.00D-01 BMatC= 9.31D-11 BMatP= 5.85D-10
 IDIUse=1 WtCom= 1.00D+00 WtEn= 0.00D+00
 Coeff-Com: -0.168D-03 0.195D-01 0.347D-02-0.509D-01-0.781D-01-0.123D+00
 Coeff-Com:  0.210D+00 0.102D+01
 Coeff:     -0.168D-03 0.195D-01 0.347D-02-0.509D-01-0.781D-01-0.123D+00
 Coeff:      0.210D+00 0.102D+01
 Gap=     0.289 Goal=   None    Shift=    0.000
 RMSDP=1.07D-07 MaxDP=7.25D-06 DE=-2.91D-09 OVMax= 2.96D-05

 Cycle   9  Pass 1  IDiag  1:
 RMSU=  2.57D-08    CP:  1.00D+00  1.24D+00  1.29D+00  1.82D+00  1.42D+00
                    CP:  1.43D+00  1.67D+00  1.42D+00
 E= -992.236916313615     Delta-E=       -0.000000000690 Rises=F Damp=F
 DIIS: error= 1.09D-07 at cycle   9 NSaved=   9.
 NSaved= 9 IEnMin= 9 EnMin= -992.236916313615     IErMin= 9 ErrMin= 1.09D-07
 ErrMax= 1.09D-07  0.00D+00 EMaxC= 1.00D-01 BMatC= 9.05D-12 BMatP= 9.31D-11
 IDIUse=1 WtCom= 1.00D+00 WtEn= 0.00D+00
 Coeff-Com: -0.355D-04-0.596D-03 0.172D-02 0.828D-02 0.818D-02-0.247D-01
 Coeff-Com: -0.106D+00 0.538D-02 0.111D+01
 Coeff:     -0.355D-04-0.596D-03 0.172D-02 0.828D-02 0.818D-02-0.247D-01
 Coeff:     -0.106D+00 0.538D-02 0.111D+01
 Gap=     0.289 Goal=   None    Shift=    0.000
 RMSDP=3.31D-08 MaxDP=2.47D-06 DE=-6.90D-10 OVMax= 1.01D-05

 Cycle  10  Pass 1  IDiag  1:
 RMSU=  7.52D-09    CP:  1.00D+00  1.24D+00  1.29D+00  1.83D+00  1.44D+00
                    CP:  1.45D+00  1.77D+00  1.70D+00  1.46D+00
 E= -992.236916313614     Delta-E=        0.000000000002 Rises=F Damp=F
 DIIS: error= 4.03D-08 at cycle  10 NSaved=  10.
 NSaved=10 IEnMin= 9 EnMin= -992.236916313615     IErMin=10 ErrMin= 4.03D-08
 ErrMax= 4.03D-08  0.00D+00 EMaxC= 1.00D-01 BMatC= 2.23D-12 BMatP= 9.05D-12
 IDIUse=1 WtCom= 1.00D+00 WtEn= 0.00D+00
 Coeff-Com:  0.102D-04-0.270D-02 0.183D-04 0.856D-02 0.140D-01 0.816D-02
 Coeff-Com: -0.594D-01-0.129D+00 0.326D+00 0.834D+00
 Coeff:      0.102D-04-0.270D-02 0.183D-04 0.856D-02 0.140D-01 0.816D-02
 Coeff:     -0.594D-01-0.129D+00 0.326D+00 0.834D+00
 Gap=     0.289 Goal=   None    Shift=    0.000
 RMSDP=1.05D-08 MaxDP=7.26D-07 DE= 1.82D-12 OVMax= 3.15D-06

 Cycle  11  Pass 1  IDiag  1:
 RMSU=  3.41D-09    CP:  1.00D+00  1.24D+00  1.29D+00  1.83D+00  1.45D+00
                    CP:  1.46D+00  1.80D+00  1.78D+00  1.67D+00  1.35D+00
 E= -992.236916313660     Delta-E=       -0.000000000046 Rises=F Damp=F
 DIIS: error= 3.25D-08 at cycle  11 NSaved=  11.
 NSaved=11 IEnMin=11 EnMin= -992.236916313660     IErMin=11 ErrMin= 3.25D-08
 ErrMax= 3.25D-08  0.00D+00 EMaxC= 1.00D-01 BMatC= 9.59D-13 BMatP= 2.23D-12
 IDIUse=1 WtCom= 1.00D+00 WtEn= 0.00D+00
 Coeff-Com:  0.143D-04-0.138D-02-0.397D-03 0.275D-02 0.615D-02 0.105D-01
 Coeff-Com: -0.778D-02-0.756D-01-0.839D-01 0.469D+00 0.681D+00
 Coeff:      0.143D-04-0.138D-02-0.397D-03 0.275D-02 0.615D-02 0.105D-01
 Coeff:     -0.778D-02-0.756D-01-0.839D-01 0.469D+00 0.681D+00
 Gap=     0.289 Goal=   None    Shift=    0.000
 RMSDP=5.06D-09 MaxDP=3.35D-07 DE=-4.59D-11 OVMax= 1.54D-06

 Error on total polarization charges =  0.03368
 SCF Done:  E(RwB97XD) =  -992.236916314     A.U. after   11 cycles
            NFock= 11  Conv=0.51D-08     -V/T= 2.0796
 KE= 9.190800914442D+02 PE=-4.448331288459D+03 EE= 1.466696600009D+03
 SMD-CDS (non-electrostatic) energy       (kcal/mol) =       0.49
 (included in total energy above)
 Leave Link  502 at Tue Oct  4 18:37:27 2022, MaxMem=  2952790016 cpu:            8130.3 elap:             683.1
 (Enter /mnt/data/applications/G16/g16/l701.exe)
 ... and contract with generalized density number  0.
 Compute integral first derivatives.
 R6Disp: Adding Grimme-D2 dispersion energy 1st derivatives to the gradient.
   1 Symmetry operations used in ECPInt.
 ECPInt:  NShTT=   22578 NPrTT=   66767 LenC2=   20832 LenP2D=   45553.
 LDataN:  DoStor=T MaxTD1= 8 Len=  415
 D1PCM: PCM CHGder 1st derivatives, ID1Alg=3 FixD1E=F DoIter=F DoCFld=F I1PDM=0.
 GePol: Maximum number of non-zero 1st derivatives   =     421
 Leave Link  701 at Tue Oct  4 18:37:39 2022, MaxMem=  2952790016 cpu:             142.2 elap:              11.9
 (Enter /mnt/data/applications/G16/g16/l702.exe)
 L702 exits ... SP integral derivatives will be done elsewhere.
 Leave Link  702 at Tue Oct  4 18:37:39 2022, MaxMem=  2952790016 cpu:               0.2 elap:               0.0
 (Enter /mnt/data/applications/G16/g16/l703.exe)
 Integral derivatives from FoFJK, PRISM(SPDF).
 Compute integral first derivatives, UseDBF=F ICtDFT=           0.
 Calling FoFJK, ICntrl=      2127 FMM=F ISym2X=0 I1Cent= 0 IOpClX= 0 NMat=1 NMatS=1 NMatT=0.
 FoFJK:  IHMeth= 1 ICntrl=    2127 DoSepK=T KAlg= 0 I1Cent=           0 FoldK=F
 IRaf=         1 NMat=       1 IRICut=       1 DoRegI=T DoRafI=F ISym2E= 0 IDoP0=0 IntGTp=1.
 FoFCou: FMM=F IPFlag=           0 FMFlag=      100000 FMFlg1=         800
         NFxFlg=           0 DoJE=F BraDBF=F KetDBF=F FulRan=T
         wScrn=  0.000000 ICntrl=      2527 IOpCl=  0 I1Cent=           0 NGrid=           0
         NMat0=    1 NMatS0=      1 NMatT0=    0 NMatD0=    1 NMtDS0=    0 NMtDT0=    0
 Symmetry not used in FoFCou.
 Defaulting to unpruned grid for atomic number  45.
 Defaulting to unpruned grid for atomic number  45.
 Defaulting to unpruned grid for atomic number  45.
 Defaulting to unpruned grid for atomic number  45.
 Defaulting to unpruned grid for atomic number  45.
 Defaulting to unpruned grid for atomic number  45.
 Defaulting to unpruned grid for atomic number  45.
 Defaulting to unpruned grid for atomic number  45.
 Defaulting to unpruned grid for atomic number  45.
 Defaulting to unpruned grid for atomic number  45.
 Defaulting to unpruned grid for atomic number  45.
 Defaulting to unpruned grid for atomic number  45.
 Leave Link  703 at Tue Oct  4 18:41:41 2022, MaxMem=  2952790016 cpu:            2886.6 elap:             241.2
 (Enter /mnt/data/applications/G16/g16/l716.exe)
 Dipole        = 7.46509863D-01-1.51732704D+00-5.54971312D-01
 ***** Axes restored to original set *****
 -------------------------------------------------------------------
 Center     Atomic                   Forces (Hartrees/Bohr)
 Number     Number              X              Y              Z
 -------------------------------------------------------------------
      1       45           0.000062062   -0.000407258    0.000373872
      2       15           0.000055605    0.000278287    0.000065403
      3        6           0.000009806    0.000000255   -0.000020220
      4        6           0.000012514   -0.000008728   -0.000000574
      5        6          -0.000018729   -0.000004755   -0.000007408
      6        1          -0.000001966    0.000007537    0.000005395
      7        1          -0.000001393    0.000002066   -0.000008325
      8        1           0.000005640    0.000006025    0.000004336
      9        1           0.000015792    0.000000496    0.000007613
     10        1           0.000008451   -0.000011302   -0.000018008
     11        1           0.000017057    0.000003007   -0.000006377
     12        1          -0.000002591   -0.000015873   -0.000001240
     13        1          -0.000002585   -0.000009607   -0.000011085
     14        6          -0.000118312    0.000425343   -0.000157045
     15        8           0.000060766   -0.000204632    0.000167991
     16        6          -0.000110928    0.000124469   -0.000370183
     17        8           0.000056482   -0.000088477    0.000178061
     18        1           0.000001816   -0.000007191    0.000002020
     19        1          -0.000060730   -0.000016072   -0.000183630
     20        8          -0.000004276    0.000010983   -0.000008912
     21        6          -0.000012905    0.000012746    0.000005138
     22        1           0.000006584   -0.000006703   -0.000005554
     23        6          -0.000017680   -0.000034699   -0.000007505
     24        1           0.000056840   -0.000012565    0.000004975
     25        1          -0.000004604   -0.000001612    0.000002871
     26        6          -0.000001263   -0.000011677   -0.000006470
     27        1          -0.000004833   -0.000010598    0.000001667
     28        1          -0.000000595   -0.000007569   -0.000003927
     29        1          -0.000006025   -0.000011894   -0.000002878
 -------------------------------------------------------------------
 Cartesian Forces:  Max     0.000425343 RMS     0.000104073
 Leave Link  716 at Tue Oct  4 18:41:41 2022, MaxMem=  2952790016 cpu:               0.3 elap:               0.0
 (Enter /mnt/data/applications/G16/g16/l103.exe)

 GradGradGradGradGradGradGradGradGradGradGradGradGradGradGradGradGradGrad
 Berny optimization.
 Using GEDIIS/GDIIS optimizer.
 FormGI is forming the generalized inverse of G from B-inverse, IUseBI=4.
 Internal  Forces:  Max     0.000379675 RMS     0.000048744
 Search for a local minimum.
 Step number   2 out of a maximum of  174
 All quantities printed in internal units (Hartrees-Bohrs-Radians)
 RMS Force = .48744D-04 SwitMx=.10000D-02 MixMth= 2
 Mixed Optimization -- En-DIIS/RFO-DIIS
 Swapping is turned off.
 Update second derivatives using D2CorX and points    1    2
 DE= -5.07D-06 DEPred=-8.04D-06 R= 6.30D-01
 TightC=F SS=  1.41D+00  RLast= 1.31D-02 DXNew= 8.4090D-02 3.9334D-02
 Trust test= 6.30D-01 RLast= 1.31D-02 DXMaxT set to 5.00D-02
 ITU=  1  0
     Eigenvalues ---    0.00390   0.00406   0.00495   0.00837   0.00942
     Eigenvalues ---    0.01077   0.01412   0.01732   0.02103   0.02263
     Eigenvalues ---    0.02408   0.02771   0.02929   0.03121   0.03361
     Eigenvalues ---    0.03657   0.03858   0.04062   0.04270   0.04491
     Eigenvalues ---    0.04704   0.04799   0.05153   0.05157   0.05162
     Eigenvalues ---    0.05711   0.05774   0.05988   0.06062   0.06219
     Eigenvalues ---    0.06416   0.06446   0.06620   0.07222   0.07592
     Eigenvalues ---    0.07730   0.08085   0.08457   0.08963   0.09440
     Eigenvalues ---    0.09804   0.10829   0.11032   0.11290   0.11435
     Eigenvalues ---    0.11757   0.12845   0.13617   0.14261   0.14729
     Eigenvalues ---    0.14985   0.15995   0.15997   0.16000   0.16001
     Eigenvalues ---    0.18329   0.21920   0.22331   0.23714   0.24686
     Eigenvalues ---    0.24873   0.26917   0.27415   0.29149   0.30666
     Eigenvalues ---    0.31902   0.32513   0.33753   0.34226   0.34527
     Eigenvalues ---    0.34565   0.34568   0.34593   0.34682   0.34737
     Eigenvalues ---    0.34813   0.34819   0.34820   0.88320   1.42673
     Eigenvalues ---    1.43463
 En-DIIS/RFO-DIIS/Sim-DIIS IScMMF=       -3 using points:     2    1
 RFO step:  Lambda=-7.09150160D-06.
 NNeg= 0 NGDIIS= 2 SimSw=  2.50D-03 Rises=F DC= -5.07D-06 SmlDif=  1.00D-05
 NRisDI= 0 DoIntr=F SqrtH=F CThrHd= 10.0 CDAdj=  3.0
 RMS Error=  0.8699876851D-03 NUsed= 2 OKEnD=F EnDIS=F
 InvSVX:  RCond= 4.30D-05 Info=           0 Equed=N FErr=  3.31D-15 BErr=  4.53D-17
 DidBck=F Rises=F RFO-DIIS coefs:    1.37629   -0.37629
 Iteration  1 RMS(Cart)=  0.00213359 RMS(Int)=  0.00000671
 Iteration  2 RMS(Cart)=  0.00000720 RMS(Int)=  0.00000017
 Iteration  3 RMS(Cart)=  0.00000000 RMS(Int)=  0.00000017
 ITry= 1 IFail=0 DXMaxC= 2.08D-02 DCOld= 1.00D+10 DXMaxT= 5.00D-02 DXLimC= 3.00D+00 Rises=F
 Variable       Old X    -DE/DX   Delta X   Delta X   Delta X     New X
                                 (Linear)    (Quad)   (Total)
    R1        4.42820  -0.00017  -0.00041  -0.00152  -0.00193   4.42628
    R2        3.56030   0.00020   0.00157   0.00113   0.00270   3.56300
    R3        3.60168   0.00021   0.00157   0.00122   0.00279   3.60447
    R4        3.09619  -0.00019  -0.00042  -0.00149  -0.00191   3.09428
    R5        4.92350  -0.00006  -0.00049  -0.00227  -0.00276   4.92073
    R6        3.43318   0.00003  -0.00008   0.00014   0.00006   3.43325
    R7        3.43260   0.00001  -0.00004   0.00001  -0.00002   3.43257
    R8        3.43311  -0.00002  -0.00002  -0.00010  -0.00012   3.43299
    R9        2.06196  -0.00001   0.00000  -0.00002  -0.00002   2.06194
   R10        2.06066  -0.00000   0.00001  -0.00001  -0.00001   2.06065
   R11        2.06348   0.00002  -0.00001   0.00005   0.00004   2.06353
   R12        2.05972  -0.00000   0.00001  -0.00002  -0.00001   2.05971
   R13        2.05968  -0.00000   0.00000  -0.00001  -0.00001   2.05967
   R14        2.06389   0.00001   0.00001   0.00002   0.00003   2.06391
   R15        2.06102  -0.00001  -0.00001  -0.00002  -0.00003   2.06100
   R16        2.06385   0.00000   0.00001   0.00001   0.00002   2.06387
   R17        2.05971  -0.00000   0.00000  -0.00001  -0.00001   2.05970
   R18        5.11852   0.00001   0.00015   0.00042   0.00057   5.11908
   R19        4.92027   0.00001  -0.00002   0.00020   0.00018   4.92046
   R20        5.10555  -0.00004  -0.00003  -0.00054  -0.00056   5.10499
   R21        5.14157   0.00001  -0.00001   0.00006   0.00005   5.14162
   R22        2.14995  -0.00016  -0.00004  -0.00013  -0.00017   2.14978
   R23        2.15099  -0.00018  -0.00007  -0.00015  -0.00022   2.15077
   R24        2.27640   0.00001   0.00002   0.00000   0.00002   2.27642
   R25        2.09911  -0.00001  -0.00001  -0.00002  -0.00003   2.09909
   R26        2.82642  -0.00001  -0.00002  -0.00007  -0.00008   2.82633
   R27        2.06734   0.00000   0.00001   0.00002   0.00003   2.06737
   R28        2.06952   0.00000   0.00001   0.00001   0.00002   2.06954
   R29        2.88816  -0.00001  -0.00000  -0.00004  -0.00004   2.88812
   R30        2.05982   0.00000   0.00001   0.00001   0.00002   2.05984
   R31        2.06452  -0.00000   0.00000  -0.00001  -0.00001   2.06451
   R32        2.06304   0.00001  -0.00001  -0.00001  -0.00002   2.06302
    A1        1.67683  -0.00001   0.00030   0.00013   0.00043   1.67725
    A2        1.41183  -0.00004  -0.00104  -0.00096  -0.00200   1.40983
    A3        1.51359   0.00002   0.00018   0.00034   0.00052   1.51411
    A4        1.71197   0.00006   0.00138   0.00105   0.00243   1.71440
    A5        1.48270  -0.00002  -0.00065  -0.00019  -0.00084   1.48186
    A6        1.68366  -0.00003   0.00055  -0.00010   0.00045   1.68411
    A7        1.54645   0.00000   0.00021  -0.00004   0.00017   1.54662
    A8        1.58795  -0.00002   0.00001  -0.00050  -0.00048   1.58747
    A9        2.05541  -0.00001  -0.00027  -0.00009  -0.00035   2.05506
   A10        1.98723   0.00001   0.00002   0.00009   0.00011   1.98734
   A11        1.98200   0.00003   0.00019   0.00046   0.00065   1.98265
   A12        1.79713  -0.00001   0.00000  -0.00020  -0.00020   1.79693
   A13        1.80206  -0.00001   0.00004  -0.00017  -0.00013   1.80193
   A14        1.81164  -0.00002   0.00004  -0.00017  -0.00014   1.81150
   A15        1.91077   0.00000   0.00006   0.00001   0.00007   1.91084
   A16        1.90208  -0.00001   0.00004  -0.00005  -0.00001   1.90207
   A17        1.94210   0.00002  -0.00018   0.00012  -0.00006   1.94204
   A18        1.89702   0.00001   0.00003   0.00003   0.00006   1.89708
   A19        1.90443  -0.00001   0.00002  -0.00005  -0.00004   1.90439
   A20        1.90690  -0.00001   0.00003  -0.00005  -0.00002   1.90688
   A21        1.89755  -0.00001   0.00005  -0.00005  -0.00001   1.89755
   A22        1.91241   0.00000   0.00001   0.00009   0.00010   1.91251
   A23        1.93408   0.00001  -0.00009   0.00004  -0.00005   1.93403
   A24        1.90446   0.00000  -0.00000   0.00000   0.00000   1.90446
   A25        1.90283  -0.00000  -0.00000  -0.00006  -0.00006   1.90277
   A26        1.91219  -0.00000   0.00003  -0.00002   0.00001   1.91221
   A27        1.91049   0.00000   0.00004   0.00002   0.00006   1.91054
   A28        1.93700  -0.00002  -0.00008  -0.00014  -0.00022   1.93679
   A29        1.90617   0.00001   0.00003   0.00010   0.00014   1.90630
   A30        1.90685   0.00000   0.00002   0.00001   0.00002   1.90687
   A31        1.88866  -0.00000  -0.00002   0.00003   0.00001   1.88867
   A32        1.91402  -0.00000   0.00002  -0.00002  -0.00000   1.91402
   A33        2.46072   0.00001  -0.00001  -0.00001  -0.00002   2.46069
   A34        2.52624   0.00001   0.00001   0.00004   0.00005   2.52629
   A35        1.90565  -0.00000   0.00001  -0.00002  -0.00001   1.90564
   A36        2.12292  -0.00001  -0.00001  -0.00002  -0.00003   2.12289
   A37        1.00744  -0.00000  -0.00004  -0.00004  -0.00008   1.00736
   A38        1.39841   0.00000  -0.00000  -0.00003  -0.00004   1.39837
   A39        0.96866   0.00000   0.00003   0.00006   0.00009   0.96875
   A40        1.13010  -0.00000  -0.00003  -0.00012  -0.00015   1.12995
   A41        2.67938  -0.00000  -0.00001  -0.00017  -0.00017   2.67920
   A42        1.72756   0.00000   0.00002  -0.00001   0.00000   1.72756
   A43        2.08717   0.00000   0.00000   0.00006   0.00006   2.08723
   A44        2.18894  -0.00001  -0.00005  -0.00016  -0.00020   2.18874
   A45        2.00690   0.00001   0.00004   0.00010   0.00014   2.00704
   A46        1.91088  -0.00000  -0.00006  -0.00000  -0.00006   1.91082
   A47        1.87338  -0.00000  -0.00002  -0.00001  -0.00003   1.87335
   A48        1.93500   0.00001   0.00003   0.00015   0.00018   1.93518
   A49        1.88628   0.00000  -0.00000  -0.00006  -0.00007   1.88621
   A50        1.94656  -0.00000   0.00005  -0.00002   0.00003   1.94659
   A51        1.90964  -0.00000  -0.00001  -0.00005  -0.00007   1.90958
   A52        1.53269  -0.00002  -0.00006   0.00010   0.00004   1.53273
   A53        2.81245   0.00000   0.00000  -0.00003  -0.00002   2.81242
   A54        1.79218   0.00001   0.00000   0.00010   0.00011   1.79228
   A55        1.92213   0.00000  -0.00002  -0.00004  -0.00005   1.92207
   A56        1.94721  -0.00001   0.00002  -0.00000   0.00001   1.94722
   A57        1.93773   0.00000  -0.00000  -0.00003  -0.00004   1.93769
   A58        1.88357   0.00000   0.00001  -0.00001   0.00000   1.88357
   A59        1.88425  -0.00000  -0.00001   0.00000  -0.00001   1.88424
   A60        1.88687   0.00001   0.00001   0.00008   0.00009   1.88695
   A61        2.08314  -0.00001  -0.00001  -0.00011  -0.00011   2.08303
   A62        3.38879   0.00005   0.00168   0.00118   0.00286   3.39165
   A63        3.08865  -0.00005  -0.00074  -0.00084  -0.00157   3.08708
   A64        3.15834   0.00021  -0.00061   0.00443   0.00382   3.16216
   A65        3.14823  -0.00020   0.00028  -0.00414  -0.00386   3.14437
   A66        3.19201  -0.00000   0.00077   0.00021   0.00098   3.19299
   A67        3.14563   0.00002  -0.00026   0.00051   0.00025   3.14588
   A68        3.11297  -0.00038   0.00142  -0.00787  -0.00645   3.10652
   A69        3.13750   0.00004  -0.00023   0.00088   0.00065   3.13815
    D1        0.09023  -0.00000  -0.00012   0.00006  -0.00006   0.09018
    D2       -2.01595   0.00001   0.00009   0.00032   0.00041  -2.01554
    D3        2.19875   0.00000  -0.00011   0.00015   0.00003   2.19878
    D4       -3.05539  -0.00002   0.00014  -0.00045  -0.00031  -3.05571
    D5        1.12161  -0.00001   0.00035  -0.00019   0.00016   1.12176
    D6       -0.94688  -0.00001   0.00015  -0.00037  -0.00022  -0.94710
    D7        1.63041   0.00001   0.00010   0.00005   0.00014   1.63055
    D8       -0.47578   0.00001   0.00030   0.00031   0.00061  -0.47517
    D9       -2.54427   0.00001   0.00010   0.00013   0.00023  -2.54403
   D10        0.05473  -0.00001  -0.00019  -0.00017  -0.00036   0.05436
   D11       -2.12036  -0.00001  -0.00002  -0.00082  -0.00084  -2.12120
   D12       -2.83989   0.00004   0.00149   0.00101   0.00250  -2.83739
   D13        1.26820   0.00004   0.00167   0.00035   0.00202   1.27022
   D14        1.73316  -0.00002   0.00009  -0.00005   0.00004   1.73320
   D15       -0.44193  -0.00003   0.00026  -0.00070  -0.00044  -0.44237
   D16       -1.35582   0.00002   0.00084   0.00076   0.00160  -1.35422
   D17        2.75228   0.00002   0.00102   0.00010   0.00112   2.75340
   D18        1.03439   0.00001   0.00016   0.00023   0.00039   1.03479
   D19       -1.03835   0.00001   0.00006   0.00022   0.00028  -1.03807
   D20        3.14094   0.00001   0.00011   0.00025   0.00035   3.14129
   D21       -3.04651   0.00001   0.00000   0.00014   0.00014  -3.04637
   D22        1.16393   0.00001  -0.00010   0.00012   0.00003   1.16396
   D23       -0.93997   0.00001  -0.00005   0.00015   0.00010  -0.93987
   D24       -1.16506  -0.00002   0.00006  -0.00017  -0.00011  -1.16517
   D25        3.04538  -0.00002  -0.00004  -0.00018  -0.00022   3.04516
   D26        0.94148  -0.00002   0.00000  -0.00015  -0.00015   0.94133
   D27        1.15055  -0.00002  -0.00032  -0.00055  -0.00087   1.14968
   D28       -0.92948  -0.00001  -0.00035  -0.00057  -0.00092  -0.93041
   D29       -3.04165  -0.00002  -0.00034  -0.00063  -0.00098  -3.04263
   D30       -1.09486  -0.00001   0.00001  -0.00035  -0.00034  -1.09520
   D31        3.10830  -0.00001  -0.00002  -0.00038  -0.00040   3.10790
   D32        0.99613  -0.00001  -0.00001  -0.00044  -0.00045   0.99568
   D33       -2.96904   0.00001  -0.00004  -0.00005  -0.00009  -2.96913
   D34        1.23411   0.00002  -0.00008  -0.00007  -0.00015   1.23397
   D35       -0.87805   0.00001  -0.00007  -0.00013  -0.00020  -0.87825
   D36       -1.01621   0.00000   0.00016   0.00022   0.00038  -1.01582
   D37       -3.12232   0.00001   0.00017   0.00029   0.00046  -3.12186
   D38        1.04865   0.00001   0.00017   0.00034   0.00051   1.04917
   D39        1.22949   0.00001  -0.00002   0.00028   0.00026   1.22975
   D40       -0.87662   0.00001  -0.00002   0.00035   0.00033  -0.87629
   D41       -2.98883   0.00001  -0.00001   0.00040   0.00038  -2.98845
   D42        3.09998  -0.00001   0.00000  -0.00004  -0.00004   3.09994
   D43        0.99387  -0.00001   0.00001   0.00003   0.00003   0.99391
   D44       -1.11834  -0.00001   0.00001   0.00007   0.00009  -1.11826
   D45       -0.22484  -0.00000   0.00012   0.00015   0.00026  -0.22457
   D46       -2.30616  -0.00000  -0.00000   0.00015   0.00015  -2.30601
   D47        1.90056   0.00001  -0.00006   0.00023   0.00017   1.90073
   D48        0.02222   0.00000  -0.00000   0.00031   0.00030   0.02252
   D49       -1.03957   0.00001   0.00006   0.00043   0.00048  -1.03909
   D50       -2.09826   0.00001   0.00002   0.00037   0.00038  -2.09787
   D51        2.10722  -0.00000   0.00004   0.00038   0.00043   2.10764
   D52        1.04542   0.00001   0.00010   0.00050   0.00060   1.04603
   D53       -0.01326   0.00001   0.00006   0.00044   0.00051  -0.01275
   D54       -2.08810  -0.00001   0.00008   0.00033   0.00041  -2.08770
   D55        3.13329   0.00000   0.00014   0.00045   0.00059   3.13388
   D56        2.07461   0.00000   0.00010   0.00039   0.00049   2.07509
   D57       -0.49463  -0.00000  -0.00009  -0.00022  -0.00032  -0.49495
   D58        0.48232  -0.00000  -0.00012  -0.00027  -0.00039   0.48193
   D59        0.64596   0.00001   0.00000  -0.00007  -0.00006   0.64589
   D60       -2.11213   0.00001  -0.00000   0.00006   0.00005  -2.11207
   D61        1.99480  -0.00001  -0.00005  -0.00021  -0.00026   1.99454
   D62       -0.76328  -0.00000  -0.00005  -0.00009  -0.00014  -0.76343
   D63        2.95906  -0.00001  -0.00002  -0.00013  -0.00015   2.95891
   D64        0.20097  -0.00000  -0.00002  -0.00001  -0.00003   0.20094
   D65        0.61779   0.00001   0.00014   0.00004   0.00018   0.61797
   D66       -2.79994   0.00001   0.00011   0.00014   0.00025  -2.79970
   D67       -1.88504   0.00000   0.00013  -0.00003   0.00009  -1.88495
   D68        0.98041   0.00000   0.00010   0.00006   0.00016   0.98057
   D69        2.63830  -0.00000   0.00012   0.00003   0.00015   2.63845
   D70       -0.77943   0.00000   0.00009   0.00013   0.00022  -0.77921
   D71        1.88799   0.00000  -0.00007  -0.00032  -0.00039   1.88760
   D72       -0.73044  -0.00000  -0.00007  -0.00033  -0.00040  -0.73084
   D73        0.27221  -0.00001  -0.00011  -0.00034  -0.00045   0.27176
   D74        3.08332  -0.00000   0.00002   0.00002   0.00004   3.08336
   D75       -0.07902  -0.00000   0.00005   0.00008   0.00013  -0.07889
   D76       -2.33822  -0.00000  -0.00002  -0.00009  -0.00011  -2.33832
   D77        0.78262  -0.00000   0.00001  -0.00003  -0.00002   0.78261
   D78        0.12581  -0.00001   0.00005  -0.00003   0.00002   0.12583
   D79        2.16926  -0.00000   0.00001  -0.00012  -0.00011   2.16915
   D80       -2.02913  -0.00000   0.00000  -0.00011  -0.00010  -2.02923
   D81       -3.03569  -0.00000   0.00008   0.00002   0.00011  -3.03559
   D82       -0.99224  -0.00000   0.00004  -0.00006  -0.00002  -0.99227
   D83        1.09255  -0.00000   0.00004  -0.00005  -0.00002   1.09253
   D84        1.21934  -0.00001  -0.00027   0.00053   0.00026   1.21959
   D85       -0.91965  -0.00001  -0.00009  -0.00014  -0.00022  -0.91987
   D86       -0.81598  -0.00000  -0.00022   0.00058   0.00036  -0.81561
   D87       -2.95496  -0.00000  -0.00003  -0.00008  -0.00011  -2.95508
   D88       -2.91574   0.00000  -0.00024   0.00070   0.00047  -2.91527
   D89        1.22846   0.00000  -0.00005   0.00004  -0.00001   1.22845
   D90       -3.08130   0.00000  -0.00010  -0.00022  -0.00032  -3.08162
   D91       -0.99006  -0.00000  -0.00009  -0.00025  -0.00035  -0.99041
   D92        1.11590   0.00000  -0.00007  -0.00018  -0.00025   1.11564
   D93        1.06758   0.00000  -0.00008  -0.00031  -0.00039   1.06719
   D94       -3.12436  -0.00000  -0.00008  -0.00034  -0.00042  -3.12478
   D95       -1.01840   0.00000  -0.00006  -0.00027  -0.00032  -1.01873
   D96       -1.01840   0.00000  -0.00011  -0.00018  -0.00029  -1.01869
   D97        1.07284  -0.00000  -0.00010  -0.00021  -0.00031   1.07252
   D98       -3.10439   0.00000  -0.00008  -0.00014  -0.00022  -3.10461
   D99        0.13096   0.00001   0.00011   0.00045   0.00056   0.13152
   D100      -1.97753   0.00001   0.00014   0.00051   0.00066  -1.97687
   D101       2.27221   0.00001   0.00013   0.00048   0.00061   2.27282
         Item               Value     Threshold  Converged?
 Maximum Force            0.000380     0.000450     YES
 RMS     Force            0.000049     0.000300     YES
 Maximum Displacement     0.020771     0.001800     NO 
 RMS     Displacement     0.002133     0.001200     NO 
 Predicted change in Energy=-3.546107D-06
 Lowest energy point so far.  Saving SCF results.
 GradGradGradGradGradGradGradGradGradGradGradGradGradGradGradGradGradGrad

 Leave Link  103 at Tue Oct  4 18:41:41 2022, MaxMem=  2952790016 cpu:               0.7 elap:               0.1
 (Enter /mnt/data/applications/G16/g16/l202.exe)
                          Input orientation:                          
 ---------------------------------------------------------------------
 Center     Atomic      Atomic             Coordinates (Angstroms)
 Number     Number       Type             X           Y           Z
 ---------------------------------------------------------------------
      1         45           0        0.844498    0.736981    0.155565
      2         15           0        0.904716   -1.601379    0.276984
      3          6           0        0.809726   -2.531940   -1.280508
      4          6           0       -0.439746   -2.320919    1.263968
      5          6           0        2.410827   -2.250459    1.058377
      6          1           0        3.285038   -1.905046    0.505275
      7          1           0        2.403231   -3.342467    1.074616
      8          1           0        1.642747   -2.247972   -1.925490
      9          1           0       -0.124064   -2.283346   -1.785802
     10          1           0        0.846867   -3.608523   -1.101636
     11          1           0       -1.386402   -2.126711    0.759864
     12          1           0       -0.458309   -1.856173    2.249676
     13          1           0       -0.308152   -3.399862    1.370805
     14          6           0        0.967755    2.585715    0.504763
     15          8           0        1.062810    3.691677    0.753721
     16          6           0        0.531859    0.834372   -1.723519
     17          8           0        0.341359    0.895404   -2.843940
     18          1           0        2.479593   -1.868949    2.077056
     19          1           0        1.106388    0.564294    1.762658
     20          8           0       -2.498024   -1.057775   -1.338091
     21          6           0       -3.212316   -0.259865   -0.786490
     22          1           0       -4.272444   -0.161814   -1.103294
     23          6           0       -2.805480    0.631217    0.343719
     24          1           0       -1.727848    0.541345    0.509500
     25          1           0       -3.017636    1.661651    0.039485
     26          6           0       -3.597021    0.301988    1.608970
     27          1           0       -3.335112    0.997046    2.406741
     28          1           0       -4.673803    0.375116    1.439463
     29          1           0       -3.376106   -0.708829    1.957196
 ---------------------------------------------------------------------
                    Distance matrix (angstroms):
                    1          2          3          4          5
     1  Rh   0.000000
     2  P    2.342284   0.000000
     3  C    3.570624   1.816795   0.000000
     4  C    3.496940   1.816440   2.842546   0.000000
     5  C    3.491884   1.816659   2.848357   2.858846   0.000000
     6  H    3.613702   2.410448   3.115956   3.823948   1.090632
     7  H    4.462757   2.431697   2.956826   3.026868   1.092155
     8  H    3.725310   2.411153   1.091130   3.809821   3.081139
     9  H    3.718789   2.403861   1.090452   3.066294   3.810001
    10  H    4.523711   2.435685   1.091973   2.984859   2.992652
    11  H    3.680057   2.399660   3.024946   1.089952   3.810954
    12  H    3.578694   2.411280   3.811400   1.089933   3.131548
    13  H    4.463057   2.429410   3.005395   1.092177   2.968431
    14  C    1.885457   4.193759   5.422412   5.160669   5.077156
    15  O    3.022529   5.316834   6.552522   6.218468   6.100733
    16  C    1.907403   3.173944   3.406689   4.452523   4.559128
    17  O    3.045535   4.036269   3.796100   5.275393   5.422844
    18  H    3.627194   2.406677   3.808050   3.063973   1.089947
    19  H    1.637423   2.634016   4.351497   3.311144   3.181258
    20  O    4.077329   3.805603   3.621835   3.550036   5.591277
    21  C    4.282395   4.458766   4.645772   4.017395   6.243856
    22  H    5.345620   5.548018   5.610468   4.995522   7.328122
    23  C    3.656354   4.330646   5.070836   3.893412   6.002053
    24  H    2.603941   3.402312   4.369037   3.228155   5.022356
    25  H    3.972980   5.107702   5.829004   4.899565   6.768379
    26  C    4.693473   5.065830   5.983280   4.119108   6.550753
    27  H    4.754425   5.409604   6.574893   4.549501   6.736481
    28  H    5.677234   6.031399   6.776304   5.022613   7.565107
    29  H    4.811417   4.684571   5.597111   3.420762   6.055831
                    6          7          8          9         10
     6  H    0.000000
     7  H    1.779863   0.000000
     8  H    2.953529   3.282817   0.000000
     9  H    4.124817   3.961180   1.772678   0.000000
    10  H    3.380632   2.688703   1.778555   1.779574   0.000000
    11  H    4.683620   3.992298   4.049885   2.845776   3.263194
    12  H    4.130130   3.431945   4.690410   4.071766   4.000688
    13  H    3.986807   2.728116   3.999802   3.353306   2.736891
    14  C    5.053388   6.126064   5.452180   5.490584   6.400290
    15  O    6.026885   7.167907   6.541707   6.599905   7.535377
    16  C    4.477938   5.364474   3.282638   3.186578   4.497253
    17  O    5.265455   6.129107   3.523915   3.382415   4.855566
    18  H    1.766506   1.783809   4.106622   4.676796   3.974417
    19  H    3.524935   4.173486   4.668935   4.713240   5.067932
    20  O    6.128595   5.921425   4.348286   2.708903   4.213137
    21  C    6.825752   6.670871   5.368569   3.824971   5.271603
    22  H    7.920978   7.708728   6.325943   4.709116   6.171479
    23  C    6.599480   6.592044   5.764179   4.496612   5.779626
    24  H    5.577981   5.698172   5.007032   3.977362   5.142598
    25  H    7.256858   7.449731   6.392609   5.221822   6.634099
    26  C    7.311079   7.040640   6.815414   5.501805   6.510578
    27  H    7.474229   7.316728   7.353736   6.216849   7.142053
    28  H    8.331566   8.002371   7.622486   6.178177   7.266661
    29  H    6.921695   6.412155   6.529402   5.202395   5.966421
                   11         12         13         14         15
    11  H    0.000000
    12  H    1.775975   0.000000
    13  H    1.776734   1.782677   0.000000
    14  C    5.273907   4.980838   6.181027   0.000000
    15  O    6.312870   5.943932   7.249156   1.137616   0.000000
    16  C    4.314502   4.899566   5.311233   2.867481   3.818746
    17  O    5.010563   5.844277   6.052706   3.803070   4.613329
    18  H    4.092353   2.942996   3.257914   4.960019   5.888893
    19  H    3.802776   2.923034   4.227175   2.384881   3.286393
    20  O    2.603794   4.203564   4.197503   5.355628   6.293847
    21  C    3.034846   4.398984   4.790373   5.218971   6.021930
    22  H    3.957451   5.353587   5.685221   6.131431   6.838336
    23  C    3.129397   3.915226   4.851922   4.252447   4.949564
    24  H    2.701442   3.223048   4.276739   3.383157   4.215686
    25  H    4.187071   4.879568   5.893440   4.117490   4.613153
    26  C    3.392108   3.862600   4.957527   5.222247   5.825416
    27  H    4.033303   4.054815   5.437688   4.965486   5.416200
    28  H    4.186646   4.837922   5.771835   6.130872   6.661723
    29  H    2.720831   3.148887   4.122846   5.642049   6.365280
                   16         17         18         19         20
    16  C    0.000000
    17  O    1.138139   0.000000
    18  H    5.054304   6.035719   0.000000
    19  H    3.543509   4.681415   2.811621   0.000000
    20  O    3.592905   3.760929   6.090805   5.023698   0.000000
    21  C    4.011761   4.265719   6.571672   5.082185   1.204631
    22  H    4.945543   5.043286   7.656301   6.137813   2.001610
    23  C    3.930976   4.487043   6.098138   4.161800   2.403270
    24  H    3.190378   3.956329   5.096009   3.099004   2.562020
    25  H    4.048640   4.492674   6.843709   4.602292   3.092408
    26  C    5.332595   5.974227   6.469722   4.713224   3.426648
    27  H    5.660298   6.410649   6.491025   4.508773   4.352789
    28  H    6.108542   6.615897   7.524189   5.792310   3.808149
    29  H    5.585814   6.280447   5.970717   4.663845   3.428076
                   21         22         23         24         25
    21  C    0.000000
    22  H    1.110788   0.000000
    23  C    1.495632   2.207878   0.000000
    24  H    2.127245   3.093623   1.094006   0.000000
    25  H    2.100562   2.491086   1.095155   1.771878   0.000000
    26  C    2.490363   2.833317   1.528329   2.181727   2.155842
    27  H    3.433894   3.813383   2.161111   2.527940   2.479192
    28  H    2.737519   2.629637   2.181026   3.093722   2.521508
    29  H    2.784996   3.235621   2.173625   2.524978   3.070063
                   26         27         28         29
    26  C    0.000000
    27  H    1.090019   0.000000
    28  H    1.092493   1.764800   0.000000
    29  H    1.091702   1.764591   1.768332   0.000000
 Stoichiometry    C8H16O3PRh
 Framework group  C1[X(C8H16O3PRh)]
 Deg. of freedom    81
 Full point group                 C1      NOp   1
 RotChk:  IX=0 Diff= 3.65D-03
 Largest Abelian subgroup         C1      NOp   1
 Largest concise Abelian subgroup C1      NOp   1
                         Standard orientation:                         
 ---------------------------------------------------------------------
 Center     Atomic      Atomic             Coordinates (Angstroms)
 Number     Number       Type             X           Y           Z
 ---------------------------------------------------------------------
      1         45           0       -0.848889    0.733543   -0.153906
      2         15           0       -0.897783   -1.604802   -0.280572
      3          6           0       -0.797013   -2.538407    1.274732
      4          6           0        0.449394   -2.315532   -1.270236
      5          6           0       -2.401325   -2.259464   -1.062255
      6          1           0       -3.276774   -1.919578   -0.507688
      7          1           0       -2.388409   -3.351382   -1.080973
      8          1           0       -1.630899   -2.259970    1.921008
      9          1           0        0.135952   -2.286397    1.779857
     10          1           0       -0.829039   -3.614751    1.093452
     11          1           0        1.395489   -2.117842   -0.766434
     12          1           0        0.464904   -1.848473   -2.254903
     13          1           0        0.322985   -3.394861   -1.379413
     14          6           0       -0.981450    2.582438   -0.498819
     15          8           0       -1.082102    3.688483   -0.745197
     16          6           0       -0.535238    0.828213    1.725149
     17          8           0       -0.344149    0.887641    2.845556
     18          1           0       -2.472762   -1.875992   -2.080014
     19          1           0       -1.111208    0.563213   -1.761180
     20          8           0        2.503543   -1.048233    1.333066
     21          6           0        3.213492   -0.245599    0.782714
     22          1           0        4.273379   -0.143086    1.098909
     23          6           0        2.801412    0.646038   -0.345155
     24          1           0        1.724101    0.551278   -0.510295
     25          1           0        3.008774    1.676806   -0.038754
     26          6           0        3.593547    0.323541   -1.611768
     27          1           0        3.327613    1.019114   -2.407757
     28          1           0        4.670093    0.401546   -1.442938
     29          1           0        3.377295   -0.687552   -1.962108
 ---------------------------------------------------------------------
 Rotational constants (GHZ):           0.4729643           0.4402960           0.3289327
 Leave Link  202 at Tue Oct  4 18:41:41 2022, MaxMem=  2952790016 cpu:               0.1 elap:               0.0
 (Enter /mnt/data/applications/G16/g16/l301.exe)
 Basis read from rwf:  (5D, 7F)
 Pseudo-potential data read from rwf file.
 There are   573 symmetry adapted cartesian basis functions of A   symmetry.
 There are   510 symmetry adapted basis functions of A   symmetry.
   510 basis functions,   823 primitive gaussians,   573 cartesian basis functions
    60 alpha electrons       60 beta electrons
       nuclear repulsion energy      1070.3209172986 Hartrees.
 IExCor= 4639 DFT=T Ex+Corr=wB97XD ExCW=0 ScaHFX=  1.000000
 ScaDFX=  1.000000  1.000000  1.000000  1.000000 ScalE2=  1.000000  1.000000
 IRadAn=      5 IRanWt=     -1 IRanGd=            0 ICorTp=0 IEmpDi=121
 HFx  wShort=  0.000000 wLong=  0.200000 cFull=  0.222036 cShort=  0.000000 cLong=  0.777964
 DFx  wShort=  0.000000 wLong=  0.200000 cFull=  0.000000 cShort=  0.000000 cLong=  1.000000
 NAtoms=   29 NActive=   29 NUniq=   29 SFac= 1.00D+00 NAtFMM=   60 NAOKFM=F Big=F
 Integral buffers will be    131072 words long.
 Raffenetti 2 integral format.
 Two-electron integral symmetry is turned on.
 R6Disp:  Grimme-D2 Dispersion energy=       -0.0235936097 Hartrees.
 Nuclear repulsion after empirical dispersion term =     1070.2973236889 Hartrees.
 No density basis found on file   724.
 ------------------------------------------------------------------------------
 Polarizable Continuum Model (PCM)
 =================================
 Model                : PCM.
 Atomic radii         : SMD-Coulomb.
 Polarization charges : Total charges.
 Charge compensation  : None.
 Solution method      : On-the-fly selection.
 Cavity type          : VdW (van der Waals Surface) (Alpha=1.000).
 Cavity algorithm     : GePol (No added spheres)
                        Default sphere list used, NSphG=   29.
                        Lebedev-Laikov grids with approx.  5.0 points / Ang**2.
                        Smoothing algorithm: York/Karplus (Gamma=1.0000).
                        Polarization charges: spherical gaussians, with
                                              point-specific exponents (IZeta= 3).
                        Self-potential: point-specific (ISelfS= 7).
                        Self-field    : sphere-specific E.n sum rule (ISelfD= 2).
 1st derivatives      : Analytical E(r).r(x)/FMM algorithm (CHGder, D1EAlg=3).
                        Cavity 1st derivative terms included.
 Solvent              : Toluene, Eps=   2.374100 Eps(inf)=   2.238315
 ------------------------------------------------------------------------------
 GePol: Number of generator spheres                  =      29
 GePol: Total number of spheres                      =      29
 GePol: Number of exposed spheres                    =      29 (100.00%)
 GePol: Number of points                             =    2666
 GePol: Average weight of points                     =       0.12
 GePol: Minimum weight of points                     =   0.21D-10
 GePol: Maximum weight of points                     =    0.20615
 GePol: Number of points with low weight             =     123
 GePol: Fraction of low-weight points (<1% of avg)   =       4.61%
 GePol: Cavity surface area                          =    323.226 Ang**2
 GePol: Cavity volume                                =    296.989 Ang**3
 ------------------------------------------------------------------------------
 Atomic radii for non-electrostatic terms: SMD-CDS.
 ------------------------------------------------------------------------------
 PCM non-electrostatic energy =         0.0007893607 Hartrees.
 Nuclear repulsion after PCM non-electrostatic terms =     1070.2981130496 Hartrees.
 Leave Link  301 at Tue Oct  4 18:41:41 2022, MaxMem=  2952790016 cpu:               2.2 elap:               0.2
 (Enter /mnt/data/applications/G16/g16/l302.exe)
 NPDir=0 NMtPBC=     1 NCelOv=     1 NCel=       1 NClECP=     1 NCelD=      1
         NCelK=      1 NCelE2=     1 NClLst=     1 CellRange=     0.0.
 One-electron integrals computed using PRISM.
 One-electron integral symmetry used in STVInt
   1 Symmetry operations used in ECPInt.
 ECPInt:  NShTT=   22578 NPrTT=   66767 LenC2=   20832 LenP2D=   45554.
 LDataN:  DoStor=T MaxTD1= 7 Len=  274
 NBasis=   510 RedAO= T EigKep=  1.89D-04  NBF=   510
 NBsUse=   510 1.00D-06 EigRej= -1.00D+00 NBFU=   510
 Precomputing XC quadrature grid using
 IXCGrd= 4 IRadAn=           5 IRanWt=          -1 IRanGd=           0 AccXCQ= 0.00D+00.
 Defaulting to unpruned grid for atomic number  45.
 Generated NRdTot=       0 NPtTot=           0 NUsed=           0 NTot=          32
 NSgBfM=   568   567   568   568   568 MxSgAt=    29 MxSgA2=    29.
 Leave Link  302 at Tue Oct  4 18:41:43 2022, MaxMem=  2952790016 cpu:              22.8 elap:               1.9
 (Enter /mnt/data/applications/G16/g16/l303.exe)
 DipDrv:  MaxL=1.
 Leave Link  303 at Tue Oct  4 18:41:43 2022, MaxMem=  2952790016 cpu:               1.3 elap:               0.1
 (Enter /mnt/data/applications/G16/g16/l401.exe)
 Initial guess from the checkpoint file:  "I9c.chk"
 B after Tr=    -0.000000   -0.000000   -0.000000
         Rot=    0.999999   -0.000886   -0.000284   -0.000862 Ang=  -0.15 deg.
 Guess basis will be translated and rotated to current coordinates.
 JPrj=2 DoOrth=T DoCkMO=T.
 Generating alternative initial guess.
 ExpMin= 1.60D-02 ExpMax= 5.24D+04 ExpMxC= 1.79D+03 IAcc=3 IRadAn=         5 AccDes= 0.00D+00
 Harris functional with IExCor= 4639 and IRadAn=       5 diagonalized for initial guess.
 HarFok:  IExCor= 4639 AccDes= 0.00D+00 IRadAn=         5 IDoV= 1 UseB2=F ITyADJ=14
 ICtDFT=  3500011 ScaDFX=  1.000000  1.000000  1.000000  1.000000
 Defaulting to unpruned grid for atomic number  45.
 FoFCou: FMM=F IPFlag=           0 FMFlag=      100000 FMFlg1=           0
         NFxFlg=           0 DoJE=T BraDBF=F KetDBF=T FulRan=T
         wScrn=  0.000000 ICntrl=       500 IOpCl=  0 I1Cent=   200000004 NGrid=           0
         NMat0=    1 NMatS0=      1 NMatT0=    0 NMatD0=    1 NMtDS0=    0 NMtDT0=    0
 Petite list used in FoFCou.
 Harris En= -959.524576922815    
 Leave Link  401 at Tue Oct  4 18:41:53 2022, MaxMem=  2952790016 cpu:             114.6 elap:               9.6
 (Enter /mnt/data/applications/G16/g16/l502.exe)
 Integral symmetry usage will be decided dynamically.
 Closed shell SCF:
 Using DIIS extrapolation, IDIIS=  1040.
 NGot=  2952790016 LenX=  2952121193 LenY=  2951792291
 Requested convergence on RMS density matrix=1.00D-08 within 128 cycles.
 Requested convergence on MAX density matrix=1.00D-06.
 Requested convergence on             energy=1.00D-06.
 No special actions if energy rises.
 Fock matrices will be formed incrementally for  20 cycles.

 Cycle   1  Pass 1  IDiag  1:
 FoFJK:  IHMeth= 1 ICntrl=       0 DoSepK=T KAlg= 0 I1Cent=           0 FoldK=F
 IRaf=         1 NMat=       1 IRICut=       1 DoRegI=T DoRafI=F ISym2E= 0 IDoP0=0 IntGTp=1.
 FoFCou: FMM=F IPFlag=           0 FMFlag=      100000 FMFlg1=           0
         NFxFlg=           0 DoJE=T BraDBF=F KetDBF=F FulRan=T
         wScrn=  0.000000 ICntrl=       500 IOpCl=  0 I1Cent=           0 NGrid=           0
         NMat0=    1 NMatS0=      1 NMatT0=    0 NMatD0=    1 NMtDS0=    0 NMtDT0=    0
 Symmetry not used in FoFCou.
 Defaulting to unpruned grid for atomic number  45.
 Defaulting to unpruned grid for atomic number  45.
 Defaulting to unpruned grid for atomic number  45.
 Defaulting to unpruned grid for atomic number  45.
 Defaulting to unpruned grid for atomic number  45.
 Defaulting to unpruned grid for atomic number  45.
 Defaulting to unpruned grid for atomic number  45.
 Defaulting to unpruned grid for atomic number  45.
 Defaulting to unpruned grid for atomic number  45.
 Defaulting to unpruned grid for atomic number  45.
 Defaulting to unpruned grid for atomic number  45.
 Defaulting to unpruned grid for atomic number  45.
 Inv3:  Mode=1 IEnd=    21322668.
 Iteration    1 A*A^-1 deviation from unit magnitude is 2.22D-15 for    187.
 Iteration    1 A*A^-1 deviation from orthogonality  is 1.37D-15 for   2399   1482.
 Iteration    1 A^-1*A deviation from unit magnitude is 2.22D-15 for    187.
 Iteration    1 A^-1*A deviation from orthogonality  is 1.12D-15 for   1884    858.
 E= -992.236832837709    
 DIIS: error= 3.72D-04 at cycle   1 NSaved=   1.
 NSaved= 1 IEnMin= 1 EnMin= -992.236832837709     IErMin= 1 ErrMin= 3.72D-04
 ErrMax= 3.72D-04  0.00D+00 EMaxC= 1.00D-01 BMatC= 7.93D-05 BMatP= 7.93D-05
 IDIUse=3 WtCom= 9.96D-01 WtEn= 3.72D-03
 Coeff-Com:  0.100D+01
 Coeff-En:   0.100D+01
 Coeff:      0.100D+01
 Gap=     0.757 Goal=   None    Shift=    0.000
 RMSDP=1.57D-05 MaxDP=1.21D-03              OVMax= 2.13D-03

 Cycle   2  Pass 1  IDiag  1:
 RMSU=  1.57D-05    CP:  1.00D+00
 E= -992.236909790418     Delta-E=       -0.000076952709 Rises=F Damp=F
 DIIS: error= 7.11D-05 at cycle   2 NSaved=   2.
 NSaved= 2 IEnMin= 2 EnMin= -992.236909790418     IErMin= 2 ErrMin= 7.11D-05
 ErrMax= 7.11D-05  0.00D+00 EMaxC= 1.00D-01 BMatC= 2.13D-06 BMatP= 7.93D-05
 IDIUse=1 WtCom= 1.00D+00 WtEn= 0.00D+00
 Coeff-Com: -0.107D+00 0.111D+01
 Coeff:     -0.107D+00 0.111D+01
 Gap=     0.289 Goal=   None    Shift=    0.000
 RMSDP=4.09D-06 MaxDP=2.74D-04 DE=-7.70D-05 OVMax= 7.97D-04

 Cycle   3  Pass 1  IDiag  1:
 RMSU=  2.78D-06    CP:  1.00D+00  1.19D+00
 E= -992.236914747118     Delta-E=       -0.000004956701 Rises=F Damp=F
 DIIS: error= 2.06D-05 at cycle   3 NSaved=   3.
 NSaved= 3 IEnMin= 3 EnMin= -992.236914747118     IErMin= 3 ErrMin= 2.06D-05
 ErrMax= 2.06D-05  0.00D+00 EMaxC= 1.00D-01 BMatC= 2.89D-07 BMatP= 2.13D-06
 IDIUse=1 WtCom= 1.00D+00 WtEn= 0.00D+00
 Coeff-Com: -0.268D-01 0.140D+00 0.887D+00
 Coeff:     -0.268D-01 0.140D+00 0.887D+00
 Gap=     0.289 Goal=   None    Shift=    0.000
 RMSDP=1.51D-06 MaxDP=1.22D-04 DE=-4.96D-06 OVMax= 2.17D-04

 Cycle   4  Pass 1  IDiag  1:
 RMSU=  1.28D-06    CP:  1.00D+00  1.23D+00  1.21D+00
 E= -992.236914975028     Delta-E=       -0.000000227910 Rises=F Damp=F
 DIIS: error= 2.29D-05 at cycle   4 NSaved=   4.
 NSaved= 4 IEnMin= 4 EnMin= -992.236914975028     IErMin= 3 ErrMin= 2.06D-05
 ErrMax= 2.29D-05  0.00D+00 EMaxC= 1.00D-01 BMatC= 3.45D-07 BMatP= 2.89D-07
 IDIUse=1 WtCom= 1.00D+00 WtEn= 0.00D+00
 Coeff-Com:  0.268D-02-0.117D+00 0.581D+00 0.534D+00
 Coeff:      0.268D-02-0.117D+00 0.581D+00 0.534D+00
 Gap=     0.289 Goal=   None    Shift=    0.000
 RMSDP=7.81D-07 MaxDP=7.53D-05 DE=-2.28D-07 OVMax= 1.19D-04

 Cycle   5  Pass 1  IDiag  1:
 RMSU=  5.27D-07    CP:  1.00D+00  1.24D+00  1.38D+00  7.66D-01
 E= -992.236915231345     Delta-E=       -0.000000256317 Rises=F Damp=F
 DIIS: error= 7.90D-06 at cycle   5 NSaved=   5.
 NSaved= 5 IEnMin= 5 EnMin= -992.236915231345     IErMin= 5 ErrMin= 7.90D-06
 ErrMax= 7.90D-06  0.00D+00 EMaxC= 1.00D-01 BMatC= 3.43D-08 BMatP= 2.89D-07
 IDIUse=1 WtCom= 1.00D+00 WtEn= 0.00D+00
 Coeff-Com:  0.436D-02-0.827D-01 0.217D+00 0.298D+00 0.564D+00
 Coeff:      0.436D-02-0.827D-01 0.217D+00 0.298D+00 0.564D+00
 Gap=     0.289 Goal=   None    Shift=    0.000
 RMSDP=4.19D-07 MaxDP=5.95D-05 DE=-2.56D-07 OVMax= 5.83D-05

 Cycle   6  Pass 1  IDiag  1:
 RMSU=  3.26D-07    CP:  1.00D+00  1.24D+00  1.42D+00  8.41D-01  6.42D-01
 E= -992.236915254609     Delta-E=       -0.000000023264 Rises=F Damp=F
 DIIS: error= 5.73D-06 at cycle   6 NSaved=   6.
 NSaved= 6 IEnMin= 6 EnMin= -992.236915254609     IErMin= 6 ErrMin= 5.73D-06
 ErrMax= 5.73D-06  0.00D+00 EMaxC= 1.00D-01 BMatC= 1.33D-08 BMatP= 3.43D-08
 IDIUse=1 WtCom= 1.00D+00 WtEn= 0.00D+00
 Coeff-Com:  0.246D-02-0.260D-01-0.189D-01 0.583D-01 0.418D+00 0.566D+00
 Coeff:      0.246D-02-0.260D-01-0.189D-01 0.583D-01 0.418D+00 0.566D+00
 Gap=     0.289 Goal=   None    Shift=    0.000
 RMSDP=2.15D-07 MaxDP=2.80D-05 DE=-2.33D-08 OVMax= 3.89D-05

 Cycle   7  Pass 1  IDiag  1:
 RMSU=  1.08D-07    CP:  1.00D+00  1.24D+00  1.46D+00  8.60D-01  8.83D-01
                    CP:  7.96D-01
 E= -992.236915266885     Delta-E=       -0.000000012276 Rises=F Damp=F
 DIIS: error= 8.31D-07 at cycle   7 NSaved=   7.
 NSaved= 7 IEnMin= 7 EnMin= -992.236915266885     IErMin= 7 ErrMin= 8.31D-07
 ErrMax= 8.31D-07  0.00D+00 EMaxC= 1.00D-01 BMatC= 4.80D-10 BMatP= 1.33D-08
 IDIUse=1 WtCom= 1.00D+00 WtEn= 0.00D+00
 Coeff-Com:  0.529D-04 0.600D-02-0.416D-01-0.275D-01 0.295D-01 0.171D+00
 Coeff-Com:  0.862D+00
 Coeff:      0.529D-04 0.600D-02-0.416D-01-0.275D-01 0.295D-01 0.171D+00
 Coeff:      0.862D+00
 Gap=     0.289 Goal=   None    Shift=    0.000
 RMSDP=9.51D-08 MaxDP=7.83D-06 DE=-1.23D-08 OVMax= 1.72D-05

 Cycle   8  Pass 1  IDiag  1:
 RMSU=  5.34D-08    CP:  1.00D+00  1.24D+00  1.48D+00  9.02D-01  9.41D-01
                    CP:  8.94D-01  1.03D+00
 E= -992.236915267832     Delta-E=       -0.000000000947 Rises=F Damp=F
 DIIS: error= 2.28D-07 at cycle   8 NSaved=   8.
 NSaved= 8 IEnMin= 8 EnMin= -992.236915267832     IErMin= 8 ErrMin= 2.28D-07
 ErrMax= 2.28D-07  0.00D+00 EMaxC= 1.00D-01 BMatC= 5.64D-11 BMatP= 4.80D-10
 IDIUse=1 WtCom= 1.00D+00 WtEn= 0.00D+00
 Coeff-Com: -0.252D-03 0.524D-02-0.130D-01-0.158D-01-0.363D-01 0.631D-02
 Coeff-Com:  0.283D+00 0.771D+00
 Coeff:     -0.252D-03 0.524D-02-0.130D-01-0.158D-01-0.363D-01 0.631D-02
 Coeff:      0.283D+00 0.771D+00
 Gap=     0.289 Goal=   None    Shift=    0.000
 RMSDP=3.51D-08 MaxDP=2.54D-06 DE=-9.47D-10 OVMax= 6.89D-06

 Cycle   9  Pass 1  IDiag  1:
 RMSU=  1.41D-08    CP:  1.00D+00  1.24D+00  1.48D+00  9.04D-01  9.54D-01
                    CP:  9.49D-01  1.23D+00  1.14D+00
 E= -992.236915267984     Delta-E=       -0.000000000151 Rises=F Damp=F
 DIIS: error= 8.67D-08 at cycle   9 NSaved=   9.
 NSaved= 9 IEnMin= 9 EnMin= -992.236915267984     IErMin= 9 ErrMin= 8.67D-08
 ErrMax= 8.67D-08  0.00D+00 EMaxC= 1.00D-01 BMatC= 6.03D-12 BMatP= 5.64D-11
 IDIUse=1 WtCom= 1.00D+00 WtEn= 0.00D+00
 Coeff-Com:  0.221D-04-0.165D-02 0.794D-02 0.666D-02-0.136D-03-0.232D-01
 Coeff-Com: -0.183D+00-0.119D+00 0.131D+01
 Coeff:      0.221D-04-0.165D-02 0.794D-02 0.666D-02-0.136D-03-0.232D-01
 Coeff:     -0.183D+00-0.119D+00 0.131D+01
 Gap=     0.289 Goal=   None    Shift=    0.000
 RMSDP=2.64D-08 MaxDP=2.35D-06 DE=-1.51D-10 OVMax= 5.82D-06

 Cycle  10  Pass 1  IDiag  1:
 RMSU=  6.30D-09    CP:  1.00D+00  1.24D+00  1.48D+00  9.08D-01  9.67D-01
                    CP:  9.81D-01  1.34D+00  1.43D+00  1.59D+00
 E= -992.236915268009     Delta-E=       -0.000000000025 Rises=F Damp=F
 DIIS: error= 2.78D-08 at cycle  10 NSaved=  10.
 NSaved=10 IEnMin=10 EnMin= -992.236915268009     IErMin=10 ErrMin= 2.78D-08
 ErrMax= 2.78D-08  0.00D+00 EMaxC= 1.00D-01 BMatC= 8.63D-13 BMatP= 6.03D-12
 IDIUse=1 WtCom= 1.00D+00 WtEn= 0.00D+00
 Coeff-Com:  0.344D-04-0.104D-02 0.352D-02 0.360D-02 0.358D-02-0.626D-02
 Coeff-Com: -0.788D-01-0.116D+00 0.344D+00 0.847D+00
 Coeff:      0.344D-04-0.104D-02 0.352D-02 0.360D-02 0.358D-02-0.626D-02
 Coeff:     -0.788D-01-0.116D+00 0.344D+00 0.847D+00
 Gap=     0.289 Goal=   None    Shift=    0.000
 RMSDP=6.42D-09 MaxDP=5.98D-07 DE=-2.50D-11 OVMax= 1.49D-06

 Error on total polarization charges =  0.03355
 SCF Done:  E(RwB97XD) =  -992.236915268     A.U. after   10 cycles
            NFock= 10  Conv=0.64D-08     -V/T= 2.0796
 KE= 9.190804859599D+02 PE=-4.448299898233D+03 EE= 1.466684383956D+03
 SMD-CDS (non-electrostatic) energy       (kcal/mol) =       0.50
 (included in total energy above)
 Leave Link  502 at Tue Oct  4 18:52:22 2022, MaxMem=  2952790016 cpu:            7477.5 elap:             628.5
 (Enter /mnt/data/applications/G16/g16/l701.exe)
 ... and contract with generalized density number  0.
 Compute integral first derivatives.
 R6Disp: Adding Grimme-D2 dispersion energy 1st derivatives to the gradient.
   1 Symmetry operations used in ECPInt.
 ECPInt:  NShTT=   22578 NPrTT=   66767 LenC2=   20832 LenP2D=   45554.
 LDataN:  DoStor=T MaxTD1= 8 Len=  415
 D1PCM: PCM CHGder 1st derivatives, ID1Alg=3 FixD1E=F DoIter=F DoCFld=F I1PDM=0.
 GePol: Maximum number of non-zero 1st derivatives   =     420
 Leave Link  701 at Tue Oct  4 18:52:34 2022, MaxMem=  2952790016 cpu:             143.1 elap:              12.0
 (Enter /mnt/data/applications/G16/g16/l702.exe)
 L702 exits ... SP integral derivatives will be done elsewhere.
 Leave Link  702 at Tue Oct  4 18:52:34 2022, MaxMem=  2952790016 cpu:               0.2 elap:               0.0
 (Enter /mnt/data/applications/G16/g16/l703.exe)
 Integral derivatives from FoFJK, PRISM(SPDF).
 Compute integral first derivatives, UseDBF=F ICtDFT=           0.
 Calling FoFJK, ICntrl=      2127 FMM=F ISym2X=0 I1Cent= 0 IOpClX= 0 NMat=1 NMatS=1 NMatT=0.
 FoFJK:  IHMeth= 1 ICntrl=    2127 DoSepK=T KAlg= 0 I1Cent=           0 FoldK=F
 IRaf=         1 NMat=       1 IRICut=       1 DoRegI=T DoRafI=F ISym2E= 0 IDoP0=0 IntGTp=1.
 FoFCou: FMM=F IPFlag=           0 FMFlag=      100000 FMFlg1=         800
         NFxFlg=           0 DoJE=F BraDBF=F KetDBF=F FulRan=T
         wScrn=  0.000000 ICntrl=      2527 IOpCl=  0 I1Cent=           0 NGrid=           0
         NMat0=    1 NMatS0=      1 NMatT0=    0 NMatD0=    1 NMtDS0=    0 NMtDT0=    0
 Symmetry not used in FoFCou.
 Defaulting to unpruned grid for atomic number  45.
 Defaulting to unpruned grid for atomic number  45.
 Defaulting to unpruned grid for atomic number  45.
 Defaulting to unpruned grid for atomic number  45.
 Defaulting to unpruned grid for atomic number  45.
 Defaulting to unpruned grid for atomic number  45.
 Defaulting to unpruned grid for atomic number  45.
 Defaulting to unpruned grid for atomic number  45.
 Defaulting to unpruned grid for atomic number  45.
 Defaulting to unpruned grid for atomic number  45.
 Defaulting to unpruned grid for atomic number  45.
 Defaulting to unpruned grid for atomic number  45.
 Leave Link  703 at Tue Oct  4 18:56:35 2022, MaxMem=  2952790016 cpu:            2886.2 elap:             241.2
 (Enter /mnt/data/applications/G16/g16/l716.exe)
 Dipole        = 7.48475927D-01-1.50882268D+00-5.57512785D-01
 ***** Axes restored to original set *****
 -------------------------------------------------------------------
 Center     Atomic                   Forces (Hartrees/Bohr)
 Number     Number              X              Y              Z
 -------------------------------------------------------------------
      1       45          -0.000138077    0.000226822   -0.000231141
      2       15           0.000034627    0.000266465   -0.000003850
      3        6           0.000013608   -0.000045336   -0.000000239
      4        6           0.000005860   -0.000016096    0.000002481
      5        6          -0.000006128   -0.000016054    0.000001323
      6        1           0.000004500    0.000008400    0.000001315
      7        1           0.000008442    0.000011935   -0.000003458
      8        1           0.000008011    0.000013037    0.000000575
      9        1           0.000018224   -0.000001136    0.000005991
     10        1           0.000006759   -0.000003089   -0.000031904
     11        1           0.000010264    0.000004464   -0.000008144
     12        1          -0.000002702   -0.000014906   -0.000000429
     13        1          -0.000002077   -0.000000441   -0.000006240
     14        6           0.000021956   -0.000207826    0.000143619
     15        8          -0.000047670   -0.000050025   -0.000049656
     16        6           0.000072152   -0.000167656    0.000159432
     17        8          -0.000000330    0.000066744    0.000068169
     18        1           0.000000372   -0.000005578    0.000003973
     19        1          -0.000012655    0.000007424   -0.000032929
     20        8          -0.000038776    0.000006405   -0.000013992
     21        6           0.000025854   -0.000008880    0.000005756
     22        1           0.000000888   -0.000008595   -0.000006369
     23        6          -0.000026993    0.000008381   -0.000002143
     24        1           0.000067008   -0.000014654    0.000002981
     25        1          -0.000003909   -0.000002824    0.000002591
     26        6           0.000003744   -0.000011903   -0.000006386
     27        1          -0.000008413   -0.000015150   -0.000001241
     28        1          -0.000002195   -0.000013166   -0.000002723
     29        1          -0.000012342   -0.000016762    0.000002637
 -------------------------------------------------------------------
 Cartesian Forces:  Max     0.000266465 RMS     0.000063561
 Leave Link  716 at Tue Oct  4 18:56:35 2022, MaxMem=  2952790016 cpu:               0.3 elap:               0.0
 (Enter /mnt/data/applications/G16/g16/l103.exe)

 GradGradGradGradGradGradGradGradGradGradGradGradGradGradGradGradGradGrad
 Berny optimization.
 Using GEDIIS/GDIIS optimizer.
 FormGI is forming the generalized inverse of G from B-inverse, IUseBI=4.
 Internal  Forces:  Max     0.000247411 RMS     0.000032981
 Search for a local minimum.
 Step number   3 out of a maximum of  174
 All quantities printed in internal units (Hartrees-Bohrs-Radians)
 RMS Force = .32981D-04 SwitMx=.10000D-02 MixMth= 2
 Mixed Optimization -- En-DIIS/RFO-DIIS
 Swapping is turned off.
 Update second derivatives using D2CorX and points    1    2    3
 DE=  1.05D-06 DEPred=-3.55D-06 R=-2.95D-01
 Trust test=-2.95D-01 RLast= 1.24D-02 DXMaxT set to 5.00D-02
 ITU= -1  1  0
     Eigenvalues ---    0.00390   0.00406   0.00495   0.00829   0.00941
     Eigenvalues ---    0.01076   0.01410   0.01703   0.02096   0.02258
     Eigenvalues ---    0.02395   0.02578   0.02829   0.03063   0.03351
     Eigenvalues ---    0.03655   0.03868   0.04048   0.04156   0.04482
     Eigenvalues ---    0.04704   0.04807   0.05153   0.05161   0.05224
     Eigenvalues ---    0.05712   0.05774   0.05989   0.06045   0.06219
     Eigenvalues ---    0.06399   0.06444   0.06736   0.07490   0.07730
     Eigenvalues ---    0.07738   0.08084   0.08746   0.09191   0.09472
     Eigenvalues ---    0.09837   0.10833   0.11029   0.11290   0.11365
     Eigenvalues ---    0.11761   0.12278   0.13607   0.14296   0.14954
     Eigenvalues ---    0.15112   0.15995   0.15998   0.16001   0.16001
     Eigenvalues ---    0.18328   0.22306   0.23521   0.24235   0.24842
     Eigenvalues ---    0.26917   0.27415   0.27888   0.29150   0.30674
     Eigenvalues ---    0.31904   0.32513   0.33753   0.34226   0.34527
     Eigenvalues ---    0.34565   0.34569   0.34595   0.34682   0.34737
     Eigenvalues ---    0.34813   0.34819   0.34820   0.88321   1.42239
     Eigenvalues ---    1.43420
 En-DIIS/RFO-DIIS/Sim-DIIS IScMMF=       -3 using points:     3    2    1
 RFO step:  Lambda=-1.35077100D-06.
 NNeg= 0 NGDIIS= 3 SimSw=  2.50D-03 Rises=T DC=  1.05D-06 SmlDif=  1.00D-05
 NRisDI= 1 DoIntr=F SqrtH=F CThrHd= 10.0 CDAdj=  3.0
 RMS Error=  0.3511490818D-03 NUsed= 3 OKEnD=T EnDIS=T
 InvSVX:  RCond= 8.47D-06 Info=           0 Equed=N FErr=  3.96D-15 BErr=  2.63D-17
 EnCoef did     2 forward-backward iterations
 IWarn =    0
 DidBck=T Rises=T En-DIIS coefs:    0.50565    0.11555    0.37880
 Iteration  1 RMS(Cart)=  0.00081777 RMS(Int)=  0.00000036
 Iteration  2 RMS(Cart)=  0.00000050 RMS(Int)=  0.00000018
 ITry= 1 IFail=0 DXMaxC= 4.37D-03 DCOld= 1.00D+10 DXMaxT= 5.00D-02 DXLimC= 3.00D+00 Rises=F
 Variable       Old X    -DE/DX   Delta X   Delta X   Delta X     New X
                                 (Linear)    (Quad)   (Total)
    R1        4.42628  -0.00013   0.00137  -0.00295  -0.00158   4.42469
    R2        3.56300  -0.00025  -0.00291   0.00242  -0.00049   3.56250
    R3        3.60447  -0.00023  -0.00296   0.00249  -0.00046   3.60400
    R4        3.09428  -0.00004   0.00137  -0.00211  -0.00074   3.09354
    R5        4.92073  -0.00006   0.00186  -0.00473  -0.00287   4.91786
    R6        3.43325   0.00004   0.00005   0.00021   0.00026   3.43350
    R7        3.43257   0.00002   0.00005   0.00002   0.00007   3.43264
    R8        3.43299   0.00001   0.00008  -0.00009  -0.00001   3.43298
    R9        2.06194  -0.00000   0.00001  -0.00002  -0.00001   2.06193
   R10        2.06065   0.00000  -0.00000  -0.00001  -0.00001   2.06064
   R11        2.06353   0.00001  -0.00001   0.00005   0.00003   2.06356
   R12        2.05971  -0.00001  -0.00001   0.00001  -0.00000   2.05971
   R13        2.05967  -0.00000   0.00000  -0.00001  -0.00001   2.05967
   R14        2.06391  -0.00000  -0.00002   0.00002  -0.00000   2.06391
   R15        2.06100   0.00000   0.00002  -0.00002  -0.00000   2.06099
   R16        2.06387  -0.00001  -0.00002   0.00001  -0.00001   2.06386
   R17        2.05970  -0.00000   0.00000  -0.00001  -0.00001   2.05970
   R18        5.11908   0.00002  -0.00043   0.00116   0.00073   5.11981
   R19        4.92046   0.00000  -0.00008   0.00027   0.00019   4.92065
   R20        5.10499  -0.00003   0.00031  -0.00080  -0.00049   5.10449
   R21        5.14162   0.00000  -0.00002   0.00018   0.00016   5.14179
   R22        2.14978  -0.00007   0.00013  -0.00022  -0.00009   2.14969
   R23        2.15077  -0.00006   0.00017  -0.00027  -0.00009   2.15068
   R24        2.27642  -0.00001  -0.00003   0.00002  -0.00002   2.27641
   R25        2.09909   0.00000   0.00003  -0.00003  -0.00001   2.09908
   R26        2.82633   0.00000   0.00006  -0.00009  -0.00004   2.82630
   R27        2.06737   0.00001  -0.00002   0.00008   0.00006   2.06743
   R28        2.06954   0.00000  -0.00002   0.00003   0.00001   2.06956
   R29        2.88812  -0.00000   0.00002  -0.00003  -0.00001   2.88812
   R30        2.05984  -0.00000  -0.00002   0.00002   0.00000   2.05984
   R31        2.06451  -0.00000  -0.00000  -0.00001  -0.00001   2.06450
   R32        2.06302   0.00001   0.00001  -0.00001   0.00000   2.06302
    A1        1.67725  -0.00004  -0.00051   0.00039  -0.00012   1.67713
    A2        1.40983  -0.00000   0.00203  -0.00286  -0.00083   1.40900
    A3        1.51411   0.00002  -0.00044   0.00085   0.00041   1.51452
    A4        1.71440   0.00009  -0.00259   0.00413   0.00154   1.71594
    A5        1.48186  -0.00005   0.00107  -0.00170  -0.00063   1.48123
    A6        1.68411  -0.00004  -0.00078   0.00047  -0.00031   1.68381
    A7        1.54662   0.00002  -0.00030   0.00105   0.00075   1.54737
    A8        1.58747  -0.00001   0.00023  -0.00037  -0.00014   1.58733
    A9        2.05506   0.00001   0.00044  -0.00026   0.00018   2.05525
   A10        1.98734   0.00000  -0.00007   0.00005  -0.00002   1.98731
   A11        1.98265   0.00002  -0.00051   0.00090   0.00039   1.98304
   A12        1.79693  -0.00001   0.00010  -0.00033  -0.00024   1.79670
   A13        1.80193  -0.00001   0.00002  -0.00026  -0.00023   1.80170
   A14        1.81150  -0.00001   0.00003  -0.00021  -0.00018   1.81132
   A15        1.91084  -0.00000  -0.00010   0.00007  -0.00003   1.91081
   A16        1.90207  -0.00002  -0.00003  -0.00003  -0.00006   1.90201
   A17        1.94204   0.00003   0.00021   0.00008   0.00029   1.94233
   A18        1.89708   0.00001  -0.00006   0.00005  -0.00001   1.89707
   A19        1.90439  -0.00001   0.00000  -0.00007  -0.00007   1.90433
   A20        1.90688  -0.00001  -0.00002  -0.00010  -0.00012   1.90676
   A21        1.89755  -0.00000  -0.00004   0.00001  -0.00004   1.89751
   A22        1.91251  -0.00000  -0.00007   0.00015   0.00009   1.91260
   A23        1.93403   0.00001   0.00011  -0.00005   0.00007   1.93409
   A24        1.90446  -0.00000   0.00000  -0.00002  -0.00002   1.90444
   A25        1.90277  -0.00000   0.00003  -0.00008  -0.00005   1.90272
   A26        1.91221  -0.00000  -0.00004  -0.00001  -0.00005   1.91216
   A27        1.91054   0.00000  -0.00006   0.00008   0.00002   1.91056
   A28        1.93679  -0.00000   0.00018  -0.00026  -0.00007   1.93671
   A29        1.90630   0.00001  -0.00010   0.00020   0.00010   1.90640
   A30        1.90687  -0.00000  -0.00003  -0.00000  -0.00003   1.90684
   A31        1.88867   0.00000   0.00002   0.00002   0.00004   1.88872
   A32        1.91402  -0.00001  -0.00001  -0.00003  -0.00005   1.91397
   A33        2.46069   0.00001   0.00002  -0.00003  -0.00001   2.46068
   A34        2.52629   0.00000  -0.00003   0.00010   0.00007   2.52635
   A35        1.90564  -0.00001  -0.00000  -0.00004  -0.00004   1.90559
   A36        2.12289  -0.00001   0.00003  -0.00003  -0.00001   2.12288
   A37        1.00736   0.00000   0.00008  -0.00007   0.00001   1.00737
   A38        1.39837   0.00000   0.00002  -0.00008  -0.00006   1.39832
   A39        0.96875   0.00000  -0.00007   0.00012   0.00005   0.96880
   A40        1.12995  -0.00000   0.00011  -0.00026  -0.00015   1.12980
   A41        2.67920  -0.00001   0.00009  -0.00041  -0.00032   2.67888
   A42        1.72756  -0.00001  -0.00002  -0.00002  -0.00004   1.72752
   A43        2.08723  -0.00001  -0.00004   0.00004   0.00001   2.08724
   A44        2.18874   0.00001   0.00015  -0.00021  -0.00006   2.18868
   A45        2.00704  -0.00000  -0.00011   0.00017   0.00005   2.00710
   A46        1.91082  -0.00001   0.00009  -0.00007   0.00002   1.91084
   A47        1.87335   0.00000   0.00003   0.00001   0.00004   1.87339
   A48        1.93518   0.00000  -0.00012   0.00019   0.00006   1.93524
   A49        1.88621   0.00000   0.00003  -0.00006  -0.00003   1.88618
   A50        1.94659  -0.00000  -0.00007  -0.00001  -0.00008   1.94651
   A51        1.90958   0.00000   0.00004  -0.00005  -0.00001   1.90957
   A52        1.53273  -0.00001   0.00004   0.00012   0.00015   1.53288
   A53        2.81242   0.00001   0.00001   0.00007   0.00008   2.81251
   A54        1.79228   0.00001  -0.00006   0.00019   0.00013   1.79242
   A55        1.92207  -0.00000   0.00005  -0.00007  -0.00002   1.92205
   A56        1.94722  -0.00000  -0.00002   0.00002   0.00000   1.94722
   A57        1.93769   0.00000   0.00002  -0.00001   0.00002   1.93771
   A58        1.88357  -0.00000  -0.00001  -0.00001  -0.00002   1.88355
   A59        1.88424  -0.00000   0.00001  -0.00002  -0.00001   1.88423
   A60        1.88695  -0.00000  -0.00005   0.00008   0.00003   1.88698
   A61        2.08303  -0.00001   0.00006  -0.00020  -0.00014   2.08289
   A62        3.39165   0.00005  -0.00310   0.00452   0.00142   3.39307
   A63        3.08708  -0.00004   0.00152  -0.00247  -0.00095   3.08613
   A64        3.16216  -0.00007  -0.00127   0.00071  -0.00056   3.16160
   A65        3.14437   0.00013   0.00163   0.00020   0.00183   3.14620
   A66        3.19299  -0.00001  -0.00126   0.00155   0.00029   3.19328
   A67        3.14588  -0.00002   0.00014  -0.00078  -0.00065   3.14523
   A68        3.10652   0.00010   0.00176  -0.00112   0.00064   3.10715
   A69        3.13815  -0.00002  -0.00009  -0.00012  -0.00021   3.13793
    D1        0.09018  -0.00003   0.00015  -0.00110  -0.00096   0.08922
    D2       -2.01554  -0.00002  -0.00029  -0.00046  -0.00076  -2.01629
    D3        2.19878  -0.00002   0.00010  -0.00089  -0.00079   2.19799
    D4       -3.05571  -0.00001   0.00001  -0.00032  -0.00031  -3.05601
    D5        1.12176  -0.00000  -0.00043   0.00032  -0.00011   1.12166
    D6       -0.94710  -0.00000  -0.00004  -0.00010  -0.00014  -0.94724
    D7        1.63055   0.00000  -0.00017   0.00002  -0.00015   1.63040
    D8       -0.47517   0.00000  -0.00061   0.00066   0.00005  -0.47511
    D9       -2.54403   0.00001  -0.00021   0.00024   0.00002  -2.54401
   D10        0.05436  -0.00000   0.00037  -0.00033   0.00005   0.05441
   D11       -2.12120  -0.00000   0.00043  -0.00159  -0.00116  -2.12236
   D12       -2.83739   0.00005  -0.00274   0.00425   0.00151  -2.83589
   D13        1.27022   0.00005  -0.00268   0.00298   0.00030   1.27053
   D14        1.73320  -0.00005  -0.00011  -0.00003  -0.00013   1.73307
   D15       -0.44237  -0.00005  -0.00005  -0.00129  -0.00134  -0.44370
   D16       -1.35422  -0.00000  -0.00164   0.00249   0.00086  -1.35336
   D17        2.75340  -0.00000  -0.00158   0.00123  -0.00035   2.75305
   D18        1.03479   0.00000  -0.00036   0.00043   0.00007   1.03486
   D19       -1.03807   0.00001  -0.00020   0.00034   0.00014  -1.03792
   D20        3.14129   0.00001  -0.00028   0.00044   0.00015   3.14144
   D21       -3.04637   0.00000  -0.00007   0.00004  -0.00003  -3.04640
   D22        1.16396   0.00001   0.00008  -0.00004   0.00004   1.16400
   D23       -0.93987   0.00001   0.00000   0.00005   0.00005  -0.93982
   D24       -1.16517  -0.00002  -0.00000  -0.00037  -0.00037  -1.16555
   D25        3.04516  -0.00001   0.00015  -0.00046  -0.00030   3.04486
   D26        0.94133  -0.00001   0.00007  -0.00036  -0.00029   0.94104
   D27        1.14968  -0.00001   0.00075  -0.00119  -0.00044   1.14924
   D28       -0.93041  -0.00000   0.00081  -0.00126  -0.00045  -0.93086
   D29       -3.04263  -0.00000   0.00083  -0.00131  -0.00049  -3.04312
   D30       -1.09520  -0.00001   0.00016  -0.00064  -0.00048  -1.09568
   D31        3.10790  -0.00001   0.00022  -0.00071  -0.00049   3.10741
   D32        0.99568  -0.00001   0.00024  -0.00076  -0.00053   0.99515
   D33       -2.96913   0.00001   0.00009  -0.00019  -0.00010  -2.96923
   D34        1.23397   0.00001   0.00015  -0.00026  -0.00011   1.23386
   D35       -0.87825   0.00001   0.00017  -0.00031  -0.00014  -0.87840
   D36       -1.01582  -0.00001  -0.00035   0.00045   0.00010  -1.01573
   D37       -3.12186  -0.00000  -0.00039   0.00056   0.00017  -3.12169
   D38        1.04917  -0.00000  -0.00043   0.00064   0.00021   1.04938
   D39        1.22975   0.00001  -0.00010   0.00051   0.00041   1.23016
   D40       -0.87629   0.00001  -0.00014   0.00063   0.00048  -0.87580
   D41       -2.98845   0.00002  -0.00018   0.00071   0.00053  -2.98792
   D42        3.09994  -0.00001   0.00002   0.00000   0.00002   3.09996
   D43        0.99391  -0.00001  -0.00002   0.00012   0.00009   0.99400
   D44       -1.11826  -0.00000  -0.00006   0.00019   0.00014  -1.11812
   D45       -0.22457  -0.00001  -0.00025   0.00057   0.00032  -0.22425
   D46       -2.30601   0.00000  -0.00007   0.00048   0.00041  -2.30561
   D47        1.90073   0.00001  -0.00002   0.00059   0.00056   1.90129
   D48        0.02252   0.00001  -0.00015   0.00064   0.00049   0.02301
   D49       -1.03909   0.00001  -0.00030   0.00086   0.00056  -1.03853
   D50       -2.09787   0.00001  -0.00021   0.00073   0.00053  -2.09735
   D51        2.10764   0.00000  -0.00025   0.00081   0.00056   2.10820
   D52        1.04603   0.00001  -0.00040   0.00103   0.00063   1.04666
   D53       -0.01275   0.00001  -0.00031   0.00091   0.00060  -0.01216
   D54       -2.08770  -0.00000  -0.00028   0.00074   0.00046  -2.08723
   D55        3.13388   0.00000  -0.00043   0.00096   0.00053   3.13441
   D56        2.07509   0.00000  -0.00034   0.00084   0.00050   2.07559
   D57       -0.49495   0.00000   0.00025  -0.00062  -0.00037  -0.49531
   D58        0.48193   0.00000   0.00032  -0.00060  -0.00028   0.48164
   D59        0.64589   0.00000   0.00003  -0.00020  -0.00017   0.64572
   D60       -2.11207   0.00001  -0.00003   0.00014   0.00011  -2.11196
   D61        1.99454  -0.00001   0.00018  -0.00049  -0.00031   1.99423
   D62       -0.76343   0.00000   0.00012  -0.00015  -0.00003  -0.76345
   D63        2.95891  -0.00000   0.00009  -0.00030  -0.00021   2.95870
   D64        0.20094   0.00001   0.00004   0.00004   0.00007   0.20102
   D65        0.61797   0.00000  -0.00023  -0.00000  -0.00023   0.61774
   D66       -2.79970   0.00001  -0.00023   0.00029   0.00006  -2.79963
   D67       -1.88495  -0.00001  -0.00017  -0.00017  -0.00034  -1.88529
   D68        0.98057  -0.00000  -0.00017   0.00013  -0.00005   0.98053
   D69        2.63845  -0.00000  -0.00020  -0.00002  -0.00021   2.63824
   D70       -0.77921   0.00000  -0.00020   0.00028   0.00008  -0.77913
   D71        1.88760  -0.00000   0.00026  -0.00061  -0.00035   1.88725
   D72       -0.73084  -0.00000   0.00026  -0.00065  -0.00039  -0.73122
   D73        0.27176  -0.00000   0.00033  -0.00065  -0.00032   0.27144
   D74        3.08336  -0.00000  -0.00004   0.00002  -0.00002   3.08334
   D75       -0.07889   0.00000  -0.00011   0.00012   0.00001  -0.07889
   D76       -2.33832  -0.00000   0.00007  -0.00012  -0.00004  -2.33837
   D77        0.78261  -0.00000  -0.00001  -0.00001  -0.00002   0.78259
   D78        0.12583  -0.00001  -0.00006  -0.00009  -0.00015   0.12568
   D79        2.16915  -0.00000   0.00005  -0.00020  -0.00015   2.16900
   D80       -2.02923  -0.00000   0.00005  -0.00015  -0.00010  -2.02934
   D81       -3.03559  -0.00000  -0.00013   0.00001  -0.00013  -3.03571
   D82       -0.99227  -0.00000  -0.00003  -0.00010  -0.00013  -0.99240
   D83        1.09253   0.00000  -0.00003  -0.00005  -0.00008   1.09246
   D84        1.21959  -0.00000   0.00015   0.00111   0.00125   1.22085
   D85       -0.91987   0.00000   0.00019  -0.00019   0.00001  -0.91986
   D86       -0.81561  -0.00000   0.00004   0.00117   0.00121  -0.81440
   D87       -2.95508  -0.00000   0.00009  -0.00013  -0.00004  -2.95511
   D88       -2.91527  -0.00000   0.00001   0.00128   0.00129  -2.91398
   D89        1.22845  -0.00000   0.00006  -0.00001   0.00004   1.22849
   D90       -3.08162  -0.00000   0.00026  -0.00051  -0.00025  -3.08187
   D91       -0.99041  -0.00001   0.00026  -0.00055  -0.00028  -0.99070
   D92        1.11564  -0.00000   0.00020  -0.00043  -0.00024   1.11541
   D93        1.06719   0.00000   0.00028  -0.00053  -0.00026   1.06693
   D94       -3.12478   0.00000   0.00028  -0.00058  -0.00029  -3.12507
   D95       -1.01873   0.00000   0.00022  -0.00046  -0.00024  -1.01897
   D96       -1.01869   0.00000   0.00025  -0.00041  -0.00016  -1.01885
   D97        1.07252  -0.00000   0.00026  -0.00045  -0.00020   1.07233
   D98       -3.10461   0.00000   0.00019  -0.00034  -0.00015  -3.10476
   D99        0.13152   0.00000  -0.00039   0.00083   0.00045   0.13197
   D100      -1.97687   0.00000  -0.00047   0.00094   0.00047  -1.97640
   D101       2.27282   0.00000  -0.00044   0.00091   0.00048   2.27330
         Item               Value     Threshold  Converged?
 Maximum Force            0.000247     0.000450     YES
 RMS     Force            0.000033     0.000300     YES
 Maximum Displacement     0.004369     0.001800     NO 
 RMS     Displacement     0.000818     0.001200     YES
 Predicted change in Energy=-6.135906D-07
 GradGradGradGradGradGradGradGradGradGradGradGradGradGradGradGradGradGrad

 Leave Link  103 at Tue Oct  4 18:56:35 2022, MaxMem=  2952790016 cpu:               0.6 elap:               0.1
 (Enter /mnt/data/applications/G16/g16/l202.exe)
                          Input orientation:                          
 ---------------------------------------------------------------------
 Center     Atomic      Atomic             Coordinates (Angstroms)
 Number     Number       Type             X           Y           Z
 ---------------------------------------------------------------------
      1         45           0        0.843434    0.736589    0.154996
      2         15           0        0.904622   -1.600884    0.276839
      3          6           0        0.809738   -2.532161   -1.280389
      4          6           0       -0.439591   -2.320771    1.263977
      5          6           0        2.410783   -2.249828    1.058241
      6          1           0        3.284983   -1.904295    0.505197
      7          1           0        2.403278   -3.341832    1.074319
      8          1           0        1.642570   -2.248118   -1.925575
      9          1           0       -0.124196   -2.284011   -1.785623
     10          1           0        0.847197   -3.608731   -1.101404
     11          1           0       -1.386339   -2.126643    0.760017
     12          1           0       -0.458141   -1.856202    2.249764
     13          1           0       -0.307887   -3.399714    1.370671
     14          6           0        0.966491    2.584648    0.506415
     15          8           0        1.060826    3.690473    0.756033
     16          6           0        0.532237    0.833253   -1.724115
     17          8           0        0.342242    0.895918   -2.844481
     18          1           0        2.479502   -1.868513    2.076993
     19          1           0        1.105144    0.563028    1.761625
     20          8           0       -2.498534   -1.058271   -1.338049
     21          6           0       -3.212516   -0.260085   -0.786465
     22          1           0       -4.272729   -0.161954   -1.102950
     23          6           0       -2.805085    0.631252    0.343303
     24          1           0       -1.727402    0.541120    0.508819
     25          1           0       -3.016999    1.661669    0.038815
     26          6           0       -3.596257    0.302722    1.608961
     27          1           0       -3.333658    0.997860    2.406436
     28          1           0       -4.673068    0.376369    1.439896
     29          1           0       -3.375692   -0.708112    1.957364
 ---------------------------------------------------------------------
                    Distance matrix (angstroms):
                    1          2          3          4          5
     1  Rh   0.000000
     2  P    2.341446   0.000000
     3  C    3.570181   1.816931   0.000000
     4  C    3.496204   1.816477   2.842412   0.000000
     5  C    3.491578   1.816656   2.848201   2.858670   0.000000
     6  H    3.613594   2.410461   3.115986   3.823827   1.090631
     7  H    4.462262   2.431634   2.956279   3.026622   1.092149
     8  H    3.725033   2.411246   1.091126   3.809713   3.081122
     9  H    3.718378   2.403930   1.090446   3.066086   3.809837
    10  H    4.523313   2.436042   1.091990   2.984910   2.992572
    11  H    3.679135   2.399664   3.024972   1.089951   3.810807
    12  H    3.578367   2.411378   3.811354   1.089929   3.131357
    13  H    4.462332   2.429493   3.004971   1.092175   2.968336
    14  C    1.885195   4.192280   5.422082   5.158886   5.075692
    15  O    3.022240   5.315307   6.552193   6.216456   6.099253
    16  C    1.907157   3.172935   3.405864   4.452080   4.558051
    17  O    3.045233   4.036451   3.796928   5.276152   5.422714
    18  H    3.627305   2.406746   3.807959   3.063762   1.089944
    19  H    1.637031   2.631979   4.349863   3.309102   3.179874
    20  O    4.076697   3.805754   3.622201   3.550168   5.591370
    21  C    4.281407   4.458608   4.645946   4.017444   6.243678
    22  H    5.344617   5.547910   5.610778   4.995576   7.327981
    23  C    3.654893   4.329986   5.070552   3.893281   6.001420
    24  H    2.602422   3.401404   4.368455   3.227869   5.021537
    25  H    3.971425   5.106860   5.828586   4.899376   6.767559
    26  C    4.691814   5.065193   5.983118   4.119014   6.550064
    27  H    4.752404   5.408482   6.574302   4.549082   6.735259
    28  H    5.675607   6.030991   6.776478   5.022732   7.564623
    29  H    4.810064   4.684261   5.597144   3.420840   6.055461
                    6          7          8          9         10
     6  H    0.000000
     7  H    1.779837   0.000000
     8  H    2.953707   3.282416   0.000000
     9  H    4.124869   3.960604   1.772664   0.000000
    10  H    3.380691   2.688196   1.778523   1.779506   0.000000
    11  H    4.683548   3.992076   4.049870   2.845708   3.263458
    12  H    4.129988   3.431689   4.690420   4.071719   4.000699
    13  H    3.986733   2.727928   3.999462   3.352720   2.736615
    14  C    5.052327   6.124544   5.452273   5.490617   6.399786
    15  O    6.025879   7.166366   6.541889   6.599905   7.534858
    16  C    4.476785   5.363149   3.281505   3.186224   4.496464
    17  O    5.265098   6.128898   3.524231   3.383887   4.856455
    18  H    1.766529   1.783770   4.106715   4.676717   3.974291
    19  H    3.523917   4.171987   4.667634   4.711674   5.066265
    20  O    6.128815   5.921312   4.348524   2.709288   4.213640
    21  C    6.825636   6.670595   5.368585   3.825221   5.271991
    22  H    7.920915   7.708514   6.326101   4.709510   6.172026
    23  C    6.598797   6.591421   5.763698   4.496470   5.779601
    24  H    5.577102   5.697335   5.006279   3.976946   5.142240
    25  H    7.255934   7.448939   6.391936   5.221616   6.633945
    26  C    7.310313   7.040103   6.815060   5.501781   6.510747
    27  H    7.472859   7.315730   7.352927   6.216485   7.141790
    28  H    8.331006   8.002083   7.622441   6.178497   7.267224
    29  H    6.921288   6.411922   6.529302   5.202464   5.966778
                   11         12         13         14         15
    11  H    0.000000
    12  H    1.775961   0.000000
    13  H    1.776701   1.782641   0.000000
    14  C    5.272228   4.978954   6.179285   0.000000
    15  O    6.310901   5.941725   7.247200   1.137566   0.000000
    16  C    4.314259   4.899565   5.310510   2.869012   3.820242
    17  O    5.011614   5.845179   6.053316   3.803946   4.614066
    18  H    4.092161   2.942744   3.257760   4.958483   5.887266
    19  H    3.800662   2.921439   4.225260   2.383637   3.285437
    20  O    2.603896   4.203844   4.197434   5.355307   6.293234
    21  C    3.034892   4.399189   4.790342   5.218060   6.020603
    22  H    3.957511   5.353714   5.685231   6.130523   6.836946
    23  C    3.129293   3.915376   4.851821   4.250546   4.947165
    24  H    2.701181   3.223207   4.276445   3.381283   4.213521
    25  H    4.186943   4.879699   5.893278   4.115669   4.610760
    26  C    3.392088   3.862558   4.957640   5.219336   5.821750
    27  H    4.033022   4.054481   5.437532   4.961780   5.411607
    28  H    4.186871   4.837961   5.772209   6.128010   6.657964
    29  H    2.720918   3.148923   4.123149   5.639333   6.361874
                   16         17         18         19         20
    16  C    0.000000
    17  O    1.138089   0.000000
    18  H    5.053692   6.035799   0.000000
    19  H    3.542828   4.680711   2.810820   0.000000
    20  O    3.593395   3.762739   6.090964   5.022259   0.000000
    21  C    4.012200   4.267093   6.571567   5.080596   1.204623
    22  H    4.946108   5.044798   7.656174   6.136196   2.001605
    23  C    3.930997   4.487503   6.097652   4.160069   2.403208
    24  H    3.190189   3.956505   5.095443   3.097308   2.561956
    25  H    4.048614   4.492691   6.843089   4.600777   3.092351
    26  C    5.332478   5.974681   6.469016   4.711076   3.426685
    27  H    5.659832   6.410520   6.489796   4.506420   4.352732
    28  H    6.108593   6.616582   7.523605   5.790171   3.808381
    29  H    5.585786   6.281215   5.970271   4.661759   3.428084
                   21         22         23         24         25
    21  C    0.000000
    22  H    1.110785   0.000000
    23  C    1.495613   2.207896   0.000000
    24  H    2.127264   3.093671   1.094038   0.000000
    25  H    2.100583   2.491202   1.095162   1.771890   0.000000
    26  C    2.490396   2.833372   1.528325   2.181689   2.155837
    27  H    3.433907   3.813504   2.161090   2.527770   2.479222
    28  H    2.737693   2.629853   2.181018   3.093702   2.521425
    29  H    2.784951   3.235503   2.173633   2.525019   3.070074
                   26         27         28         29
    26  C    0.000000
    27  H    1.090019   0.000000
    28  H    1.092487   1.764785   0.000000
    29  H    1.091705   1.764589   1.768348   0.000000
 Stoichiometry    C8H16O3PRh
 Framework group  C1[X(C8H16O3PRh)]
 Deg. of freedom    81
 Full point group                 C1      NOp   1
 RotChk:  IX=0 Diff= 4.42D-03
 Largest Abelian subgroup         C1      NOp   1
 Largest concise Abelian subgroup C1      NOp   1
                         Standard orientation:                         
 ---------------------------------------------------------------------
 Center     Atomic      Atomic             Coordinates (Angstroms)
 Number     Number       Type             X           Y           Z
 ---------------------------------------------------------------------
      1         45           0       -0.845928    0.736001   -0.153199
      2         15           0       -0.903028   -1.601246   -0.281212
      3          6           0       -0.805396   -2.536485    1.273469
      4          6           0        0.441780   -2.316104   -1.271190
      5          6           0       -2.408573   -2.250801   -1.063293
      6          1           0       -3.283002   -1.908301   -0.508727
      7          1           0       -2.399130   -3.342744   -1.082279
      8          1           0       -1.638284   -2.255645    1.919984
      9          1           0        0.128446   -2.288009    1.778714
     10          1           0       -0.841058   -3.612641    1.091650
     11          1           0        1.388531   -2.121624   -0.767372
     12          1           0        0.458813   -1.848885   -2.255752
     13          1           0        0.311927   -3.394993   -1.380661
     14          6           0       -0.972528    2.584765   -0.499620
     15          8           0       -1.069011    3.691079   -0.746232
     16          6           0       -0.533594    0.828229    1.725947
     17          8           0       -0.342930    0.888256    2.846344
     18          1           0       -2.478682   -1.866904   -2.080980
     19          1           0       -1.108447    0.566242   -1.760102
     20          8           0        2.500279   -1.056844    1.332756
     21          6           0        3.212451   -0.255921    0.782801
     22          1           0        4.272707   -0.156737    1.098812
     23          6           0        2.802641    0.637685   -0.344312
     24          1           0        1.725006    0.546067   -0.509320
     25          1           0        3.012928    1.667666   -0.037233
     26          6           0        3.593516    0.313933   -1.611386
     27          1           0        3.329121    1.010716   -2.406828
     28          1           0        4.670311    0.389055   -1.442871
     29          1           0        3.374513   -0.696365   -1.962321
 ---------------------------------------------------------------------
 Rotational constants (GHZ):           0.4729721           0.4404529           0.3290702
 Leave Link  202 at Tue Oct  4 18:56:35 2022, MaxMem=  2952790016 cpu:               0.1 elap:               0.0
 (Enter /mnt/data/applications/G16/g16/l301.exe)
 Basis read from rwf:  (5D, 7F)
 Pseudo-potential data read from rwf file.
 There are   573 symmetry adapted cartesian basis functions of A   symmetry.
 There are   510 symmetry adapted basis functions of A   symmetry.
   510 basis functions,   823 primitive gaussians,   573 cartesian basis functions
    60 alpha electrons       60 beta electrons
       nuclear repulsion energy      1070.4141991228 Hartrees.
 IExCor= 4639 DFT=T Ex+Corr=wB97XD ExCW=0 ScaHFX=  1.000000
 ScaDFX=  1.000000  1.000000  1.000000  1.000000 ScalE2=  1.000000  1.000000
 IRadAn=      5 IRanWt=     -1 IRanGd=            0 ICorTp=0 IEmpDi=121
 HFx  wShort=  0.000000 wLong=  0.200000 cFull=  0.222036 cShort=  0.000000 cLong=  0.777964
 DFx  wShort=  0.000000 wLong=  0.200000 cFull=  0.000000 cShort=  0.000000 cLong=  1.000000
 NAtoms=   29 NActive=   29 NUniq=   29 SFac= 1.00D+00 NAtFMM=   60 NAOKFM=F Big=F
 Integral buffers will be    131072 words long.
 Raffenetti 2 integral format.
 Two-electron integral symmetry is turned on.
 R6Disp:  Grimme-D2 Dispersion energy=       -0.0235980986 Hartrees.
 Nuclear repulsion after empirical dispersion term =     1070.3906010241 Hartrees.
 No density basis found on file   724.
 ------------------------------------------------------------------------------
 Polarizable Continuum Model (PCM)
 =================================
 Model                : PCM.
 Atomic radii         : SMD-Coulomb.
 Polarization charges : Total charges.
 Charge compensation  : None.
 Solution method      : On-the-fly selection.
 Cavity type          : VdW (van der Waals Surface) (Alpha=1.000).
 Cavity algorithm     : GePol (No added spheres)
                        Default sphere list used, NSphG=   29.
                        Lebedev-Laikov grids with approx.  5.0 points / Ang**2.
                        Smoothing algorithm: York/Karplus (Gamma=1.0000).
                        Polarization charges: spherical gaussians, with
                                              point-specific exponents (IZeta= 3).
                        Self-potential: point-specific (ISelfS= 7).
                        Self-field    : sphere-specific E.n sum rule (ISelfD= 2).
 1st derivatives      : Analytical E(r).r(x)/FMM algorithm (CHGder, D1EAlg=3).
                        Cavity 1st derivative terms included.
 Solvent              : Toluene, Eps=   2.374100 Eps(inf)=   2.238315
 ------------------------------------------------------------------------------
 GePol: Number of generator spheres                  =      29
 GePol: Total number of spheres                      =      29
 GePol: Number of exposed spheres                    =      29 (100.00%)
 GePol: Number of points                             =    2664
 GePol: Average weight of points                     =       0.12
 GePol: Minimum weight of points                     =   0.20D-07
 GePol: Maximum weight of points                     =    0.20615
 GePol: Number of points with low weight             =     122
 GePol: Fraction of low-weight points (<1% of avg)   =       4.58%
 GePol: Cavity surface area                          =    323.253 Ang**2
 GePol: Cavity volume                                =    297.002 Ang**3
 ------------------------------------------------------------------------------
 Atomic radii for non-electrostatic terms: SMD-CDS.
 ------------------------------------------------------------------------------
 PCM non-electrostatic energy =         0.0007889290 Hartrees.
 Nuclear repulsion after PCM non-electrostatic terms =     1070.3913899531 Hartrees.
 Leave Link  301 at Tue Oct  4 18:56:35 2022, MaxMem=  2952790016 cpu:               2.5 elap:               0.2
 (Enter /mnt/data/applications/G16/g16/l302.exe)
 NPDir=0 NMtPBC=     1 NCelOv=     1 NCel=       1 NClECP=     1 NCelD=      1
         NCelK=      1 NCelE2=     1 NClLst=     1 CellRange=     0.0.
 One-electron integrals computed using PRISM.
 One-electron integral symmetry used in STVInt
   1 Symmetry operations used in ECPInt.
 ECPInt:  NShTT=   22578 NPrTT=   66767 LenC2=   20834 LenP2D=   45559.
 LDataN:  DoStor=T MaxTD1= 7 Len=  274
 NBasis=   510 RedAO= T EigKep=  1.89D-04  NBF=   510
 NBsUse=   510 1.00D-06 EigRej= -1.00D+00 NBFU=   510
 Precomputing XC quadrature grid using
 IXCGrd= 4 IRadAn=           5 IRanWt=          -1 IRanGd=           0 AccXCQ= 0.00D+00.
 Defaulting to unpruned grid for atomic number  45.
 Generated NRdTot=       0 NPtTot=           0 NUsed=           0 NTot=          32
 NSgBfM=   568   567   568   568   568 MxSgAt=    29 MxSgA2=    29.
 Leave Link  302 at Tue Oct  4 18:56:37 2022, MaxMem=  2952790016 cpu:              22.5 elap:               1.9
 (Enter /mnt/data/applications/G16/g16/l303.exe)
 DipDrv:  MaxL=1.
 Leave Link  303 at Tue Oct  4 18:56:37 2022, MaxMem=  2952790016 cpu:               1.2 elap:               0.1
 (Enter /mnt/data/applications/G16/g16/l401.exe)
 Initial guess from the checkpoint file:  "I9c.chk"
 B after Tr=     0.000000    0.000000    0.000000
         Rot=    0.999999   -0.000153    0.000070    0.001590 Ang=  -0.18 deg.
 Guess basis will be translated and rotated to current coordinates.
 JPrj=2 DoOrth=T DoCkMO=T.
 Leave Link  401 at Tue Oct  4 18:56:39 2022, MaxMem=  2952790016 cpu:              12.9 elap:               1.1
 (Enter /mnt/data/applications/G16/g16/l502.exe)
 Integral symmetry usage will be decided dynamically.
 Closed shell SCF:
 Using DIIS extrapolation, IDIIS=  1040.
 NGot=  2952790016 LenX=  2952121193 LenY=  2951792291
 Requested convergence on RMS density matrix=1.00D-08 within 128 cycles.
 Requested convergence on MAX density matrix=1.00D-06.
 Requested convergence on             energy=1.00D-06.
 No special actions if energy rises.
 Fock matrices will be formed incrementally for  20 cycles.

 Cycle   1  Pass 1  IDiag  1:
 FoFJK:  IHMeth= 1 ICntrl=       0 DoSepK=T KAlg= 0 I1Cent=           0 FoldK=F
 IRaf=         1 NMat=       1 IRICut=       1 DoRegI=T DoRafI=F ISym2E= 0 IDoP0=0 IntGTp=1.
 FoFCou: FMM=F IPFlag=           0 FMFlag=      100000 FMFlg1=           0
         NFxFlg=           0 DoJE=T BraDBF=F KetDBF=F FulRan=T
         wScrn=  0.000000 ICntrl=       500 IOpCl=  0 I1Cent=           0 NGrid=           0
         NMat0=    1 NMatS0=      1 NMatT0=    0 NMatD0=    1 NMtDS0=    0 NMtDT0=    0
 Symmetry not used in FoFCou.
 Defaulting to unpruned grid for atomic number  45.
 Defaulting to unpruned grid for atomic number  45.
 Defaulting to unpruned grid for atomic number  45.
 Defaulting to unpruned grid for atomic number  45.
 Defaulting to unpruned grid for atomic number  45.
 Defaulting to unpruned grid for atomic number  45.
 Defaulting to unpruned grid for atomic number  45.
 Defaulting to unpruned grid for atomic number  45.
 Defaulting to unpruned grid for atomic number  45.
 Defaulting to unpruned grid for atomic number  45.
 Defaulting to unpruned grid for atomic number  45.
 Defaulting to unpruned grid for atomic number  45.
 Inv3:  Mode=1 IEnd=    21290688.
 Iteration    1 A*A^-1 deviation from unit magnitude is 2.66D-15 for    241.
 Iteration    1 A*A^-1 deviation from orthogonality  is 2.10D-15 for   1136    339.
 Iteration    1 A^-1*A deviation from unit magnitude is 2.44D-15 for    241.
 Iteration    1 A^-1*A deviation from orthogonality  is 1.17D-15 for   1935    802.
 E= -992.236915832309    
 DIIS: error= 6.22D-05 at cycle   1 NSaved=   1.
 NSaved= 1 IEnMin= 1 EnMin= -992.236915832309     IErMin= 1 ErrMin= 6.22D-05
 ErrMax= 6.22D-05  0.00D+00 EMaxC= 1.00D-01 BMatC= 3.59D-06 BMatP= 3.59D-06
 IDIUse=1 WtCom= 1.00D+00 WtEn= 0.00D+00
 Coeff-Com:  0.100D+01
 Coeff:      0.100D+01
 Gap=     0.758 Goal=   None    Shift=    0.000
 RMSDP=3.92D-06 MaxDP=2.22D-04              OVMax= 3.82D-04

 Cycle   2  Pass 1  IDiag  1:
 RMSU=  3.92D-06    CP:  1.00D+00
 E= -992.236919068887     Delta-E=       -0.000003236578 Rises=F Damp=F
 DIIS: error= 9.80D-06 at cycle   2 NSaved=   2.
 NSaved= 2 IEnMin= 2 EnMin= -992.236919068887     IErMin= 2 ErrMin= 9.80D-06
 ErrMax= 9.80D-06  0.00D+00 EMaxC= 1.00D-01 BMatC= 9.30D-08 BMatP= 3.59D-06
 IDIUse=1 WtCom= 1.00D+00 WtEn= 0.00D+00
 Coeff-Com: -0.762D-01 0.108D+01
 Coeff:     -0.762D-01 0.108D+01
 Gap=     0.289 Goal=   None    Shift=    0.000
 RMSDP=1.33D-06 MaxDP=1.02D-04 DE=-3.24D-06 OVMax= 1.73D-04

 Cycle   3  Pass 1  IDiag  1:
 RMSU=  1.11D-06    CP:  1.00D+00  1.19D+00
 E= -992.236919295983     Delta-E=       -0.000000227095 Rises=F Damp=F
 DIIS: error= 6.60D-06 at cycle   3 NSaved=   3.
 NSaved= 3 IEnMin= 3 EnMin= -992.236919295983     IErMin= 3 ErrMin= 6.60D-06
 ErrMax= 6.60D-06  0.00D+00 EMaxC= 1.00D-01 BMatC= 2.98D-08 BMatP= 9.30D-08
 IDIUse=1 WtCom= 1.00D+00 WtEn= 0.00D+00
 Coeff-Com: -0.378D-01 0.326D+00 0.712D+00
 Coeff:     -0.378D-01 0.326D+00 0.712D+00
 Gap=     0.289 Goal=   None    Shift=    0.000
 RMSDP=5.52D-07 MaxDP=7.53D-05 DE=-2.27D-07 OVMax= 7.32D-05

 Cycle   4  Pass 1  IDiag  1:
 RMSU=  5.13D-07    CP:  1.00D+00  1.23D+00  9.24D-01
 E= -992.236919313423     Delta-E=       -0.000000017440 Rises=F Damp=F
 DIIS: error= 8.00D-06 at cycle   4 NSaved=   4.
 NSaved= 4 IEnMin= 4 EnMin= -992.236919313423     IErMin= 3 ErrMin= 6.60D-06
 ErrMax= 8.00D-06  0.00D+00 EMaxC= 1.00D-01 BMatC= 3.19D-08 BMatP= 2.98D-08
 IDIUse=1 WtCom= 1.00D+00 WtEn= 0.00D+00
 Coeff-Com: -0.919D-02-0.287D-01 0.529D+00 0.509D+00
 Coeff:     -0.919D-02-0.287D-01 0.529D+00 0.509D+00
 Gap=     0.289 Goal=   None    Shift=    0.000
 RMSDP=3.57D-07 MaxDP=4.78D-05 DE=-1.74D-08 OVMax= 6.60D-05

 Cycle   5  Pass 1  IDiag  1:
 RMSU=  2.87D-07    CP:  1.00D+00  1.25D+00  1.08D+00  8.51D-01
 E= -992.236919341151     Delta-E=       -0.000000027728 Rises=F Damp=F
 DIIS: error= 2.90D-06 at cycle   5 NSaved=   5.
 NSaved= 5 IEnMin= 5 EnMin= -992.236919341151     IErMin= 5 ErrMin= 2.90D-06
 ErrMax= 2.90D-06  0.00D+00 EMaxC= 1.00D-01 BMatC= 3.87D-09 BMatP= 2.98D-08
 IDIUse=1 WtCom= 1.00D+00 WtEn= 0.00D+00
 Coeff-Com:  0.276D-02-0.905D-01 0.148D+00 0.302D+00 0.637D+00
 Coeff:      0.276D-02-0.905D-01 0.148D+00 0.302D+00 0.637D+00
 Gap=     0.289 Goal=   None    Shift=    0.000
 RMSDP=1.68D-07 MaxDP=1.61D-05 DE=-2.77D-08 OVMax= 3.62D-05

 Cycle   6  Pass 1  IDiag  1:
 RMSU=  8.81D-08    CP:  1.00D+00  1.26D+00  1.17D+00  1.03D+00  9.67D-01
 E= -992.236919346443     Delta-E=       -0.000000005293 Rises=F Damp=F
 DIIS: error= 1.13D-06 at cycle   6 NSaved=   6.
 NSaved= 6 IEnMin= 6 EnMin= -992.236919346443     IErMin= 6 ErrMin= 1.13D-06
 ErrMax= 1.13D-06  0.00D+00 EMaxC= 1.00D-01 BMatC= 6.76D-10 BMatP= 3.87D-09
 IDIUse=1 WtCom= 1.00D+00 WtEn= 0.00D+00
 Coeff-Com:  0.302D-02-0.433D-01-0.198D-01 0.734D-01 0.342D+00 0.644D+00
 Coeff:      0.302D-02-0.433D-01-0.198D-01 0.734D-01 0.342D+00 0.644D+00
 Gap=     0.289 Goal=   None    Shift=    0.000
 RMSDP=8.44D-08 MaxDP=6.22D-06 DE=-5.29D-09 OVMax= 2.21D-05

 Cycle   7  Pass 1  IDiag  1:
 RMSU=  3.74D-08    CP:  1.00D+00  1.27D+00  1.21D+00  1.10D+00  1.12D+00
                    CP:  1.23D+00
 E= -992.236919347720     Delta-E=       -0.000000001276 Rises=F Damp=F
 DIIS: error= 2.92D-07 at cycle   7 NSaved=   7.
 NSaved= 7 IEnMin= 7 EnMin= -992.236919347720     IErMin= 7 ErrMin= 2.92D-07
 ErrMax= 2.92D-07  0.00D+00 EMaxC= 1.00D-01 BMatC= 1.08D-10 BMatP= 6.76D-10
 IDIUse=1 WtCom= 1.00D+00 WtEn= 0.00D+00
 Coeff-Com:  0.169D-03 0.139D-01-0.587D-01-0.638D-01-0.651D-01 0.229D+00
 Coeff-Com:  0.945D+00
 Coeff:      0.169D-03 0.139D-01-0.587D-01-0.638D-01-0.651D-01 0.229D+00
 Coeff:      0.945D+00
 Gap=     0.289 Goal=   None    Shift=    0.000
 RMSDP=7.75D-08 MaxDP=5.60D-06 DE=-1.28D-09 OVMax= 2.17D-05

 Cycle   8  Pass 1  IDiag  1:
 RMSU=  2.13D-08    CP:  1.00D+00  1.27D+00  1.22D+00  1.18D+00  1.27D+00
                    CP:  1.61D+00  1.48D+00
 E= -992.236919348276     Delta-E=       -0.000000000557 Rises=F Damp=F
 DIIS: error= 1.30D-07 at cycle   8 NSaved=   8.
 NSaved= 8 IEnMin= 8 EnMin= -992.236919348276     IErMin= 8 ErrMin= 1.30D-07
 ErrMax= 1.30D-07  0.00D+00 EMaxC= 1.00D-01 BMatC= 1.44D-11 BMatP= 1.08D-10
 IDIUse=1 WtCom= 1.00D+00 WtEn= 0.00D+00
 Coeff-Com: -0.577D-03 0.124D-01-0.108D-01-0.284D-01-0.810D-01-0.728D-01
 Coeff-Com:  0.170D+00 0.101D+01
 Coeff:     -0.577D-03 0.124D-01-0.108D-01-0.284D-01-0.810D-01-0.728D-01
 Coeff:      0.170D+00 0.101D+01
 Gap=     0.289 Goal=   None    Shift=    0.000
 RMSDP=4.04D-08 MaxDP=2.81D-06 DE=-5.57D-10 OVMax= 1.18D-05

 Cycle   9  Pass 1  IDiag  1:
 RMSU=  9.77D-09    CP:  1.00D+00  1.27D+00  1.23D+00  1.21D+00  1.34D+00
                    CP:  1.86D+00  1.88D+00  1.46D+00
 E= -992.236919348367     Delta-E=       -0.000000000091 Rises=F Damp=F
 DIIS: error= 4.48D-08 at cycle   9 NSaved=   9.
 NSaved= 9 IEnMin= 9 EnMin= -992.236919348367     IErMin= 9 ErrMin= 4.48D-08
 ErrMax= 4.48D-08  0.00D+00 EMaxC= 1.00D-01 BMatC= 2.08D-12 BMatP= 1.44D-11
 IDIUse=1 WtCom= 1.00D+00 WtEn= 0.00D+00
 Coeff-Com: -0.948D-04-0.126D-02 0.824D-02 0.884D-02 0.600D-02-0.389D-01
 Coeff-Com: -0.156D+00 0.693D-01 0.110D+01
 Coeff:     -0.948D-04-0.126D-02 0.824D-02 0.884D-02 0.600D-02-0.389D-01
 Coeff:     -0.156D+00 0.693D-01 0.110D+01
 Gap=     0.289 Goal=   None    Shift=    0.000
 RMSDP=1.67D-08 MaxDP=1.29D-06 DE=-9.09D-11 OVMax= 5.24D-06

 Cycle  10  Pass 1  IDiag  1:
 RMSU=  3.38D-09    CP:  1.00D+00  1.28D+00  1.23D+00  1.21D+00  1.36D+00
                    CP:  1.95D+00  2.08D+00  1.81D+00  1.46D+00
 E= -992.236919348410     Delta-E=       -0.000000000042 Rises=F Damp=F
 DIIS: error= 2.81D-08 at cycle  10 NSaved=  10.
 NSaved=10 IEnMin=10 EnMin= -992.236919348410     IErMin=10 ErrMin= 2.81D-08
 ErrMax= 2.81D-08  0.00D+00 EMaxC= 1.00D-01 BMatC= 7.43D-13 BMatP= 2.08D-12
 IDIUse=1 WtCom= 1.00D+00 WtEn= 0.00D+00
 Coeff-Com:  0.356D-04-0.241D-02 0.550D-02 0.832D-02 0.144D-01-0.858D-02
 Coeff-Com: -0.974D-01-0.111D+00 0.521D+00 0.669D+00
 Coeff:      0.356D-04-0.241D-02 0.550D-02 0.832D-02 0.144D-01-0.858D-02
 Coeff:     -0.974D-01-0.111D+00 0.521D+00 0.669D+00
 Gap=     0.289 Goal=   None    Shift=    0.000
 RMSDP=4.47D-09 MaxDP=3.17D-07 DE=-4.23D-11 OVMax= 1.37D-06

 Error on total polarization charges =  0.03359
 SCF Done:  E(RwB97XD) =  -992.236919348     A.U. after   10 cycles
            NFock= 10  Conv=0.45D-08     -V/T= 2.0796
 KE= 9.190822213675D+02 PE=-4.448486751894D+03 EE= 1.466776221225D+03
 SMD-CDS (non-electrostatic) energy       (kcal/mol) =       0.50
 (included in total energy above)
 Leave Link  502 at Tue Oct  4 19:07:00 2022, MaxMem=  2952790016 cpu:            7387.4 elap:             621.0
 (Enter /mnt/data/applications/G16/g16/l701.exe)
 ... and contract with generalized density number  0.
 Compute integral first derivatives.
 R6Disp: Adding Grimme-D2 dispersion energy 1st derivatives to the gradient.
   1 Symmetry operations used in ECPInt.
 ECPInt:  NShTT=   22578 NPrTT=   66767 LenC2=   20834 LenP2D=   45559.
 LDataN:  DoStor=T MaxTD1= 8 Len=  415
 D1PCM: PCM CHGder 1st derivatives, ID1Alg=3 FixD1E=F DoIter=F DoCFld=F I1PDM=0.
 GePol: Maximum number of non-zero 1st derivatives   =     419
 Leave Link  701 at Tue Oct  4 19:07:12 2022, MaxMem=  2952790016 cpu:             144.2 elap:              12.1
 (Enter /mnt/data/applications/G16/g16/l702.exe)
 L702 exits ... SP integral derivatives will be done elsewhere.
 Leave Link  702 at Tue Oct  4 19:07:12 2022, MaxMem=  2952790016 cpu:               0.2 elap:               0.0
 (Enter /mnt/data/applications/G16/g16/l703.exe)
 Integral derivatives from FoFJK, PRISM(SPDF).
 Compute integral first derivatives, UseDBF=F ICtDFT=           0.
 Calling FoFJK, ICntrl=      2127 FMM=F ISym2X=0 I1Cent= 0 IOpClX= 0 NMat=1 NMatS=1 NMatT=0.
 FoFJK:  IHMeth= 1 ICntrl=    2127 DoSepK=T KAlg= 0 I1Cent=           0 FoldK=F
 IRaf=         1 NMat=       1 IRICut=       1 DoRegI=T DoRafI=F ISym2E= 0 IDoP0=0 IntGTp=1.
 FoFCou: FMM=F IPFlag=           0 FMFlag=      100000 FMFlg1=         800
         NFxFlg=           0 DoJE=F BraDBF=F KetDBF=F FulRan=T
         wScrn=  0.000000 ICntrl=      2527 IOpCl=  0 I1Cent=           0 NGrid=           0
         NMat0=    1 NMatS0=      1 NMatT0=    0 NMatD0=    1 NMtDS0=    0 NMtDT0=    0
 Symmetry not used in FoFCou.
 Defaulting to unpruned grid for atomic number  45.
 Defaulting to unpruned grid for atomic number  45.
 Defaulting to unpruned grid for atomic number  45.
 Defaulting to unpruned grid for atomic number  45.
 Defaulting to unpruned grid for atomic number  45.
 Defaulting to unpruned grid for atomic number  45.
 Defaulting to unpruned grid for atomic number  45.
 Defaulting to unpruned grid for atomic number  45.
 Defaulting to unpruned grid for atomic number  45.
 Defaulting to unpruned grid for atomic number  45.
 Defaulting to unpruned grid for atomic number  45.
 Defaulting to unpruned grid for atomic number  45.
 Leave Link  703 at Tue Oct  4 19:11:13 2022, MaxMem=  2952790016 cpu:            2889.6 elap:             241.4
 (Enter /mnt/data/applications/G16/g16/l716.exe)
 Dipole        = 7.42975213D-01-1.51073037D+00-5.60325115D-01
 ***** Axes restored to original set *****
 -------------------------------------------------------------------
 Center     Atomic                   Forces (Hartrees/Bohr)
 Number     Number              X              Y              Z
 -------------------------------------------------------------------
      1       45          -0.000020282   -0.000039004   -0.000110844
      2       15          -0.000033375    0.000036402   -0.000051066
      3        6           0.000012256   -0.000026938    0.000013639
      4        6          -0.000009756   -0.000004622    0.000000051
      5        6           0.000012161    0.000001553    0.000004901
      6        1           0.000006578    0.000010369    0.000004344
      7        1           0.000001320    0.000006720   -0.000005158
      8        1           0.000010487    0.000016408   -0.000003467
      9        1           0.000013031    0.000007534   -0.000000749
     10        1           0.000009766    0.000013148   -0.000010735
     11        1           0.000013197    0.000003047   -0.000003426
     12        1          -0.000001211   -0.000008558   -0.000000326
     13        1           0.000008444    0.000000181   -0.000011801
     14        6          -0.000009314   -0.000149621   -0.000070010
     15        8          -0.000007198    0.000076574    0.000052887
     16        6           0.000016722    0.000126600    0.000208649
     17        8           0.000001595   -0.000047323   -0.000076515
     18        1           0.000001823    0.000000536    0.000004492
     19        1          -0.000020344    0.000032139    0.000071132
     20        8          -0.000031286   -0.000006469   -0.000032117
     21        6           0.000028783   -0.000005507    0.000009184
     22        1          -0.000001481   -0.000007134   -0.000005450
     23        6          -0.000021127    0.000022825    0.000013714
     24        1           0.000046447    0.000007213    0.000003271
     25        1          -0.000002989   -0.000008161    0.000002461
     26        6           0.000003716   -0.000009568   -0.000004733
     27        1          -0.000008430   -0.000014846   -0.000000408
     28        1          -0.000006259   -0.000017183   -0.000003014
     29        1          -0.000013274   -0.000016317    0.000001094
 -------------------------------------------------------------------
 Cartesian Forces:  Max     0.000208649 RMS     0.000040207
 Leave Link  716 at Tue Oct  4 19:11:13 2022, MaxMem=  2952790016 cpu:               0.3 elap:               0.0
 (Enter /mnt/data/applications/G16/g16/l103.exe)

 GradGradGradGradGradGradGradGradGradGradGradGradGradGradGradGradGradGrad
 Berny optimization.
 Using GEDIIS/GDIIS optimizer.
 FormGI is forming the generalized inverse of G from B-inverse, IUseBI=4.
 Internal  Forces:  Max     0.000136328 RMS     0.000018631
 Search for a local minimum.
 Step number   4 out of a maximum of  174
 All quantities printed in internal units (Hartrees-Bohrs-Radians)
 RMS Force = .18631D-04 SwitMx=.10000D-02 MixMth= 2
 Mixed Optimization -- En-DIIS/RFO-DIIS
 Swapping is turned off.
 Update second derivatives using D2CorX and points    1    2    3    4
 DE= -4.08D-06 DEPred=-6.14D-07 R= 6.65D+00
 TightC=F SS=  1.41D+00  RLast= 6.83D-03 DXNew= 8.4090D-02 2.0493D-02
 Trust test= 6.65D+00 RLast= 6.83D-03 DXMaxT set to 5.00D-02
 ITU=  1 -1  1  0
     Eigenvalues ---    0.00390   0.00399   0.00492   0.00807   0.00936
     Eigenvalues ---    0.01070   0.01401   0.01577   0.02048   0.02256
     Eigenvalues ---    0.02355   0.02442   0.02814   0.03053   0.03390
     Eigenvalues ---    0.03655   0.03801   0.04034   0.04247   0.04523
     Eigenvalues ---    0.04704   0.04808   0.05153   0.05159   0.05679
     Eigenvalues ---    0.05764   0.05860   0.05989   0.06057   0.06217
     Eigenvalues ---    0.06408   0.06629   0.06811   0.07281   0.07729
     Eigenvalues ---    0.07806   0.08102   0.08782   0.09344   0.09480
     Eigenvalues ---    0.10491   0.10837   0.11029   0.11287   0.11504
     Eigenvalues ---    0.11772   0.12324   0.14283   0.14476   0.14952
     Eigenvalues ---    0.15367   0.15998   0.15999   0.16001   0.16042
     Eigenvalues ---    0.18328   0.22313   0.23452   0.23698   0.24838
     Eigenvalues ---    0.25171   0.26925   0.27444   0.29156   0.30678
     Eigenvalues ---    0.31898   0.32514   0.33753   0.34228   0.34527
     Eigenvalues ---    0.34565   0.34568   0.34598   0.34686   0.34738
     Eigenvalues ---    0.34813   0.34819   0.34821   0.88320   1.43159
     Eigenvalues ---    1.44394
 En-DIIS/RFO-DIIS/Sim-DIIS IScMMF=       -3 using points:     4    3    2    1
 RFO step:  Lambda=-4.55520918D-07.
 NNeg= 0 NGDIIS= 4 SimSw=  2.50D-03 Rises=F DC= -4.08D-06 SmlDif=  1.00D-05
 NRisDI= 0 DoIntr=F SqrtH=F CThrHd= 10.0 CDAdj=  3.0
 RMS Error=  0.1901239132D-03 NUsed= 4 OKEnD=F EnDIS=F
 InvSVX:  RCond= 3.13D-06 Info=           0 Equed=N FErr=  2.96D-15 BErr=  5.27D-17
 DidBck=F Rises=F RFO-DIIS coefs:    1.08908   -0.04946   -0.02998   -0.00964
 Iteration  1 RMS(Cart)=  0.00031547 RMS(Int)=  0.00000017
 Iteration  2 RMS(Cart)=  0.00000016 RMS(Int)=  0.00000002
 ITry= 1 IFail=0 DXMaxC= 2.92D-03 DCOld= 1.00D+10 DXMaxT= 5.00D-02 DXLimC= 3.00D+00 Rises=F
 Variable       Old X    -DE/DX   Delta X   Delta X   Delta X     New X
                                 (Linear)    (Quad)   (Total)
    R1        4.42469  -0.00002  -0.00023  -0.00012  -0.00035   4.42434
    R2        3.56250  -0.00008   0.00010  -0.00040  -0.00030   3.56220
    R3        3.60400  -0.00012   0.00011  -0.00053  -0.00042   3.60358
    R4        3.09354   0.00006  -0.00015   0.00037   0.00022   3.09376
    R5        4.91786  -0.00003  -0.00038  -0.00066  -0.00104   4.91683
    R6        3.43350   0.00000   0.00002   0.00001   0.00003   3.43353
    R7        3.43264   0.00000   0.00000  -0.00001  -0.00000   3.43264
    R8        3.43298   0.00001  -0.00001   0.00005   0.00004   3.43303
    R9        2.06193   0.00001  -0.00000   0.00001   0.00001   2.06194
   R10        2.06064   0.00001  -0.00000   0.00001   0.00001   2.06065
   R11        2.06356  -0.00001   0.00000  -0.00002  -0.00001   2.06355
   R12        2.05971  -0.00002  -0.00000  -0.00002  -0.00002   2.05969
   R13        2.05967   0.00000  -0.00000   0.00000   0.00000   2.05967
   R14        2.06391  -0.00000   0.00000  -0.00001  -0.00001   2.06390
   R15        2.06099   0.00000  -0.00000   0.00001   0.00001   2.06100
   R16        2.06386  -0.00000   0.00000  -0.00001  -0.00001   2.06385
   R17        2.05970   0.00000  -0.00000   0.00001   0.00001   2.05970
   R18        5.11981   0.00001   0.00009   0.00043   0.00052   5.12033
   R19        4.92065   0.00000   0.00002   0.00011   0.00013   4.92078
   R20        5.10449   0.00000  -0.00007   0.00018   0.00011   5.10461
   R21        5.14179   0.00000   0.00002  -0.00006  -0.00005   5.14174
   R22        2.14969   0.00008  -0.00002   0.00005   0.00003   2.14972
   R23        2.15068   0.00008  -0.00002   0.00005   0.00003   2.15070
   R24        2.27641   0.00000   0.00000   0.00000   0.00000   2.27641
   R25        2.09908   0.00000  -0.00000   0.00001   0.00001   2.09908
   R26        2.82630   0.00001  -0.00001   0.00004   0.00004   2.82633
   R27        2.06743   0.00001   0.00001   0.00004   0.00005   2.06748
   R28        2.06956  -0.00000   0.00000  -0.00001  -0.00001   2.06955
   R29        2.88812   0.00001  -0.00000   0.00003   0.00002   2.88814
   R30        2.05984  -0.00000   0.00000  -0.00001  -0.00001   2.05983
   R31        2.06450   0.00000  -0.00000   0.00000   0.00000   2.06450
   R32        2.06302   0.00000  -0.00000   0.00001   0.00001   2.06303
    A1        1.67713   0.00001   0.00001   0.00000   0.00002   1.67715
    A2        1.40900   0.00003  -0.00018   0.00046   0.00028   1.40928
    A3        1.51452   0.00000   0.00006   0.00009   0.00015   1.51468
    A4        1.71594  -0.00003   0.00027  -0.00028  -0.00001   1.71593
    A5        1.48123  -0.00001  -0.00011  -0.00017  -0.00028   1.48095
    A6        1.68381   0.00001   0.00000   0.00006   0.00007   1.68387
    A7        1.54737   0.00001   0.00008   0.00010   0.00018   1.54755
    A8        1.58733  -0.00002  -0.00003  -0.00031  -0.00034   1.58698
    A9        2.05525   0.00001  -0.00000   0.00014   0.00013   2.05538
   A10        1.98731   0.00000   0.00000  -0.00001  -0.00001   1.98730
   A11        1.98304  -0.00001   0.00007  -0.00010  -0.00004   1.98300
   A12        1.79670  -0.00000  -0.00003   0.00001  -0.00002   1.79668
   A13        1.80170  -0.00000  -0.00002  -0.00004  -0.00006   1.80163
   A14        1.81132   0.00000  -0.00002  -0.00000  -0.00002   1.81130
   A15        1.91081  -0.00000   0.00000  -0.00002  -0.00002   1.91078
   A16        1.90201  -0.00001  -0.00001  -0.00007  -0.00007   1.90194
   A17        1.94233   0.00001   0.00002   0.00006   0.00008   1.94241
   A18        1.89707   0.00000   0.00000  -0.00001  -0.00001   1.89706
   A19        1.90433  -0.00000  -0.00001   0.00001   0.00001   1.90433
   A20        1.90676   0.00000  -0.00001   0.00002   0.00001   1.90677
   A21        1.89751   0.00000  -0.00000  -0.00005  -0.00005   1.89746
   A22        1.91260   0.00000   0.00001   0.00003   0.00004   1.91263
   A23        1.93409  -0.00000   0.00000  -0.00003  -0.00003   1.93406
   A24        1.90444  -0.00000  -0.00000   0.00001   0.00001   1.90445
   A25        1.90272   0.00000  -0.00001   0.00004   0.00003   1.90275
   A26        1.91216   0.00000  -0.00000   0.00001   0.00000   1.91216
   A27        1.91056   0.00000   0.00000   0.00001   0.00002   1.91058
   A28        1.93671  -0.00001  -0.00002  -0.00002  -0.00004   1.93668
   A29        1.90640   0.00000   0.00001   0.00002   0.00003   1.90643
   A30        1.90684   0.00000  -0.00000   0.00001   0.00000   1.90684
   A31        1.88872  -0.00000   0.00000  -0.00002  -0.00001   1.88870
   A32        1.91397   0.00000  -0.00000   0.00000  -0.00000   1.91396
   A33        2.46068   0.00000  -0.00000  -0.00003  -0.00003   2.46065
   A34        2.52635   0.00000   0.00001   0.00002   0.00003   2.52639
   A35        1.90559  -0.00001  -0.00000  -0.00002  -0.00002   1.90557
   A36        2.12288  -0.00000  -0.00000   0.00001   0.00001   2.12289
   A37        1.00737   0.00001  -0.00000   0.00003   0.00002   1.00740
   A38        1.39832   0.00000  -0.00001  -0.00001  -0.00002   1.39830
   A39        0.96880   0.00001   0.00001   0.00003   0.00004   0.96884
   A40        1.12980  -0.00000  -0.00002  -0.00005  -0.00007   1.12973
   A41        2.67888  -0.00002  -0.00004  -0.00013  -0.00017   2.67871
   A42        1.72752  -0.00001  -0.00000  -0.00004  -0.00004   1.72748
   A43        2.08724  -0.00001   0.00000  -0.00006  -0.00006   2.08718
   A44        2.18868   0.00001  -0.00001   0.00010   0.00008   2.18876
   A45        2.00710  -0.00000   0.00001  -0.00004  -0.00002   2.00707
   A46        1.91084  -0.00000  -0.00000   0.00001   0.00000   1.91084
   A47        1.87339   0.00000   0.00000   0.00001   0.00001   1.87341
   A48        1.93524  -0.00001   0.00001  -0.00007  -0.00006   1.93518
   A49        1.88618  -0.00000  -0.00001   0.00001   0.00001   1.88619
   A50        1.94651   0.00000  -0.00000   0.00001   0.00001   1.94652
   A51        1.90957   0.00000  -0.00000   0.00003   0.00003   1.90959
   A52        1.53288   0.00000   0.00001   0.00002   0.00004   1.53292
   A53        2.81251   0.00001   0.00001   0.00006   0.00007   2.81258
   A54        1.79242  -0.00001   0.00002  -0.00005  -0.00004   1.79238
   A55        1.92205  -0.00000  -0.00000   0.00002   0.00001   1.92206
   A56        1.94722   0.00000   0.00000  -0.00001  -0.00001   1.94722
   A57        1.93771   0.00000  -0.00000   0.00006   0.00006   1.93777
   A58        1.88355   0.00000  -0.00000  -0.00000  -0.00000   1.88355
   A59        1.88423  -0.00000  -0.00000  -0.00001  -0.00001   1.88422
   A60        1.88698  -0.00001   0.00001  -0.00007  -0.00006   1.88692
   A61        2.08289  -0.00000  -0.00002  -0.00001  -0.00003   2.08286
   A62        3.39307  -0.00002   0.00028  -0.00027   0.00001   3.39308
   A63        3.08613   0.00004  -0.00017   0.00046   0.00030   3.08643
   A64        3.16160  -0.00001   0.00009  -0.00052  -0.00043   3.16117
   A65        3.14620  -0.00014   0.00002  -0.00148  -0.00146   3.14474
   A66        3.19328   0.00001   0.00008   0.00018   0.00027   3.19355
   A67        3.14523   0.00001  -0.00005   0.00024   0.00019   3.14542
   A68        3.10715  -0.00004  -0.00016   0.00012  -0.00004   3.10712
   A69        3.13793   0.00002   0.00000   0.00020   0.00020   3.13813
    D1        0.08922  -0.00000  -0.00009  -0.00005  -0.00014   0.08908
    D2       -2.01629  -0.00001  -0.00005  -0.00017  -0.00022  -2.01651
    D3        2.19799  -0.00000  -0.00007  -0.00008  -0.00015   2.19784
    D4       -3.05601  -0.00001  -0.00004  -0.00030  -0.00033  -3.05635
    D5        1.12166  -0.00002   0.00001  -0.00042  -0.00041   1.12125
    D6       -0.94724  -0.00001  -0.00002  -0.00033  -0.00034  -0.94759
    D7        1.63040   0.00001  -0.00001   0.00006   0.00006   1.63046
    D8       -0.47511  -0.00000   0.00004  -0.00006  -0.00002  -0.47513
    D9       -2.54401   0.00001   0.00001   0.00003   0.00005  -2.54397
   D10        0.05441   0.00000  -0.00002   0.00004   0.00003   0.05444
   D11       -2.12236   0.00001  -0.00014   0.00002  -0.00011  -2.12248
   D12       -2.83589  -0.00002   0.00027  -0.00023   0.00004  -2.83585
   D13        1.27053  -0.00001   0.00015  -0.00025  -0.00010   1.27043
   D14        1.73307   0.00001  -0.00001   0.00004   0.00003   1.73310
   D15       -0.44370   0.00002  -0.00013   0.00001  -0.00011  -0.44382
   D16       -1.35336  -0.00003   0.00016  -0.00044  -0.00028  -1.35365
   D17        2.75305  -0.00002   0.00004  -0.00046  -0.00042   2.75263
   D18        1.03486  -0.00001   0.00003  -0.00013  -0.00010   1.03475
   D19       -1.03792  -0.00000   0.00003  -0.00007  -0.00004  -1.03796
   D20        3.14144  -0.00001   0.00003  -0.00009  -0.00006   3.14138
   D21       -3.04640   0.00000   0.00000  -0.00005  -0.00004  -3.04645
   D22        1.16400   0.00000   0.00000   0.00002   0.00002   1.16402
   D23       -0.93982   0.00000   0.00001  -0.00001   0.00000  -0.93982
   D24       -1.16555   0.00000  -0.00004  -0.00006  -0.00009  -1.16564
   D25        3.04486   0.00000  -0.00004   0.00001  -0.00003   3.04483
   D26        0.94104   0.00000  -0.00003  -0.00002  -0.00005   0.94099
   D27        1.14924   0.00001  -0.00008  -0.00002  -0.00011   1.14913
   D28       -0.93086   0.00001  -0.00009  -0.00002  -0.00011  -0.93097
   D29       -3.04312   0.00001  -0.00009  -0.00003  -0.00012  -3.04323
   D30       -1.09568  -0.00001  -0.00006  -0.00020  -0.00025  -1.09594
   D31        3.10741  -0.00001  -0.00006  -0.00020  -0.00026   3.10715
   D32        0.99515  -0.00001  -0.00007  -0.00020  -0.00026   0.99489
   D33       -2.96923  -0.00001  -0.00001  -0.00016  -0.00017  -2.96941
   D34        1.23386  -0.00001  -0.00002  -0.00016  -0.00018   1.23368
   D35       -0.87840  -0.00000  -0.00002  -0.00016  -0.00018  -0.87858
   D36       -1.01573  -0.00000   0.00003   0.00002   0.00005  -1.01567
   D37       -3.12169  -0.00000   0.00004   0.00002   0.00006  -3.12163
   D38        1.04938  -0.00000   0.00004   0.00002   0.00006   1.04944
   D39        1.23016   0.00000   0.00005   0.00010   0.00015   1.23031
   D40       -0.87580   0.00000   0.00006   0.00010   0.00015  -0.87565
   D41       -2.98792   0.00000   0.00006   0.00010   0.00016  -2.98776
   D42        3.09996   0.00000   0.00000   0.00010   0.00010   3.10007
   D43        0.99400   0.00000   0.00001   0.00010   0.00011   0.99411
   D44       -1.11812   0.00000   0.00002   0.00010   0.00011  -1.11800
   D45       -0.22425  -0.00000   0.00004   0.00017   0.00021  -0.22404
   D46       -2.30561   0.00000   0.00004   0.00024   0.00028  -2.30532
   D47        1.90129   0.00000   0.00006   0.00022   0.00027   1.90156
   D48        0.02301   0.00000   0.00006   0.00011   0.00017   0.02318
   D49       -1.03853   0.00000   0.00007   0.00010   0.00017  -1.03836
   D50       -2.09735  -0.00000   0.00006   0.00007   0.00014  -2.09721
   D51        2.10820   0.00000   0.00007   0.00012   0.00019   2.10839
   D52        1.04666   0.00000   0.00008   0.00011   0.00019   1.04685
   D53       -0.01216  -0.00000   0.00007   0.00008   0.00016  -0.01200
   D54       -2.08723   0.00001   0.00006   0.00015   0.00021  -2.08702
   D55        3.13441   0.00000   0.00007   0.00014   0.00022   3.13463
   D56        2.07559   0.00000   0.00007   0.00012   0.00018   2.07577
   D57       -0.49531   0.00000  -0.00005  -0.00016  -0.00020  -0.49552
   D58        0.48164  -0.00000  -0.00004  -0.00015  -0.00019   0.48145
   D59        0.64572  -0.00000  -0.00002  -0.00003  -0.00005   0.64567
   D60       -2.11196   0.00001   0.00001   0.00007   0.00009  -2.11187
   D61        1.99423  -0.00001  -0.00004  -0.00005  -0.00009   1.99414
   D62       -0.76345   0.00000  -0.00001   0.00006   0.00005  -0.76341
   D63        2.95870  -0.00000  -0.00002   0.00000  -0.00002   2.95868
   D64        0.20102   0.00001   0.00000   0.00011   0.00011   0.20113
   D65        0.61774  -0.00000  -0.00001  -0.00005  -0.00006   0.61767
   D66       -2.79963   0.00000   0.00002   0.00001   0.00002  -2.79961
   D67       -1.88529  -0.00001  -0.00002  -0.00009  -0.00011  -1.88540
   D68        0.98053  -0.00000   0.00000  -0.00003  -0.00002   0.98051
   D69        2.63824  -0.00000  -0.00001  -0.00002  -0.00003   2.63821
   D70       -0.77913   0.00000   0.00002   0.00004   0.00005  -0.77908
   D71        1.88725  -0.00000  -0.00005  -0.00003  -0.00008   1.88717
   D72       -0.73122  -0.00001  -0.00005  -0.00006  -0.00012  -0.73134
   D73        0.27144   0.00000  -0.00005  -0.00002  -0.00007   0.27137
   D74        3.08334   0.00001   0.00000   0.00006   0.00006   3.08340
   D75       -0.07889   0.00000   0.00001  -0.00001  -0.00001  -0.07890
   D76       -2.33837  -0.00000  -0.00001   0.00003   0.00003  -2.33834
   D77        0.78259  -0.00000  -0.00000  -0.00004  -0.00005   0.78254
   D78        0.12568   0.00000  -0.00001   0.00005   0.00004   0.12572
   D79        2.16900   0.00000  -0.00002   0.00008   0.00006   2.16906
   D80       -2.02934   0.00000  -0.00001   0.00008   0.00007  -2.02927
   D81       -3.03571  -0.00000  -0.00001  -0.00002  -0.00003  -3.03574
   D82       -0.99240  -0.00000  -0.00001   0.00000  -0.00001  -0.99241
   D83        1.09246   0.00000  -0.00001   0.00000  -0.00000   1.09245
   D84        1.22085  -0.00000   0.00011   0.00004   0.00016   1.22100
   D85       -0.91986   0.00000  -0.00001   0.00000  -0.00001  -0.91987
   D86       -0.81440  -0.00000   0.00012   0.00002   0.00014  -0.81427
   D87       -2.95511   0.00000  -0.00001  -0.00002  -0.00003  -2.95514
   D88       -2.91398  -0.00001   0.00013  -0.00003   0.00010  -2.91389
   D89        1.22849  -0.00000   0.00000  -0.00007  -0.00007   1.22842
   D90       -3.08187  -0.00000  -0.00004  -0.00001  -0.00005  -3.08192
   D91       -0.99070  -0.00000  -0.00004  -0.00001  -0.00005  -0.99074
   D92        1.11541  -0.00000  -0.00003  -0.00005  -0.00008   1.11533
   D93        1.06693   0.00000  -0.00004   0.00002  -0.00002   1.06691
   D94       -3.12507   0.00000  -0.00004   0.00003  -0.00002  -3.12509
   D95       -1.01897   0.00000  -0.00004  -0.00002  -0.00005  -1.01902
   D96       -1.01885  -0.00000  -0.00003  -0.00002  -0.00005  -1.01890
   D97        1.07233   0.00000  -0.00003  -0.00001  -0.00005   1.07228
   D98       -3.10476  -0.00000  -0.00002  -0.00006  -0.00008  -3.10484
   D99        0.13197  -0.00000   0.00006   0.00001   0.00008   0.13204
   D100      -1.97640  -0.00000   0.00007  -0.00004   0.00003  -1.97637
   D101       2.27330  -0.00000   0.00007  -0.00000   0.00007   2.27337
         Item               Value     Threshold  Converged?
 Maximum Force            0.000136     0.000450     YES
 RMS     Force            0.000019     0.000300     YES
 Maximum Displacement     0.002922     0.001800     NO 
 RMS     Displacement     0.000315     0.001200     YES
 Predicted change in Energy=-2.275759D-07
 Lowest energy point so far.  Saving SCF results.
 GradGradGradGradGradGradGradGradGradGradGradGradGradGradGradGradGradGrad

 Leave Link  103 at Tue Oct  4 19:11:13 2022, MaxMem=  2952790016 cpu:               0.7 elap:               0.1
 (Enter /mnt/data/applications/G16/g16/l202.exe)
                          Input orientation:                          
 ---------------------------------------------------------------------
 Center     Atomic      Atomic             Coordinates (Angstroms)
 Number     Number       Type             X           Y           Z
 ---------------------------------------------------------------------
      1         45           0        0.843097    0.736499    0.155031
      2         15           0        0.904503   -1.600792    0.276717
      3          6           0        0.809803   -2.532190   -1.280470
      4          6           0       -0.439623   -2.320850    1.263847
      5          6           0        2.410736   -2.249585    1.058157
      6          1           0        3.284930   -1.903877    0.505205
      7          1           0        2.403364   -3.341588    1.074114
      8          1           0        1.642593   -2.248004   -1.925658
      9          1           0       -0.124171   -2.284156   -1.785696
     10          1           0        0.847423   -3.608751   -1.101506
     11          1           0       -1.386376   -2.126657    0.759943
     12          1           0       -0.458151   -1.856440    2.249711
     13          1           0       -0.307859   -3.399800    1.370359
     14          6           0        0.966374    2.584371    0.506503
     15          8           0        1.060357    3.690227    0.756191
     16          6           0        0.532290    0.833277   -1.723913
     17          8           0        0.342803    0.894372   -2.844467
     18          1           0        2.479359   -1.868378    2.076959
     19          1           0        1.104228    0.563299    1.761909
     20          8           0       -2.498710   -1.058209   -1.338095
     21          6           0       -3.212510   -0.259922   -0.786418
     22          1           0       -4.272756   -0.161723   -1.102779
     23          6           0       -2.804923    0.631399    0.343333
     24          1           0       -1.727208    0.541198    0.508766
     25          1           0       -3.016807    1.661830    0.038885
     26          6           0       -3.596036    0.302830    1.609034
     27          1           0       -3.333341    0.997885    2.406545
     28          1           0       -4.672854    0.376565    1.440044
     29          1           0       -3.375586   -0.708053    1.957382
 ---------------------------------------------------------------------
                    Distance matrix (angstroms):
                    1          2          3          4          5
     1  Rh   0.000000
     2  P    2.341262   0.000000
     3  C    3.570168   1.816948   0.000000
     4  C    3.496031   1.816475   2.842407   0.000000
     5  C    3.491394   1.816679   2.848163   2.858659   0.000000
     6  H    3.613414   2.410499   3.116034   3.823833   1.090636
     7  H    4.462055   2.431624   2.956117   3.026628   1.092144
     8  H    3.725013   2.411248   1.091132   3.809708   3.081104
     9  H    3.718385   2.403893   1.090450   3.066034   3.809783
    10  H    4.523285   2.436115   1.091983   2.984974   2.992561
    11  H    3.678877   2.399618   3.025052   1.089941   3.810787
    12  H    3.578305   2.411408   3.811368   1.089931   3.131274
    13  H    4.462140   2.429465   3.004798   1.092171   2.968370
    14  C    1.885036   4.191923   5.421899   5.158643   5.075198
    15  O    3.022103   5.314986   6.552041   6.216165   6.098859
    16  C    1.906934   3.172657   3.405881   4.451948   4.557687
    17  O    3.045030   4.035237   3.795458   5.275234   5.421374
    18  H    3.627195   2.406792   3.807938   3.063713   1.089947
    19  H    1.637145   2.632295   4.350265   3.309057   3.180337
    20  O    4.076528   3.805768   3.622458   3.550240   5.591428
    21  C    4.281019   4.458473   4.646105   4.017451   6.243565
    22  H    5.344234   5.547786   5.610980   4.995564   7.327884
    23  C    3.654389   4.329775   5.070629   3.893297   6.001178
    24  H    2.601872   3.401157   4.368467   3.227901   5.021243
    25  H    3.970968   5.106656   5.828674   4.899403   6.767297
    26  C    4.691279   5.064948   5.983142   4.118956   6.549779
    27  H    4.751871   5.408199   6.574280   4.548997   6.734882
    28  H    5.675079   6.030769   6.776546   5.022682   7.564373
    29  H    4.809624   4.684098   5.597199   3.420816   6.055282
                    6          7          8          9         10
     6  H    0.000000
     7  H    1.779839   0.000000
     8  H    2.953776   3.282275   0.000000
     9  H    4.124901   3.960442   1.772668   0.000000
    10  H    3.380762   2.688057   1.778526   1.779512   0.000000
    11  H    4.683548   3.992103   4.049917   2.845741   3.263656
    12  H    4.129917   3.431612   4.690433   4.071731   4.000722
    13  H    3.986779   2.727980   3.999328   3.352475   2.736504
    14  C    5.051740   6.124060   5.452021   5.490539   6.399579
    15  O    6.025423   7.165972   6.541705   6.599815   7.534684
    16  C    4.476383   5.362776   3.281427   3.186400   4.496478
    17  O    5.263707   6.127360   3.522526   3.382618   4.854964
    18  H    1.766526   1.783766   4.106731   4.676680   3.974261
    19  H    3.524447   4.172404   4.668127   4.711949   5.066665
    20  O    6.128899   5.921394   4.348705   2.709563   4.214007
    21  C    6.825511   6.670553   5.368646   3.825431   5.272286
    22  H    7.920816   7.708500   6.326219   4.709762   6.172377
    23  C    6.598495   6.591276   5.763652   4.496627   5.779798
    24  H    5.576732   5.697128   5.006159   3.977048   5.142351
    25  H    7.255592   7.448767   6.391889   5.221805   6.634138
    26  C    7.309973   7.039938   6.814987   5.501867   6.510901
    27  H    7.472405   7.315475   7.352802   6.216547   7.141870
    28  H    8.330706   8.001963   7.622413   6.178621   7.267440
    29  H    6.921076   6.411858   6.529285   5.202541   5.966963
                   11         12         13         14         15
    11  H    0.000000
    12  H    1.775958   0.000000
    13  H    1.776710   1.782641   0.000000
    14  C    5.271949   4.978840   6.179014   0.000000
    15  O    6.310520   5.941547   7.246910   1.137583   0.000000
    16  C    4.314166   4.899514   5.310302   2.868713   3.819939
    17  O    5.010833   5.844582   6.052110   3.804463   4.614806
    18  H    4.092083   2.942610   3.257778   4.958067   5.886941
    19  H    3.800383   2.921321   4.225335   2.383229   3.284977
    20  O    2.603965   4.203975   4.197452   5.355160   6.292904
    21  C    3.034913   4.399254   4.790357   5.217731   6.020026
    22  H    3.957511   5.353733   5.685241   6.130196   6.836328
    23  C    3.129331   3.915476   4.851873   4.250107   4.946441
    24  H    2.701242   3.223362   4.276489   3.380820   4.212852
    25  H    4.186988   4.879825   5.893328   4.115274   4.610010
    26  C    3.392044   3.862543   4.957676   5.218869   5.820979
    27  H    4.032956   4.054440   5.437541   4.961315   5.410819
    28  H    4.186836   4.837932   5.772259   6.127544   6.657155
    29  H    2.720892   3.148916   4.123232   5.638947   6.361235
                   16         17         18         19         20
    16  C    0.000000
    17  O    1.138104   0.000000
    18  H    5.053379   6.034740   0.000000
    19  H    3.542733   4.680607   2.811279   0.000000
    20  O    3.593541   3.762436   6.090988   5.021999   0.000000
    21  C    4.012170   4.267108   6.571409   5.079950   1.204624
    22  H    4.946139   5.045017   7.656008   6.135475   2.001574
    23  C    3.930808   4.487695   6.097374   4.159142   2.403277
    24  H    3.189905   3.956495   5.095143   3.096431   2.562072
    25  H    4.048462   4.493295   6.842803   4.599838   3.092427
    26  C    5.332259   5.974785   6.468657   4.709958   3.426678
    27  H    5.659583   6.410764   6.489343   4.505158   4.352753
    28  H    6.108414   6.616795   7.523269   5.789054   3.808350
    29  H    5.585617   6.281078   5.970011   4.660824   3.428073
                   21         22         23         24         25
    21  C    0.000000
    22  H    1.110788   0.000000
    23  C    1.495632   2.207898   0.000000
    24  H    2.127302   3.093702   1.094063   0.000000
    25  H    2.100608   2.491214   1.095158   1.771911   0.000000
    26  C    2.490376   2.833318   1.528338   2.181726   2.155865
    27  H    3.433903   3.813469   2.161107   2.527804   2.479280
    28  H    2.737673   2.629788   2.181027   3.093738   2.521437
    29  H    2.784933   3.235426   2.173693   2.525127   3.070130
                   26         27         28         29
    26  C    0.000000
    27  H    1.090015   0.000000
    28  H    1.092488   1.764782   0.000000
    29  H    1.091710   1.764584   1.768315   0.000000
 Stoichiometry    C8H16O3PRh
 Framework group  C1[X(C8H16O3PRh)]
 Deg. of freedom    81
 Full point group                 C1      NOp   1
 RotChk:  IX=0 Diff= 1.22D-03
 Largest Abelian subgroup         C1      NOp   1
 Largest concise Abelian subgroup C1      NOp   1
                         Standard orientation:                         
 ---------------------------------------------------------------------
 Center     Atomic      Atomic             Coordinates (Angstroms)
 Number     Number       Type             X           Y           Z
 ---------------------------------------------------------------------
      1         45           0       -0.845077    0.736737   -0.153106
      2         15           0       -0.904311   -1.600249   -0.281554
      3          6           0       -0.807757   -2.536081    1.272858
      4          6           0        0.439898   -2.316138   -1.271598
      5          6           0       -2.410401   -2.248216   -1.063955
      6          1           0       -3.284586   -1.904960   -0.509463
      7          1           0       -2.401989   -3.340160   -1.083093
      8          1           0       -1.640422   -2.254574    1.919381
      9          1           0        0.126289   -2.288618    1.778231
     10          1           0       -0.844452   -3.612152    1.090786
     11          1           0        1.386774   -2.122499   -0.767712
     12          1           0        0.457373   -1.848843   -2.256118
     13          1           0        0.309105   -3.394899   -1.381169
     14          6           0       -0.970346    2.585504   -0.499125
     15          8           0       -1.065546    3.691990   -0.745537
     16          6           0       -0.533206    0.828348    1.725920
     17          8           0       -0.343088    0.886365    2.846532
     18          1           0       -2.480017   -1.864113   -2.081601
     19          1           0       -1.107031    0.567960   -1.760321
     20          8           0        2.499373   -1.059087    1.332743
     21          6           0        3.212065   -0.258512    0.782953
     22          1           0        4.272411   -0.160213    1.098949
     23          6           0        2.802926    0.635698   -0.343950
     24          1           0        1.725196    0.544941   -0.508983
     25          1           0        3.014007    1.665443   -0.036635
     26          6           0        3.593575    0.311574   -1.611086
     27          1           0        3.329721    1.008693   -2.406410
     28          1           0        4.670425    0.385854   -1.442542
     29          1           0        3.373882   -0.698503   -1.962238
 ---------------------------------------------------------------------
 Rotational constants (GHZ):           0.4730005           0.4405136           0.3291159
 Leave Link  202 at Tue Oct  4 19:11:14 2022, MaxMem=  2952790016 cpu:               0.1 elap:               0.0
 (Enter /mnt/data/applications/G16/g16/l301.exe)
 Basis read from rwf:  (5D, 7F)
 Pseudo-potential data read from rwf file.
 There are   573 symmetry adapted cartesian basis functions of A   symmetry.
 There are   510 symmetry adapted basis functions of A   symmetry.
   510 basis functions,   823 primitive gaussians,   573 cartesian basis functions
    60 alpha electrons       60 beta electrons
       nuclear repulsion energy      1070.4559739022 Hartrees.
 IExCor= 4639 DFT=T Ex+Corr=wB97XD ExCW=0 ScaHFX=  1.000000
 ScaDFX=  1.000000  1.000000  1.000000  1.000000 ScalE2=  1.000000  1.000000
 IRadAn=      5 IRanWt=     -1 IRanGd=            0 ICorTp=0 IEmpDi=121
 HFx  wShort=  0.000000 wLong=  0.200000 cFull=  0.222036 cShort=  0.000000 cLong=  0.777964
 DFx  wShort=  0.000000 wLong=  0.200000 cFull=  0.000000 cShort=  0.000000 cLong=  1.000000
 NAtoms=   29 NActive=   29 NUniq=   29 SFac= 1.00D+00 NAtFMM=   60 NAOKFM=F Big=F
 Integral buffers will be    131072 words long.
 Raffenetti 2 integral format.
 Two-electron integral symmetry is turned on.
 R6Disp:  Grimme-D2 Dispersion energy=       -0.0235998413 Hartrees.
 Nuclear repulsion after empirical dispersion term =     1070.4323740609 Hartrees.
 No density basis found on file   724.
 ------------------------------------------------------------------------------
 Polarizable Continuum Model (PCM)
 =================================
 Model                : PCM.
 Atomic radii         : SMD-Coulomb.
 Polarization charges : Total charges.
 Charge compensation  : None.
 Solution method      : On-the-fly selection.
 Cavity type          : VdW (van der Waals Surface) (Alpha=1.000).
 Cavity algorithm     : GePol (No added spheres)
                        Default sphere list used, NSphG=   29.
                        Lebedev-Laikov grids with approx.  5.0 points / Ang**2.
                        Smoothing algorithm: York/Karplus (Gamma=1.0000).
                        Polarization charges: spherical gaussians, with
                                              point-specific exponents (IZeta= 3).
                        Self-potential: point-specific (ISelfS= 7).
                        Self-field    : sphere-specific E.n sum rule (ISelfD= 2).
 1st derivatives      : Analytical E(r).r(x)/FMM algorithm (CHGder, D1EAlg=3).
                        Cavity 1st derivative terms included.
 Solvent              : Toluene, Eps=   2.374100 Eps(inf)=   2.238315
 ------------------------------------------------------------------------------
 GePol: Number of generator spheres                  =      29
 GePol: Total number of spheres                      =      29
 GePol: Number of exposed spheres                    =      29 (100.00%)
 GePol: Number of points                             =    2666
 GePol: Average weight of points                     =       0.12
 GePol: Minimum weight of points                     =   0.10D-10
 GePol: Maximum weight of points                     =    0.20615
 GePol: Number of points with low weight             =     125
 GePol: Fraction of low-weight points (<1% of avg)   =       4.69%
 GePol: Cavity surface area                          =    323.226 Ang**2
 GePol: Cavity volume                                =    296.995 Ang**3
 ------------------------------------------------------------------------------
 Atomic radii for non-electrostatic terms: SMD-CDS.
 ------------------------------------------------------------------------------
 PCM non-electrostatic energy =         0.0007886638 Hartrees.
 Nuclear repulsion after PCM non-electrostatic terms =     1070.4331627247 Hartrees.
 Leave Link  301 at Tue Oct  4 19:11:14 2022, MaxMem=  2952790016 cpu:               2.5 elap:               0.2
 (Enter /mnt/data/applications/G16/g16/l302.exe)
 NPDir=0 NMtPBC=     1 NCelOv=     1 NCel=       1 NClECP=     1 NCelD=      1
         NCelK=      1 NCelE2=     1 NClLst=     1 CellRange=     0.0.
 One-electron integrals computed using PRISM.
 One-electron integral symmetry used in STVInt
   1 Symmetry operations used in ECPInt.
 ECPInt:  NShTT=   22578 NPrTT=   66767 LenC2=   20834 LenP2D=   45559.
 LDataN:  DoStor=T MaxTD1= 7 Len=  274
 NBasis=   510 RedAO= T EigKep=  1.88D-04  NBF=   510
 NBsUse=   510 1.00D-06 EigRej= -1.00D+00 NBFU=   510
 Precomputing XC quadrature grid using
 IXCGrd= 4 IRadAn=           5 IRanWt=          -1 IRanGd=           0 AccXCQ= 0.00D+00.
 Defaulting to unpruned grid for atomic number  45.
 Generated NRdTot=       0 NPtTot=           0 NUsed=           0 NTot=          32
 NSgBfM=   568   567   568   568   568 MxSgAt=    29 MxSgA2=    29.
 Leave Link  302 at Tue Oct  4 19:11:16 2022, MaxMem=  2952790016 cpu:              22.3 elap:               1.9
 (Enter /mnt/data/applications/G16/g16/l303.exe)
 DipDrv:  MaxL=1.
 Leave Link  303 at Tue Oct  4 19:11:16 2022, MaxMem=  2952790016 cpu:               1.2 elap:               0.1
 (Enter /mnt/data/applications/G16/g16/l401.exe)
 Initial guess from the checkpoint file:  "I9c.chk"
 B after Tr=     0.000000    0.000000   -0.000000
         Rot=    1.000000   -0.000139    0.000050    0.000413 Ang=  -0.05 deg.
 Guess basis will be translated and rotated to current coordinates.
 JPrj=2 DoOrth=T DoCkMO=T.
 Leave Link  401 at Tue Oct  4 19:11:17 2022, MaxMem=  2952790016 cpu:              12.9 elap:               1.1
 (Enter /mnt/data/applications/G16/g16/l502.exe)
 Integral symmetry usage will be decided dynamically.
 Closed shell SCF:
 Using DIIS extrapolation, IDIIS=  1040.
 NGot=  2952790016 LenX=  2952121193 LenY=  2951792291
 Requested convergence on RMS density matrix=1.00D-08 within 128 cycles.
 Requested convergence on MAX density matrix=1.00D-06.
 Requested convergence on             energy=1.00D-06.
 No special actions if energy rises.
 Fock matrices will be formed incrementally for  20 cycles.

 Cycle   1  Pass 1  IDiag  1:
 FoFJK:  IHMeth= 1 ICntrl=       0 DoSepK=T KAlg= 0 I1Cent=           0 FoldK=F
 IRaf=         1 NMat=       1 IRICut=       1 DoRegI=T DoRafI=F ISym2E= 0 IDoP0=0 IntGTp=1.
 FoFCou: FMM=F IPFlag=           0 FMFlag=      100000 FMFlg1=           0
         NFxFlg=           0 DoJE=T BraDBF=F KetDBF=F FulRan=T
         wScrn=  0.000000 ICntrl=       500 IOpCl=  0 I1Cent=           0 NGrid=           0
         NMat0=    1 NMatS0=      1 NMatT0=    0 NMatD0=    1 NMtDS0=    0 NMtDT0=    0
 Symmetry not used in FoFCou.
 Defaulting to unpruned grid for atomic number  45.
 Defaulting to unpruned grid for atomic number  45.
 Defaulting to unpruned grid for atomic number  45.
 Defaulting to unpruned grid for atomic number  45.
 Defaulting to unpruned grid for atomic number  45.
 Defaulting to unpruned grid for atomic number  45.
 Defaulting to unpruned grid for atomic number  45.
 Defaulting to unpruned grid for atomic number  45.
 Defaulting to unpruned grid for atomic number  45.
 Defaulting to unpruned grid for atomic number  45.
 Defaulting to unpruned grid for atomic number  45.
 Defaulting to unpruned grid for atomic number  45.
 Inv3:  Mode=1 IEnd=    21322668.
 Iteration    1 A*A^-1 deviation from unit magnitude is 2.22D-15 for     37.
 Iteration    1 A*A^-1 deviation from orthogonality  is 1.60D-15 for   1135    352.
 Iteration    1 A^-1*A deviation from unit magnitude is 2.22D-15 for    249.
 Iteration    1 A^-1*A deviation from orthogonality  is 1.10D-15 for    789    761.
 E= -992.236918463107    
 DIIS: error= 5.82D-05 at cycle   1 NSaved=   1.
 NSaved= 1 IEnMin= 1 EnMin= -992.236918463107     IErMin= 1 ErrMin= 5.82D-05
 ErrMax= 5.82D-05  0.00D+00 EMaxC= 1.00D-01 BMatC= 1.61D-06 BMatP= 1.61D-06
 IDIUse=1 WtCom= 1.00D+00 WtEn= 0.00D+00
 Coeff-Com:  0.100D+01
 Coeff:      0.100D+01
 Gap=     0.758 Goal=   None    Shift=    0.000
 RMSDP=2.30D-06 MaxDP=2.21D-04              OVMax= 2.85D-04

 Cycle   2  Pass 1  IDiag  1:
 RMSU=  2.30D-06    CP:  1.00D+00
 E= -992.236920061025     Delta-E=       -0.000001597918 Rises=F Damp=F
 DIIS: error= 9.57D-06 at cycle   2 NSaved=   2.
 NSaved= 2 IEnMin= 2 EnMin= -992.236920061025     IErMin= 2 ErrMin= 9.57D-06
 ErrMax= 9.57D-06  0.00D+00 EMaxC= 1.00D-01 BMatC= 4.57D-08 BMatP= 1.61D-06
 IDIUse=1 WtCom= 1.00D+00 WtEn= 0.00D+00
 Coeff-Com: -0.109D+00 0.111D+01
 Coeff:     -0.109D+00 0.111D+01
 Gap=     0.289 Goal=   None    Shift=    0.000
 RMSDP=6.06D-07 MaxDP=4.85D-05 DE=-1.60D-06 OVMax= 1.15D-04

 Cycle   3  Pass 1  IDiag  1:
 RMSU=  4.15D-07    CP:  1.00D+00  1.19D+00
 E= -992.236920162597     Delta-E=       -0.000000101571 Rises=F Damp=F
 DIIS: error= 4.17D-06 at cycle   3 NSaved=   3.
 NSaved= 3 IEnMin= 3 EnMin= -992.236920162597     IErMin= 3 ErrMin= 4.17D-06
 ErrMax= 4.17D-06  0.00D+00 EMaxC= 1.00D-01 BMatC= 1.10D-08 BMatP= 4.57D-08
 IDIUse=1 WtCom= 1.00D+00 WtEn= 0.00D+00
 Coeff-Com: -0.450D-01 0.315D+00 0.730D+00
 Coeff:     -0.450D-01 0.315D+00 0.730D+00
 Gap=     0.289 Goal=   None    Shift=    0.000
 RMSDP=2.16D-07 MaxDP=1.44D-05 DE=-1.02D-07 OVMax= 3.00D-05

 Cycle   4  Pass 1  IDiag  1:
 RMSU=  2.05D-07    CP:  1.00D+00  1.22D+00  1.04D+00
 E= -992.236920169810     Delta-E=       -0.000000007213 Rises=F Damp=F
 DIIS: error= 3.71D-06 at cycle   4 NSaved=   4.
 NSaved= 4 IEnMin= 4 EnMin= -992.236920169810     IErMin= 4 ErrMin= 3.71D-06
 ErrMax= 3.71D-06  0.00D+00 EMaxC= 1.00D-01 BMatC= 8.39D-09 BMatP= 1.10D-08
 IDIUse=1 WtCom= 1.00D+00 WtEn= 0.00D+00
 Coeff-Com: -0.205D-02-0.763D-01 0.486D+00 0.593D+00
 Coeff:     -0.205D-02-0.763D-01 0.486D+00 0.593D+00
 Gap=     0.289 Goal=   None    Shift=    0.000
 RMSDP=1.41D-07 MaxDP=1.59D-05 DE=-7.21D-09 OVMax= 2.18D-05

 Cycle   5  Pass 1  IDiag  1:
 RMSU=  1.10D-07    CP:  1.00D+00  1.23D+00  1.22D+00  8.74D-01
 E= -992.236920176361     Delta-E=       -0.000000006552 Rises=F Damp=F
 DIIS: error= 1.79D-06 at cycle   5 NSaved=   5.
 NSaved= 5 IEnMin= 5 EnMin= -992.236920176361     IErMin= 5 ErrMin= 1.79D-06
 ErrMax= 1.79D-06  0.00D+00 EMaxC= 1.00D-01 BMatC= 1.31D-09 BMatP= 8.39D-09
 IDIUse=1 WtCom= 1.00D+00 WtEn= 0.00D+00
 Coeff-Com:  0.380D-02-0.847D-01 0.202D+00 0.359D+00 0.520D+00
 Coeff:      0.380D-02-0.847D-01 0.202D+00 0.359D+00 0.520D+00
 Gap=     0.289 Goal=   None    Shift=    0.000
 RMSDP=7.87D-08 MaxDP=1.08D-05 DE=-6.55D-09 OVMax= 1.14D-05

 Cycle   6  Pass 1  IDiag  1:
 RMSU=  5.42D-08    CP:  1.00D+00  1.24D+00  1.29D+00  1.05D+00  7.10D-01
 E= -992.236920177379     Delta-E=       -0.000000001018 Rises=F Damp=F
 DIIS: error= 7.90D-07 at cycle   6 NSaved=   6.
 NSaved= 6 IEnMin= 6 EnMin= -992.236920177379     IErMin= 6 ErrMin= 7.90D-07
 ErrMax= 7.90D-07  0.00D+00 EMaxC= 1.00D-01 BMatC= 3.26D-10 BMatP= 1.31D-09
 IDIUse=1 WtCom= 1.00D+00 WtEn= 0.00D+00
 Coeff-Com:  0.313D-02-0.310D-01-0.318D-01 0.420D-01 0.360D+00 0.658D+00
 Coeff:      0.313D-02-0.310D-01-0.318D-01 0.420D-01 0.360D+00 0.658D+00
 Gap=     0.289 Goal=   None    Shift=    0.000
 RMSDP=4.28D-08 MaxDP=4.24D-06 DE=-1.02D-09 OVMax= 1.03D-05

 Cycle   7  Pass 1  IDiag  1:
 RMSU=  2.26D-08    CP:  1.00D+00  1.24D+00  1.34D+00  1.10D+00  9.50D-01
                    CP:  9.44D-01
 E= -992.236920177868     Delta-E=       -0.000000000489 Rises=F Damp=F
 DIIS: error= 1.40D-07 at cycle   7 NSaved=   7.
 NSaved= 7 IEnMin= 7 EnMin= -992.236920177868     IErMin= 7 ErrMin= 1.40D-07
 ErrMax= 1.40D-07  0.00D+00 EMaxC= 1.00D-01 BMatC= 1.52D-11 BMatP= 3.26D-10
 IDIUse=1 WtCom= 1.00D+00 WtEn= 0.00D+00
 Coeff-Com:  0.290D-04 0.760D-02-0.397D-01-0.440D-01-0.293D-02 0.150D+00
 Coeff-Com:  0.929D+00
 Coeff:      0.290D-04 0.760D-02-0.397D-01-0.440D-01-0.293D-02 0.150D+00
 Coeff:      0.929D+00
 Gap=     0.289 Goal=   None    Shift=    0.000
 RMSDP=2.40D-08 MaxDP=1.47D-06 DE=-4.89D-10 OVMax= 6.68D-06

 Cycle   8  Pass 1  IDiag  1:
 RMSU=  9.28D-09    CP:  1.00D+00  1.24D+00  1.35D+00  1.17D+00  1.04D+00
                    CP:  1.16D+00  1.22D+00
 E= -992.236920177932     Delta-E=       -0.000000000064 Rises=F Damp=F
 DIIS: error= 4.36D-08 at cycle   8 NSaved=   8.
 NSaved= 8 IEnMin= 8 EnMin= -992.236920177932     IErMin= 8 ErrMin= 4.36D-08
 ErrMax= 4.36D-08  0.00D+00 EMaxC= 1.00D-01 BMatC= 2.74D-12 BMatP= 1.52D-11
 IDIUse=1 WtCom= 1.00D+00 WtEn= 0.00D+00
 Coeff-Com: -0.495D-03 0.789D-02-0.966D-02-0.223D-01-0.553D-01-0.455D-01
 Coeff-Com:  0.278D+00 0.848D+00
 Coeff:     -0.495D-03 0.789D-02-0.966D-02-0.223D-01-0.553D-01-0.455D-01
 Coeff:      0.278D+00 0.848D+00
 Gap=     0.289 Goal=   None    Shift=    0.000
 RMSDP=1.17D-08 MaxDP=9.11D-07 DE=-6.41D-11 OVMax= 3.65D-06

 Cycle   9  Pass 1  IDiag  1:
 RMSU=  3.18D-09    CP:  1.00D+00  1.24D+00  1.36D+00  1.18D+00  1.08D+00
                    CP:  1.27D+00  1.50D+00  1.24D+00
 E= -992.236920177934     Delta-E=       -0.000000000002 Rises=F Damp=F
 DIIS: error= 2.36D-08 at cycle   9 NSaved=   9.
 NSaved= 9 IEnMin= 9 EnMin= -992.236920177934     IErMin= 9 ErrMin= 2.36D-08
 ErrMax= 2.36D-08  0.00D+00 EMaxC= 1.00D-01 BMatC= 4.41D-13 BMatP= 2.74D-12
 IDIUse=1 WtCom= 1.00D+00 WtEn= 0.00D+00
 Coeff-Com:  0.286D-04-0.237D-02 0.843D-02 0.112D-01 0.831D-02-0.217D-01
 Coeff-Com: -0.241D+00-0.835D-01 0.132D+01
 Coeff:      0.286D-04-0.237D-02 0.843D-02 0.112D-01 0.831D-02-0.217D-01
 Coeff:     -0.241D+00-0.835D-01 0.132D+01
 Gap=     0.289 Goal=   None    Shift=    0.000
 RMSDP=8.79D-09 MaxDP=7.00D-07 DE=-1.82D-12 OVMax= 2.93D-06

 Error on total polarization charges =  0.03359
 SCF Done:  E(RwB97XD) =  -992.236920178     A.U. after    9 cycles
            NFock=  9  Conv=0.88D-08     -V/T= 2.0796
 KE= 9.190822822200D+02 PE=-4.448569520560D+03 EE= 1.466817155438D+03
 SMD-CDS (non-electrostatic) energy       (kcal/mol) =       0.49
 (included in total energy above)
 Leave Link  502 at Tue Oct  4 19:20:36 2022, MaxMem=  2952790016 cpu:            6639.4 elap:             558.5
 (Enter /mnt/data/applications/G16/g16/l701.exe)
 ... and contract with generalized density number  0.
 Compute integral first derivatives.
 R6Disp: Adding Grimme-D2 dispersion energy 1st derivatives to the gradient.
   1 Symmetry operations used in ECPInt.
 ECPInt:  NShTT=   22578 NPrTT=   66767 LenC2=   20834 LenP2D=   45559.
 LDataN:  DoStor=T MaxTD1= 8 Len=  415
 D1PCM: PCM CHGder 1st derivatives, ID1Alg=3 FixD1E=F DoIter=F DoCFld=F I1PDM=0.
 GePol: Maximum number of non-zero 1st derivatives   =     419
 Leave Link  701 at Tue Oct  4 19:20:48 2022, MaxMem=  2952790016 cpu:             144.5 elap:              12.1
 (Enter /mnt/data/applications/G16/g16/l702.exe)
 L702 exits ... SP integral derivatives will be done elsewhere.
 Leave Link  702 at Tue Oct  4 19:20:48 2022, MaxMem=  2952790016 cpu:               0.2 elap:               0.0
 (Enter /mnt/data/applications/G16/g16/l703.exe)
 Integral derivatives from FoFJK, PRISM(SPDF).
 Compute integral first derivatives, UseDBF=F ICtDFT=           0.
 Calling FoFJK, ICntrl=      2127 FMM=F ISym2X=0 I1Cent= 0 IOpClX= 0 NMat=1 NMatS=1 NMatT=0.
 FoFJK:  IHMeth= 1 ICntrl=    2127 DoSepK=T KAlg= 0 I1Cent=           0 FoldK=F
 IRaf=         1 NMat=       1 IRICut=       1 DoRegI=T DoRafI=F ISym2E= 0 IDoP0=0 IntGTp=1.
 FoFCou: FMM=F IPFlag=           0 FMFlag=      100000 FMFlg1=         800
         NFxFlg=           0 DoJE=F BraDBF=F KetDBF=F FulRan=T
         wScrn=  0.000000 ICntrl=      2527 IOpCl=  0 I1Cent=           0 NGrid=           0
         NMat0=    1 NMatS0=      1 NMatT0=    0 NMatD0=    1 NMtDS0=    0 NMtDT0=    0
 Symmetry not used in FoFCou.
 Defaulting to unpruned grid for atomic number  45.
 Defaulting to unpruned grid for atomic number  45.
 Defaulting to unpruned grid for atomic number  45.
 Defaulting to unpruned grid for atomic number  45.
 Defaulting to unpruned grid for atomic number  45.
 Defaulting to unpruned grid for atomic number  45.
 Defaulting to unpruned grid for atomic number  45.
 Defaulting to unpruned grid for atomic number  45.
 Defaulting to unpruned grid for atomic number  45.
 Defaulting to unpruned grid for atomic number  45.
 Defaulting to unpruned grid for atomic number  45.
 Defaulting to unpruned grid for atomic number  45.
 Leave Link  703 at Tue Oct  4 19:24:49 2022, MaxMem=  2952790016 cpu:            2890.7 elap:             241.5
 (Enter /mnt/data/applications/G16/g16/l716.exe)
 Dipole        = 7.41441948D-01-1.51007535D+00-5.60811664D-01
 ***** Axes restored to original set *****
 -------------------------------------------------------------------
 Center     Atomic                   Forces (Hartrees/Bohr)
 Number     Number              X              Y              Z
 -------------------------------------------------------------------
      1       45          -0.000003292    0.000034987   -0.000033144
      2       15          -0.000044581   -0.000018397   -0.000047825
      3        6           0.000008448   -0.000007776    0.000011692
      4        6          -0.000005154   -0.000007250   -0.000000601
      5        6           0.000013022    0.000012371    0.000005643
      6        1           0.000003196    0.000008512    0.000004398
      7        1           0.000000773    0.000003226   -0.000004640
      8        1           0.000006633    0.000014506   -0.000002397
      9        1           0.000014887    0.000003045   -0.000004464
     10        1           0.000009338    0.000011724   -0.000005776
     11        1           0.000008948   -0.000000026   -0.000002157
     12        1           0.000000317   -0.000006919   -0.000002807
     13        1           0.000005223   -0.000002429   -0.000010488
     14        6          -0.000034973   -0.000042015   -0.000038442
     15        8           0.000010563    0.000040891    0.000042024
     16        6           0.000034969   -0.000015968    0.000106761
     17        8          -0.000009853    0.000021734   -0.000053544
     18        1           0.000000170    0.000000781    0.000002883
     19        1          -0.000007682   -0.000000940    0.000047528
     20        8          -0.000023753    0.000001587   -0.000023110
     21        6           0.000017579   -0.000009880    0.000006227
     22        1          -0.000001682   -0.000002168   -0.000003940
     23        6          -0.000009947    0.000003183    0.000011903
     24        1           0.000030197    0.000015269    0.000004418
     25        1          -0.000004022   -0.000007761    0.000003986
     26        6           0.000000998   -0.000009977   -0.000005857
     27        1          -0.000007385   -0.000012631    0.000000218
     28        1          -0.000005908   -0.000014114   -0.000004453
     29        1          -0.000007029   -0.000013563   -0.000004037
 -------------------------------------------------------------------
 Cartesian Forces:  Max     0.000106761 RMS     0.000021287
 Leave Link  716 at Tue Oct  4 19:24:49 2022, MaxMem=  2952790016 cpu:               0.2 elap:               0.0
 (Enter /mnt/data/applications/G16/g16/l103.exe)

 GradGradGradGradGradGradGradGradGradGradGradGradGradGradGradGradGradGrad
 Berny optimization.
 Using GEDIIS/GDIIS optimizer.
 FormGI is forming the generalized inverse of G from B-inverse, IUseBI=4.
 Internal  Forces:  Max     0.000061393 RMS     0.000009426
 Search for a local minimum.
 Step number   5 out of a maximum of  174
 All quantities printed in internal units (Hartrees-Bohrs-Radians)
 RMS Force = .94265D-05 SwitMx=.10000D-02 MixMth= 2
 Mixed Optimization -- En-DIIS/RFO-DIIS
 Swapping is turned off.
 Update second derivatives using D2CorX and points    1    2    3    4    5
 DE= -8.30D-07 DEPred=-2.28D-07 R= 3.65D+00
 Trust test= 3.65D+00 RLast= 2.62D-03 DXMaxT set to 5.00D-02
 ITU=  0  1 -1  1  0
     Eigenvalues ---    0.00390   0.00396   0.00483   0.00786   0.00931
     Eigenvalues ---    0.01055   0.01365   0.01484   0.02018   0.02266
     Eigenvalues ---    0.02369   0.02464   0.02841   0.03066   0.03365
     Eigenvalues ---    0.03614   0.03659   0.04050   0.04280   0.04491
     Eigenvalues ---    0.04705   0.04790   0.05153   0.05182   0.05715
     Eigenvalues ---    0.05776   0.05951   0.05989   0.06216   0.06219
     Eigenvalues ---    0.06392   0.06618   0.07051   0.07725   0.07739
     Eigenvalues ---    0.07996   0.08695   0.09186   0.09419   0.09754
     Eigenvalues ---    0.10291   0.10872   0.11029   0.11302   0.11474
     Eigenvalues ---    0.11819   0.12449   0.13906   0.14593   0.14655
     Eigenvalues ---    0.15014   0.15990   0.16000   0.16002   0.16013
     Eigenvalues ---    0.18350   0.22035   0.22358   0.23692   0.24818
     Eigenvalues ---    0.25851   0.26927   0.27549   0.29152   0.30674
     Eigenvalues ---    0.31905   0.32515   0.33764   0.34231   0.34528
     Eigenvalues ---    0.34566   0.34568   0.34603   0.34684   0.34738
     Eigenvalues ---    0.34813   0.34819   0.34821   0.88326   1.43034
     Eigenvalues ---    1.43668
 En-DIIS/RFO-DIIS/Sim-DIIS IScMMF=       -3 using points:     5    4    3    2    1
 RFO step:  Lambda=-1.81876110D-07.
 NNeg= 0 NGDIIS= 5 SimSw=  2.50D-03 Rises=F DC= -8.30D-07 SmlDif=  1.00D-05
 NRisDI= 0 DoIntr=F SqrtH=F CThrHd= 10.0 CDAdj=  3.0
 RMS Error=  0.1839318355D-03 NUsed= 5 OKEnD=F EnDIS=F
 InvSVX:  RCond= 3.49D-07 Info=           0 Equed=N FErr=  1.42D-14 BErr=  1.17D-16
 DidBck=F Rises=F RFO-DIIS coefs:    1.41895   -0.26263   -0.14073   -0.09515    0.07955
 Iteration  1 RMS(Cart)=  0.00027023 RMS(Int)=  0.00000007
 Iteration  2 RMS(Cart)=  0.00000006 RMS(Int)=  0.00000005
 ITry= 1 IFail=0 DXMaxC= 1.71D-03 DCOld= 1.00D+10 DXMaxT= 5.00D-02 DXLimC= 3.00D+00 Rises=F
 Variable       Old X    -DE/DX   Delta X   Delta X   Delta X     New X
                                 (Linear)    (Quad)   (Total)
    R1        4.42434   0.00001  -0.00034   0.00021  -0.00012   4.42422
    R2        3.56220  -0.00001  -0.00049   0.00031  -0.00018   3.56202
    R3        3.60358  -0.00004  -0.00054   0.00017  -0.00037   3.60321
    R4        3.09376   0.00004   0.00003   0.00028   0.00032   3.09407
    R5        4.91683  -0.00001  -0.00082  -0.00006  -0.00089   4.91594
    R6        3.43353  -0.00001   0.00007  -0.00008  -0.00000   3.43353
    R7        3.43264  -0.00000   0.00002  -0.00004  -0.00002   3.43262
    R8        3.43303   0.00001   0.00002   0.00003   0.00005   3.43307
    R9        2.06194   0.00000   0.00000   0.00001   0.00001   2.06195
   R10        2.06065   0.00000   0.00000   0.00000   0.00000   2.06065
   R11        2.06355  -0.00001   0.00000  -0.00002  -0.00002   2.06353
   R12        2.05969  -0.00002  -0.00001  -0.00002  -0.00003   2.05966
   R13        2.05967  -0.00000  -0.00000   0.00000   0.00000   2.05967
   R14        2.06390  -0.00000  -0.00000   0.00000  -0.00000   2.06390
   R15        2.06100   0.00000   0.00000   0.00000   0.00001   2.06101
   R16        2.06385  -0.00000  -0.00001   0.00000  -0.00001   2.06385
   R17        2.05970   0.00000   0.00000   0.00001   0.00001   2.05971
   R18        5.12033   0.00001   0.00031   0.00038   0.00069   5.12102
   R19        4.92078   0.00000   0.00009   0.00012   0.00021   4.92099
   R20        5.10461   0.00001  -0.00003   0.00030   0.00027   5.10487
   R21        5.14174  -0.00000   0.00001  -0.00022  -0.00021   5.14153
   R22        2.14972   0.00005   0.00000   0.00003   0.00004   2.14976
   R23        2.15070   0.00006   0.00001   0.00004   0.00005   2.15075
   R24        2.27641  -0.00000  -0.00001   0.00001  -0.00000   2.27641
   R25        2.09908   0.00000   0.00000   0.00001   0.00001   2.09909
   R26        2.82633   0.00001   0.00001   0.00003   0.00004   2.82638
   R27        2.06748   0.00001   0.00003   0.00003   0.00005   2.06753
   R28        2.06955  -0.00000  -0.00000  -0.00001  -0.00001   2.06954
   R29        2.88814   0.00000   0.00001   0.00001   0.00002   2.88816
   R30        2.05983  -0.00000  -0.00000  -0.00000  -0.00001   2.05982
   R31        2.06450   0.00000  -0.00000   0.00001   0.00001   2.06451
   R32        2.06303  -0.00000   0.00001   0.00000   0.00001   2.06304
    A1        1.67715  -0.00001  -0.00007  -0.00012  -0.00019   1.67695
    A2        1.40928   0.00001   0.00018   0.00007   0.00025   1.40953
    A3        1.51468  -0.00001   0.00010  -0.00004   0.00006   1.51474
    A4        1.71593  -0.00000  -0.00002   0.00001  -0.00000   1.71593
    A5        1.48095   0.00001  -0.00009   0.00003  -0.00006   1.48089
    A6        1.68387   0.00001  -0.00013   0.00018   0.00005   1.68393
    A7        1.54755   0.00001   0.00015   0.00024   0.00039   1.54794
    A8        1.58698  -0.00001  -0.00018  -0.00011  -0.00029   1.58670
    A9        2.05538   0.00001   0.00013   0.00004   0.00017   2.05555
   A10        1.98730   0.00001  -0.00001   0.00007   0.00006   1.98736
   A11        1.98300  -0.00002   0.00002  -0.00021  -0.00019   1.98281
   A12        1.79668  -0.00000  -0.00005   0.00006   0.00002   1.79670
   A13        1.80163   0.00000  -0.00007   0.00004  -0.00004   1.80160
   A14        1.81130   0.00000  -0.00005   0.00002  -0.00003   1.81127
   A15        1.91078  -0.00000  -0.00003   0.00001  -0.00002   1.91076
   A16        1.90194   0.00000  -0.00005  -0.00002  -0.00007   1.90187
   A17        1.94241  -0.00000   0.00012  -0.00007   0.00005   1.94246
   A18        1.89706  -0.00000  -0.00001  -0.00000  -0.00001   1.89705
   A19        1.90433   0.00000  -0.00001   0.00003   0.00002   1.90435
   A20        1.90677   0.00000  -0.00002   0.00005   0.00003   1.90680
   A21        1.89746  -0.00000  -0.00004  -0.00004  -0.00007   1.89739
   A22        1.91263  -0.00000   0.00003  -0.00000   0.00003   1.91266
   A23        1.93406  -0.00000   0.00002  -0.00004  -0.00002   1.93404
   A24        1.90445  -0.00000   0.00000   0.00002   0.00002   1.90447
   A25        1.90275   0.00000   0.00001   0.00004   0.00004   1.90280
   A26        1.91216   0.00000  -0.00001   0.00003   0.00001   1.91217
   A27        1.91058   0.00000   0.00000   0.00001   0.00002   1.91060
   A28        1.93668  -0.00000  -0.00001  -0.00003  -0.00004   1.93664
   A29        1.90643   0.00000   0.00002  -0.00000   0.00002   1.90645
   A30        1.90684   0.00000  -0.00001   0.00002   0.00001   1.90686
   A31        1.88870  -0.00000   0.00001  -0.00002  -0.00002   1.88868
   A32        1.91396   0.00000  -0.00001   0.00002   0.00000   1.91397
   A33        2.46065  -0.00000  -0.00001  -0.00005  -0.00006   2.46058
   A34        2.52639   0.00000   0.00002   0.00002   0.00004   2.52642
   A35        1.90557  -0.00001  -0.00002  -0.00001  -0.00003   1.90554
   A36        2.12289  -0.00000   0.00001   0.00001   0.00002   2.12291
   A37        1.00740   0.00001   0.00002   0.00001   0.00003   1.00743
   A38        1.39830   0.00000  -0.00002  -0.00001  -0.00002   1.39828
   A39        0.96884   0.00000   0.00002   0.00003   0.00005   0.96890
   A40        1.12973  -0.00000  -0.00005  -0.00004  -0.00008   1.12965
   A41        2.67871  -0.00001  -0.00012  -0.00008  -0.00020   2.67851
   A42        1.72748  -0.00001  -0.00003  -0.00003  -0.00006   1.72742
   A43        2.08718  -0.00000  -0.00002  -0.00003  -0.00005   2.08713
   A44        2.18876   0.00001   0.00003   0.00007   0.00010   2.18886
   A45        2.00707  -0.00001  -0.00001  -0.00004  -0.00005   2.00702
   A46        1.91084   0.00000   0.00002   0.00004   0.00006   1.91090
   A47        1.87341   0.00000   0.00002  -0.00001   0.00000   1.87341
   A48        1.93518  -0.00001  -0.00002  -0.00008  -0.00010   1.93508
   A49        1.88619  -0.00000  -0.00000   0.00001   0.00000   1.88619
   A50        1.94652   0.00001  -0.00002   0.00005   0.00003   1.94655
   A51        1.90959   0.00000   0.00001  -0.00000   0.00001   1.90960
   A52        1.53292   0.00001   0.00005   0.00002   0.00008   1.53299
   A53        2.81258   0.00000   0.00004   0.00007   0.00011   2.81269
   A54        1.79238  -0.00001   0.00001  -0.00012  -0.00011   1.79227
   A55        1.92206  -0.00000   0.00000   0.00001   0.00002   1.92208
   A56        1.94722   0.00000  -0.00001  -0.00001  -0.00002   1.94720
   A57        1.93777   0.00000   0.00003   0.00005   0.00008   1.93785
   A58        1.88355   0.00000  -0.00000   0.00001   0.00000   1.88355
   A59        1.88422   0.00000  -0.00000  -0.00000  -0.00001   1.88422
   A60        1.88692  -0.00000  -0.00002  -0.00005  -0.00007   1.88685
   A61        2.08286  -0.00000  -0.00003   0.00003  -0.00000   2.08286
   A62        3.39308  -0.00002  -0.00008  -0.00011  -0.00020   3.39288
   A63        3.08643  -0.00000   0.00011  -0.00005   0.00006   3.08649
   A64        3.16117   0.00003  -0.00008   0.00039   0.00031   3.16148
   A65        3.14474   0.00002  -0.00044   0.00045   0.00000   3.14474
   A66        3.19355   0.00000   0.00001   0.00021   0.00022   3.19377
   A67        3.14542  -0.00000   0.00004  -0.00013  -0.00009   3.14533
   A68        3.10712  -0.00003  -0.00032  -0.00001  -0.00032   3.10679
   A69        3.13813  -0.00000   0.00011  -0.00015  -0.00004   3.13809
    D1        0.08908  -0.00001  -0.00019  -0.00010  -0.00028   0.08880
    D2       -2.01651  -0.00002  -0.00022  -0.00027  -0.00049  -2.01701
    D3        2.19784  -0.00001  -0.00016  -0.00020  -0.00036   2.19748
    D4       -3.05635  -0.00000  -0.00022   0.00004  -0.00019  -3.05653
    D5        1.12125  -0.00001  -0.00026  -0.00014  -0.00040   1.12085
    D6       -0.94759  -0.00001  -0.00020  -0.00007  -0.00027  -0.94785
    D7        1.63046   0.00001  -0.00002   0.00015   0.00013   1.63059
    D8       -0.47513  -0.00000  -0.00005  -0.00003  -0.00008  -0.47521
    D9       -2.54397   0.00000   0.00001   0.00005   0.00005  -2.54391
   D10        0.05444   0.00000   0.00005   0.00000   0.00006   0.05449
   D11       -2.12248   0.00001  -0.00024   0.00023  -0.00001  -2.12248
   D12       -2.83585  -0.00001  -0.00002  -0.00010  -0.00012  -2.83597
   D13        1.27043  -0.00001  -0.00032   0.00013  -0.00019   1.27024
   D14        1.73310  -0.00001  -0.00003  -0.00014  -0.00016   1.73293
   D15       -0.44382  -0.00000  -0.00032   0.00009  -0.00023  -0.44404
   D16       -1.35365  -0.00001  -0.00014  -0.00008  -0.00021  -1.35386
   D17        2.75263  -0.00000  -0.00043   0.00015  -0.00028   2.75235
   D18        1.03475  -0.00001  -0.00006  -0.00019  -0.00025   1.03450
   D19       -1.03796  -0.00001  -0.00000  -0.00018  -0.00018  -1.03815
   D20        3.14138  -0.00001  -0.00002  -0.00019  -0.00021   3.14118
   D21       -3.04645   0.00000  -0.00002  -0.00003  -0.00005  -3.04650
   D22        1.16402   0.00000   0.00004  -0.00002   0.00002   1.16404
   D23       -0.93982   0.00000   0.00002  -0.00002  -0.00000  -0.93982
   D24       -1.16564   0.00000  -0.00011   0.00003  -0.00008  -1.16572
   D25        3.04483   0.00001  -0.00005   0.00004  -0.00002   3.04481
   D26        0.94099   0.00000  -0.00007   0.00003  -0.00004   0.94095
   D27        1.14913   0.00001  -0.00006   0.00001  -0.00005   1.14908
   D28       -0.93097   0.00001  -0.00006   0.00002  -0.00004  -0.93100
   D29       -3.04323   0.00001  -0.00007   0.00001  -0.00006  -3.04329
   D30       -1.09594  -0.00001  -0.00019  -0.00012  -0.00031  -1.09625
   D31        3.10715  -0.00001  -0.00019  -0.00012  -0.00030   3.10685
   D32        0.99489  -0.00000  -0.00020  -0.00012  -0.00032   0.99457
   D33       -2.96941  -0.00001  -0.00008  -0.00019  -0.00027  -2.96967
   D34        1.23368  -0.00001  -0.00008  -0.00018  -0.00026   1.23342
   D35       -0.87858  -0.00001  -0.00009  -0.00019  -0.00028  -0.87886
   D36       -1.01567  -0.00000   0.00001   0.00006   0.00007  -1.01561
   D37       -3.12163  -0.00000   0.00002   0.00004   0.00006  -3.12157
   D38        1.04944  -0.00000   0.00003   0.00004   0.00007   1.04951
   D39        1.23031   0.00000   0.00013  -0.00000   0.00013   1.23044
   D40       -0.87565   0.00000   0.00015  -0.00002   0.00013  -0.87552
   D41       -2.98776   0.00000   0.00016  -0.00003   0.00013  -2.98763
   D42        3.10007   0.00000   0.00004   0.00008   0.00013   3.10019
   D43        0.99411   0.00000   0.00006   0.00006   0.00012   0.99423
   D44       -1.11800   0.00000   0.00007   0.00006   0.00013  -1.11787
   D45       -0.22404  -0.00000   0.00012   0.00018   0.00030  -0.22375
   D46       -2.30532   0.00000   0.00018   0.00019   0.00037  -2.30495
   D47        1.90156  -0.00000   0.00022   0.00012   0.00033   1.90190
   D48        0.02318   0.00000   0.00015   0.00004   0.00019   0.02337
   D49       -1.03836   0.00000   0.00015   0.00004   0.00020  -1.03816
   D50       -2.09721   0.00000   0.00014   0.00001   0.00015  -2.09706
   D51        2.10839   0.00000   0.00016   0.00003   0.00019   2.10858
   D52        1.04685   0.00000   0.00017   0.00003   0.00019   1.04705
   D53       -0.01200  -0.00000   0.00015  -0.00001   0.00015  -0.01185
   D54       -2.08702   0.00000   0.00015   0.00009   0.00024  -2.08678
   D55        3.13463   0.00000   0.00015   0.00009   0.00025   3.13487
   D56        2.07577  -0.00000   0.00014   0.00006   0.00020   2.07597
   D57       -0.49552   0.00000  -0.00013  -0.00015  -0.00027  -0.49579
   D58        0.48145  -0.00000  -0.00011  -0.00018  -0.00029   0.48116
   D59        0.64567  -0.00000  -0.00005  -0.00001  -0.00006   0.64562
   D60       -2.11187   0.00001   0.00005   0.00005   0.00010  -2.11177
   D61        1.99414  -0.00001  -0.00008  -0.00003  -0.00010   1.99404
   D62       -0.76341   0.00000   0.00002   0.00003   0.00005  -0.76335
   D63        2.95868   0.00000  -0.00004   0.00002  -0.00002   2.95866
   D64        0.20113   0.00001   0.00006   0.00008   0.00014   0.20126
   D65        0.61767  -0.00000  -0.00009  -0.00000  -0.00009   0.61758
   D66       -2.79961   0.00000   0.00000   0.00002   0.00002  -2.79959
   D67       -1.88540  -0.00001  -0.00012  -0.00002  -0.00015  -1.88554
   D68        0.98051  -0.00000  -0.00003  -0.00000  -0.00004   0.98047
   D69        2.63821   0.00000  -0.00007   0.00002  -0.00005   2.63816
   D70       -0.77908   0.00000   0.00002   0.00004   0.00006  -0.77901
   D71        1.88717  -0.00000  -0.00008   0.00002  -0.00006   1.88711
   D72       -0.73134  -0.00000  -0.00010  -0.00001  -0.00011  -0.73145
   D73        0.27137   0.00000  -0.00006   0.00002  -0.00004   0.27133
   D74        3.08340   0.00001   0.00002   0.00007   0.00009   3.08349
   D75       -0.07890   0.00000  -0.00001   0.00003   0.00001  -0.07888
   D76       -2.33834  -0.00000   0.00001   0.00001   0.00002  -2.33833
   D77        0.78254  -0.00000  -0.00003  -0.00003  -0.00006   0.78249
   D78        0.12572   0.00000  -0.00002   0.00012   0.00010   0.12582
   D79        2.16906   0.00000  -0.00000   0.00014   0.00014   2.16919
   D80       -2.02927  -0.00000   0.00001   0.00008   0.00009  -2.02918
   D81       -3.03574   0.00000  -0.00005   0.00008   0.00003  -3.03571
   D82       -0.99241   0.00000  -0.00003   0.00010   0.00007  -0.99234
   D83        1.09245  -0.00000  -0.00002   0.00004   0.00002   1.09247
   D84        1.22100  -0.00000   0.00032  -0.00025   0.00008   1.22108
   D85       -0.91987   0.00000   0.00001  -0.00004  -0.00003  -0.91990
   D86       -0.81427  -0.00000   0.00030  -0.00026   0.00004  -0.81423
   D87       -2.95514   0.00000  -0.00001  -0.00006  -0.00007  -2.95521
   D88       -2.91389  -0.00001   0.00030  -0.00029   0.00001  -2.91388
   D89        1.22842  -0.00000  -0.00001  -0.00009  -0.00010   1.22833
   D90       -3.08192   0.00000  -0.00004   0.00005   0.00000  -3.08192
   D91       -0.99074   0.00000  -0.00005   0.00005   0.00000  -0.99074
   D92        1.11533  -0.00000  -0.00006   0.00001  -0.00005   1.11528
   D93        1.06691  -0.00000  -0.00004   0.00002  -0.00002   1.06689
   D94       -3.12509   0.00000  -0.00004   0.00002  -0.00002  -3.12511
   D95       -1.01902  -0.00000  -0.00005  -0.00002  -0.00007  -1.01910
   D96       -1.01890  -0.00000  -0.00003  -0.00002  -0.00005  -1.01895
   D97        1.07228  -0.00000  -0.00003  -0.00001  -0.00005   1.07223
   D98       -3.10484  -0.00000  -0.00004  -0.00006  -0.00010  -3.10494
   D99        0.13204  -0.00000   0.00009  -0.00005   0.00004   0.13208
   D100      -1.97637  -0.00000   0.00007  -0.00009  -0.00002  -1.97640
   D101       2.27337  -0.00000   0.00008  -0.00007   0.00002   2.27338
         Item               Value     Threshold  Converged?
 Maximum Force            0.000061     0.000450     YES
 RMS     Force            0.000009     0.000300     YES
 Maximum Displacement     0.001715     0.001800     YES
 RMS     Displacement     0.000270     0.001200     YES
 Predicted change in Energy=-8.955930D-08
 Optimization completed.
    -- Stationary point found.
                           ----------------------------
                           !   Optimized Parameters   !
                           ! (Angstroms and Degrees)  !
 --------------------------                            --------------------------
 ! Name  Definition              Value          Derivative Info.                !
 --------------------------------------------------------------------------------
 ! R1    R(1,2)                  2.3413         -DE/DX =    0.0                 !
 ! R2    R(1,14)                 1.885          -DE/DX =    0.0                 !
 ! R3    R(1,16)                 1.9069         -DE/DX =    0.0                 !
 ! R4    R(1,19)                 1.6371         -DE/DX =    0.0                 !
 ! R5    R(1,24)                 2.6019         -DE/DX =    0.0                 !
 ! R6    R(2,3)                  1.8169         -DE/DX =    0.0                 !
 ! R7    R(2,4)                  1.8165         -DE/DX =    0.0                 !
 ! R8    R(2,5)                  1.8167         -DE/DX =    0.0                 !
 ! R9    R(3,8)                  1.0911         -DE/DX =    0.0                 !
 ! R10   R(3,9)                  1.0904         -DE/DX =    0.0                 !
 ! R11   R(3,10)                 1.092          -DE/DX =    0.0                 !
 ! R12   R(4,11)                 1.0899         -DE/DX =    0.0                 !
 ! R13   R(4,12)                 1.0899         -DE/DX =    0.0                 !
 ! R14   R(4,13)                 1.0922         -DE/DX =    0.0                 !
 ! R15   R(5,6)                  1.0906         -DE/DX =    0.0                 !
 ! R16   R(5,7)                  1.0921         -DE/DX =    0.0                 !
 ! R17   R(5,18)                 1.0899         -DE/DX =    0.0                 !
 ! R18   R(9,20)                 2.7096         -DE/DX =    0.0                 !
 ! R19   R(11,20)                2.604          -DE/DX =    0.0                 !
 ! R20   R(11,24)                2.7012         -DE/DX =    0.0                 !
 ! R21   R(11,29)                2.7209         -DE/DX =    0.0                 !
 ! R22   R(14,15)                1.1376         -DE/DX =    0.0                 !
 ! R23   R(16,17)                1.1381         -DE/DX =    0.0001              !
 ! R24   R(20,21)                1.2046         -DE/DX =    0.0                 !
 ! R25   R(21,22)                1.1108         -DE/DX =    0.0                 !
 ! R26   R(21,23)                1.4956         -DE/DX =    0.0                 !
 ! R27   R(23,24)                1.0941         -DE/DX =    0.0                 !
 ! R28   R(23,25)                1.0952         -DE/DX =    0.0                 !
 ! R29   R(23,26)                1.5283         -DE/DX =    0.0                 !
 ! R30   R(26,27)                1.09           -DE/DX =    0.0                 !
 ! R31   R(26,28)                1.0925         -DE/DX =    0.0                 !
 ! R32   R(26,29)                1.0917         -DE/DX =    0.0                 !
 ! A1    A(2,1,16)              96.0935         -DE/DX =    0.0                 !
 ! A2    A(2,1,19)              80.746          -DE/DX =    0.0                 !
 ! A3    A(2,1,24)              86.7845         -DE/DX =    0.0                 !
 ! A4    A(14,1,16)             98.3156         -DE/DX =    0.0                 !
 ! A5    A(14,1,19)             84.8519         -DE/DX =    0.0                 !
 ! A6    A(14,1,24)             96.4789         -DE/DX =    0.0                 !
 ! A7    A(16,1,24)             88.6682         -DE/DX =    0.0                 !
 ! A8    A(19,1,24)             90.9275         -DE/DX =    0.0                 !
 ! A9    A(1,2,3)              117.7644         -DE/DX =    0.0                 !
 ! A10   A(1,2,4)              113.8641         -DE/DX =    0.0                 !
 ! A11   A(1,2,5)              113.6174         -DE/DX =    0.0                 !
 ! A12   A(3,2,4)              102.9423         -DE/DX =    0.0                 !
 ! A13   A(3,2,5)              103.2261         -DE/DX =    0.0                 !
 ! A14   A(4,2,5)              103.7797         -DE/DX =    0.0                 !
 ! A15   A(2,3,8)              109.4798         -DE/DX =    0.0                 !
 ! A16   A(2,3,9)              108.9729         -DE/DX =    0.0                 !
 ! A17   A(2,3,10)             111.2921         -DE/DX =    0.0                 !
 ! A18   A(8,3,9)              108.6937         -DE/DX =    0.0                 !
 ! A19   A(8,3,10)             109.1102         -DE/DX =    0.0                 !
 ! A20   A(9,3,10)             109.2499         -DE/DX =    0.0                 !
 ! A21   A(2,4,11)             108.7165         -DE/DX =    0.0                 !
 ! A22   A(2,4,12)             109.5859         -DE/DX =    0.0                 !
 ! A23   A(2,4,13)             110.8137         -DE/DX =    0.0                 !
 ! A24   A(11,4,12)            109.1169         -DE/DX =    0.0                 !
 ! A25   A(11,4,13)            109.0197         -DE/DX =    0.0                 !
 ! A26   A(12,4,13)            109.5587         -DE/DX =    0.0                 !
 ! A27   A(2,5,6)              109.4683         -DE/DX =    0.0                 !
 ! A28   A(2,5,7)              110.9635         -DE/DX =    0.0                 !
 ! A29   A(2,5,18)             109.2302         -DE/DX =    0.0                 !
 ! A30   A(6,5,7)              109.2539         -DE/DX =    0.0                 !
 ! A31   A(6,5,18)             108.2147         -DE/DX =    0.0                 !
 ! A32   A(7,5,18)             109.6621         -DE/DX =    0.0                 !
 ! A33   A(3,9,20)             140.9848         -DE/DX =    0.0                 !
 ! A34   A(4,11,20)            144.7512         -DE/DX =    0.0                 !
 ! A35   A(4,11,24)            109.1811         -DE/DX =    0.0                 !
 ! A36   A(4,11,29)            121.6327         -DE/DX =    0.0                 !
 ! A37   A(20,11,24)            57.7196         -DE/DX =    0.0                 !
 ! A38   A(20,11,29)            80.1167         -DE/DX =    0.0                 !
 ! A39   A(24,11,29)            55.5106         -DE/DX =    0.0                 !
 ! A40   A(9,20,11)             64.7288         -DE/DX =    0.0                 !
 ! A41   A(9,20,21)            153.4789         -DE/DX =    0.0                 !
 ! A42   A(11,20,21)            98.9772         -DE/DX =    0.0                 !
 ! A43   A(20,21,22)           119.5867         -DE/DX =    0.0                 !
 ! A44   A(20,21,23)           125.4069         -DE/DX =    0.0                 !
 ! A45   A(22,21,23)           114.9968         -DE/DX =    0.0                 !
 ! A46   A(21,23,24)           109.4832         -DE/DX =    0.0                 !
 ! A47   A(21,23,25)           107.3384         -DE/DX =    0.0                 !
 ! A48   A(21,23,26)           110.8779         -DE/DX =    0.0                 !
 ! A49   A(24,23,25)           108.0707         -DE/DX =    0.0                 !
 ! A50   A(24,23,26)           111.5274         -DE/DX =    0.0                 !
 ! A51   A(25,23,26)           109.4116         -DE/DX =    0.0                 !
 ! A52   A(1,24,11)             87.8297         -DE/DX =    0.0                 !
 ! A53   A(1,24,23)            161.1487         -DE/DX =    0.0                 !
 ! A54   A(11,24,23)           102.696          -DE/DX =    0.0                 !
 ! A55   A(23,26,27)           110.126          -DE/DX =    0.0                 !
 ! A56   A(23,26,28)           111.5673         -DE/DX =    0.0                 !
 ! A57   A(23,26,29)           111.0261         -DE/DX =    0.0                 !
 ! A58   A(27,26,28)           107.9196         -DE/DX =    0.0                 !
 ! A59   A(27,26,29)           107.9581         -DE/DX =    0.0                 !
 ! A60   A(28,26,29)           108.1127         -DE/DX =    0.0                 !
 ! A61   A(11,29,26)           119.3391         -DE/DX =    0.0                 !
 ! A62   L(2,1,14,16,-1)       194.4091         -DE/DX =    0.0                 !
 ! A63   L(16,1,19,2,-1)       176.8395         -DE/DX =    0.0                 !
 ! A64   L(1,14,15,25,-1)      181.1216         -DE/DX =    0.0                 !
 ! A65   L(1,16,17,3,-1)       180.1802         -DE/DX =    0.0                 !
 ! A66   L(2,1,14,16,-2)       182.9768         -DE/DX =    0.0                 !
 ! A67   L(16,1,19,2,-2)       180.2195         -DE/DX =    0.0                 !
 ! A68   L(1,14,15,25,-2)      178.0247         -DE/DX =    0.0                 !
 ! A69   L(1,16,17,3,-2)       179.8016         -DE/DX =    0.0                 !
 ! D1    D(16,1,2,3)             5.1038         -DE/DX =    0.0                 !
 ! D2    D(16,1,2,4)          -115.5378         -DE/DX =    0.0                 !
 ! D3    D(16,1,2,5)           125.9268         -DE/DX =    0.0                 !
 ! D4    D(19,1,2,3)          -175.1157         -DE/DX =    0.0                 !
 ! D5    D(19,1,2,4)            64.2428         -DE/DX =    0.0                 !
 ! D6    D(19,1,2,5)           -54.2927         -DE/DX =    0.0                 !
 ! D7    D(24,1,2,3)            93.4185         -DE/DX =    0.0                 !
 ! D8    D(24,1,2,4)           -27.223          -DE/DX =    0.0                 !
 ! D9    D(24,1,2,5)          -145.7585         -DE/DX =    0.0                 !
 ! D10   D(2,1,24,11)            3.1191         -DE/DX =    0.0                 !
 ! D11   D(2,1,24,23)         -121.6089         -DE/DX =    0.0                 !
 ! D12   D(14,1,24,11)        -162.482          -DE/DX =    0.0                 !
 ! D13   D(14,1,24,23)          72.79           -DE/DX =    0.0                 !
 ! D14   D(16,1,24,11)          99.2991         -DE/DX =    0.0                 !
 ! D15   D(16,1,24,23)         -25.4289         -DE/DX =    0.0                 !
 ! D16   D(19,1,24,11)         -77.5582         -DE/DX =    0.0                 !
 ! D17   D(19,1,24,23)         157.7139         -DE/DX =    0.0                 !
 ! D18   D(1,2,3,8)             59.2869         -DE/DX =    0.0                 !
 ! D19   D(1,2,3,9)            -59.471          -DE/DX =    0.0                 !
 ! D20   D(1,2,3,10)           179.988          -DE/DX =    0.0                 !
 ! D21   D(4,2,3,8)           -174.5486         -DE/DX =    0.0                 !
 ! D22   D(4,2,3,9)             66.6935         -DE/DX =    0.0                 !
 ! D23   D(4,2,3,10)           -53.8476         -DE/DX =    0.0                 !
 ! D24   D(5,2,3,8)            -66.7863         -DE/DX =    0.0                 !
 ! D25   D(5,2,3,9)            174.4558         -DE/DX =    0.0                 !
 ! D26   D(5,2,3,10)            53.9147         -DE/DX =    0.0                 !
 ! D27   D(1,2,4,11)            65.8403         -DE/DX =    0.0                 !
 ! D28   D(1,2,4,12)           -53.3404         -DE/DX =    0.0                 !
 ! D29   D(1,2,4,13)          -174.3643         -DE/DX =    0.0                 !
 ! D30   D(3,2,4,11)           -62.7925         -DE/DX =    0.0                 !
 ! D31   D(3,2,4,12)           178.0267         -DE/DX =    0.0                 !
 ! D32   D(3,2,4,13)            57.0029         -DE/DX =    0.0                 !
 ! D33   D(5,2,4,11)          -170.1345         -DE/DX =    0.0                 !
 ! D34   D(5,2,4,12)            70.6848         -DE/DX =    0.0                 !
 ! D35   D(5,2,4,13)           -50.3391         -DE/DX =    0.0                 !
 ! D36   D(1,2,5,6)            -58.1939         -DE/DX =    0.0                 !
 ! D37   D(1,2,5,7)           -178.8563         -DE/DX =    0.0                 !
 ! D38   D(1,2,5,18)            60.1286         -DE/DX =    0.0                 !
 ! D39   D(3,2,5,6)             70.4913         -DE/DX =    0.0                 !
 ! D40   D(3,2,5,7)            -50.1711         -DE/DX =    0.0                 !
 ! D41   D(3,2,5,18)          -171.1862         -DE/DX =    0.0                 !
 ! D42   D(4,2,5,6)            177.6207         -DE/DX =    0.0                 !
 ! D43   D(4,2,5,7)             56.9582         -DE/DX =    0.0                 !
 ! D44   D(4,2,5,18)           -64.0568         -DE/DX =    0.0                 !
 ! D45   D(2,3,9,20)           -12.8368         -DE/DX =    0.0                 !
 ! D46   D(8,3,9,20)          -132.0853         -DE/DX =    0.0                 !
 ! D47   D(10,3,9,20)          108.9515         -DE/DX =    0.0                 !
 ! D48   D(2,4,11,20)            1.3281         -DE/DX =    0.0                 !
 ! D49   D(2,4,11,24)          -59.4936         -DE/DX =    0.0                 !
 ! D50   D(2,4,11,29)         -120.1614         -DE/DX =    0.0                 !
 ! D51   D(12,4,11,20)         120.802          -DE/DX =    0.0                 !
 ! D52   D(12,4,11,24)          59.9803         -DE/DX =    0.0                 !
 ! D53   D(12,4,11,29)          -0.6875         -DE/DX =    0.0                 !
 ! D54   D(13,4,11,20)        -119.5774         -DE/DX =    0.0                 !
 ! D55   D(13,4,11,24)         179.6009         -DE/DX =    0.0                 !
 ! D56   D(13,4,11,29)         118.9331         -DE/DX =    0.0                 !
 ! D57   D(3,9,20,11)          -28.3911         -DE/DX =    0.0                 !
 ! D58   D(3,9,20,21)           27.585          -DE/DX =    0.0                 !
 ! D59   D(4,11,20,9)           36.9944         -DE/DX =    0.0                 !
 ! D60   D(4,11,20,21)        -121.0015         -DE/DX =    0.0                 !
 ! D61   D(24,11,20,9)         114.256          -DE/DX =    0.0                 !
 ! D62   D(24,11,20,21)        -43.7399         -DE/DX =    0.0                 !
 ! D63   D(29,11,20,9)         169.5196         -DE/DX =    0.0                 !
 ! D64   D(29,11,20,21)         11.5237         -DE/DX =    0.0                 !
 ! D65   D(4,11,24,1)           35.39           -DE/DX =    0.0                 !
 ! D66   D(4,11,24,23)        -160.4059         -DE/DX =    0.0                 !
 ! D67   D(20,11,24,1)        -108.0253         -DE/DX =    0.0                 !
 ! D68   D(20,11,24,23)         56.1788         -DE/DX =    0.0                 !
 ! D69   D(29,11,24,1)         151.1581         -DE/DX =    0.0                 !
 ! D70   D(29,11,24,23)        -44.6378         -DE/DX =    0.0                 !
 ! D71   D(4,11,29,26)         108.1269         -DE/DX =    0.0                 !
 ! D72   D(20,11,29,26)        -41.9028         -DE/DX =    0.0                 !
 ! D73   D(24,11,29,26)         15.5484         -DE/DX =    0.0                 !
 ! D74   D(9,20,21,22)         176.6661         -DE/DX =    0.0                 !
 ! D75   D(9,20,21,23)          -4.5204         -DE/DX =    0.0                 !
 ! D76   D(11,20,21,22)       -133.9771         -DE/DX =    0.0                 !
 ! D77   D(11,20,21,23)         44.8364         -DE/DX =    0.0                 !
 ! D78   D(20,21,23,24)          7.2033         -DE/DX =    0.0                 !
 ! D79   D(20,21,23,25)        124.2777         -DE/DX =    0.0                 !
 ! D80   D(20,21,23,26)       -116.2686         -DE/DX =    0.0                 !
 ! D81   D(22,21,23,24)       -173.9351         -DE/DX =    0.0                 !
 ! D82   D(22,21,23,25)        -56.8607         -DE/DX =    0.0                 !
 ! D83   D(22,21,23,26)         62.593          -DE/DX =    0.0                 !
 ! D84   D(21,23,24,1)          69.9584         -DE/DX =    0.0                 !
 ! D85   D(21,23,24,11)        -52.7046         -DE/DX =    0.0                 !
 ! D86   D(25,23,24,1)         -46.654          -DE/DX =    0.0                 !
 ! D87   D(25,23,24,11)       -169.317          -DE/DX =    0.0                 !
 ! D88   D(26,23,24,1)        -166.9535         -DE/DX =    0.0                 !
 ! D89   D(26,23,24,11)         70.3835         -DE/DX =    0.0                 !
 ! D90   D(21,23,26,27)       -176.581          -DE/DX =    0.0                 !
 ! D91   D(21,23,26,28)        -56.7653         -DE/DX =    0.0                 !
 ! D92   D(21,23,26,29)         63.9035         -DE/DX =    0.0                 !
 ! D93   D(24,23,26,27)         61.1297         -DE/DX =    0.0                 !
 ! D94   D(24,23,26,28)       -179.0546         -DE/DX =    0.0                 !
 ! D95   D(24,23,26,29)        -58.3858         -DE/DX =    0.0                 !
 ! D96   D(25,23,26,27)        -58.3787         -DE/DX =    0.0                 !
 ! D97   D(25,23,26,28)         61.437          -DE/DX =    0.0                 !
 ! D98   D(25,23,26,29)       -177.8942         -DE/DX =    0.0                 !
 ! D99   D(23,26,29,11)          7.5654         -DE/DX =    0.0                 !
 ! D100  D(27,26,29,11)       -113.2379         -DE/DX =    0.0                 !
 ! D101  D(28,26,29,11)        130.2544         -DE/DX =    0.0                 !
 --------------------------------------------------------------------------------
 Lowest energy point so far.  Saving SCF results.
 Largest change from initial coordinates is atom   17       0.012 Angstoms.
 GradGradGradGradGradGradGradGradGradGradGradGradGradGradGradGradGradGrad

 Leave Link  103 at Tue Oct  4 19:24:50 2022, MaxMem=  2952790016 cpu:               0.7 elap:               0.1
 (Enter /mnt/data/applications/G16/g16/l202.exe)
                          Input orientation:                          
 ---------------------------------------------------------------------
 Center     Atomic      Atomic             Coordinates (Angstroms)
 Number     Number       Type             X           Y           Z
 ---------------------------------------------------------------------
      1         45           0        0.843097    0.736499    0.155031
      2         15           0        0.904503   -1.600792    0.276717
      3          6           0        0.809803   -2.532190   -1.280470
      4          6           0       -0.439623   -2.320850    1.263847
      5          6           0        2.410736   -2.249585    1.058157
      6          1           0        3.284930   -1.903877    0.505205
      7          1           0        2.403364   -3.341588    1.074114
      8          1           0        1.642593   -2.248004   -1.925658
      9          1           0       -0.124171   -2.284156   -1.785696
     10          1           0        0.847423   -3.608751   -1.101506
     11          1           0       -1.386376   -2.126657    0.759943
     12          1           0       -0.458151   -1.856440    2.249711
     13          1           0       -0.307859   -3.399800    1.370359
     14          6           0        0.966374    2.584371    0.506503
     15          8           0        1.060357    3.690227    0.756191
     16          6           0        0.532290    0.833277   -1.723913
     17          8           0        0.342803    0.894372   -2.844467
     18          1           0        2.479359   -1.868378    2.076959
     19          1           0        1.104228    0.563299    1.761909
     20          8           0       -2.498710   -1.058209   -1.338095
     21          6           0       -3.212510   -0.259922   -0.786418
     22          1           0       -4.272756   -0.161723   -1.102779
     23          6           0       -2.804923    0.631399    0.343333
     24          1           0       -1.727208    0.541198    0.508766
     25          1           0       -3.016807    1.661830    0.038885
     26          6           0       -3.596036    0.302830    1.609034
     27          1           0       -3.333341    0.997885    2.406545
     28          1           0       -4.672854    0.376565    1.440044
     29          1           0       -3.375586   -0.708053    1.957382
 ---------------------------------------------------------------------
                    Distance matrix (angstroms):
                    1          2          3          4          5
     1  Rh   0.000000
     2  P    2.341262   0.000000
     3  C    3.570168   1.816948   0.000000
     4  C    3.496031   1.816475   2.842407   0.000000
     5  C    3.491394   1.816679   2.848163   2.858659   0.000000
     6  H    3.613414   2.410499   3.116034   3.823833   1.090636
     7  H    4.462055   2.431624   2.956117   3.026628   1.092144
     8  H    3.725013   2.411248   1.091132   3.809708   3.081104
     9  H    3.718385   2.403893   1.090450   3.066034   3.809783
    10  H    4.523285   2.436115   1.091983   2.984974   2.992561
    11  H    3.678877   2.399618   3.025052   1.089941   3.810787
    12  H    3.578305   2.411408   3.811368   1.089931   3.131274
    13  H    4.462140   2.429465   3.004798   1.092171   2.968370
    14  C    1.885036   4.191923   5.421899   5.158643   5.075198
    15  O    3.022103   5.314986   6.552041   6.216165   6.098859
    16  C    1.906934   3.172657   3.405881   4.451948   4.557687
    17  O    3.045030   4.035237   3.795458   5.275234   5.421374
    18  H    3.627195   2.406792   3.807938   3.063713   1.089947
    19  H    1.637145   2.632295   4.350265   3.309057   3.180337
    20  O    4.076528   3.805768   3.622458   3.550240   5.591428
    21  C    4.281019   4.458473   4.646105   4.017451   6.243565
    22  H    5.344234   5.547786   5.610980   4.995564   7.327884
    23  C    3.654389   4.329775   5.070629   3.893297   6.001178
    24  H    2.601872   3.401157   4.368467   3.227901   5.021243
    25  H    3.970968   5.106656   5.828674   4.899403   6.767297
    26  C    4.691279   5.064948   5.983142   4.118956   6.549779
    27  H    4.751871   5.408199   6.574280   4.548997   6.734882
    28  H    5.675079   6.030769   6.776546   5.022682   7.564373
    29  H    4.809624   4.684098   5.597199   3.420816   6.055282
                    6          7          8          9         10
     6  H    0.000000
     7  H    1.779839   0.000000
     8  H    2.953776   3.282275   0.000000
     9  H    4.124901   3.960442   1.772668   0.000000
    10  H    3.380762   2.688057   1.778526   1.779512   0.000000
    11  H    4.683548   3.992103   4.049917   2.845741   3.263656
    12  H    4.129917   3.431612   4.690433   4.071731   4.000722
    13  H    3.986779   2.727980   3.999328   3.352475   2.736504
    14  C    5.051740   6.124060   5.452021   5.490539   6.399579
    15  O    6.025423   7.165972   6.541705   6.599815   7.534684
    16  C    4.476383   5.362776   3.281427   3.186400   4.496478
    17  O    5.263707   6.127360   3.522526   3.382618   4.854964
    18  H    1.766526   1.783766   4.106731   4.676680   3.974261
    19  H    3.524447   4.172404   4.668127   4.711949   5.066665
    20  O    6.128899   5.921394   4.348705   2.709563   4.214007
    21  C    6.825511   6.670553   5.368646   3.825431   5.272286
    22  H    7.920816   7.708500   6.326219   4.709762   6.172377
    23  C    6.598495   6.591276   5.763652   4.496627   5.779798
    24  H    5.576732   5.697128   5.006159   3.977048   5.142351
    25  H    7.255592   7.448767   6.391889   5.221805   6.634138
    26  C    7.309973   7.039938   6.814987   5.501867   6.510901
    27  H    7.472405   7.315475   7.352802   6.216547   7.141870
    28  H    8.330706   8.001963   7.622413   6.178621   7.267440
    29  H    6.921076   6.411858   6.529285   5.202541   5.966963
                   11         12         13         14         15
    11  H    0.000000
    12  H    1.775958   0.000000
    13  H    1.776710   1.782641   0.000000
    14  C    5.271949   4.978840   6.179014   0.000000
    15  O    6.310520   5.941547   7.246910   1.137583   0.000000
    16  C    4.314166   4.899514   5.310302   2.868713   3.819939
    17  O    5.010833   5.844582   6.052110   3.804463   4.614806
    18  H    4.092083   2.942610   3.257778   4.958067   5.886941
    19  H    3.800383   2.921321   4.225335   2.383229   3.284977
    20  O    2.603965   4.203975   4.197452   5.355160   6.292904
    21  C    3.034913   4.399254   4.790357   5.217731   6.020026
    22  H    3.957511   5.353733   5.685241   6.130196   6.836328
    23  C    3.129331   3.915476   4.851873   4.250107   4.946441
    24  H    2.701242   3.223362   4.276489   3.380820   4.212852
    25  H    4.186988   4.879825   5.893328   4.115274   4.610010
    26  C    3.392044   3.862543   4.957676   5.218869   5.820979
    27  H    4.032956   4.054440   5.437541   4.961315   5.410819
    28  H    4.186836   4.837932   5.772259   6.127544   6.657155
    29  H    2.720892   3.148916   4.123232   5.638947   6.361235
                   16         17         18         19         20
    16  C    0.000000
    17  O    1.138104   0.000000
    18  H    5.053379   6.034740   0.000000
    19  H    3.542733   4.680607   2.811279   0.000000
    20  O    3.593541   3.762436   6.090988   5.021999   0.000000
    21  C    4.012170   4.267108   6.571409   5.079950   1.204624
    22  H    4.946139   5.045017   7.656008   6.135475   2.001574
    23  C    3.930808   4.487695   6.097374   4.159142   2.403277
    24  H    3.189905   3.956495   5.095143   3.096431   2.562072
    25  H    4.048462   4.493295   6.842803   4.599838   3.092427
    26  C    5.332259   5.974785   6.468657   4.709958   3.426678
    27  H    5.659583   6.410764   6.489343   4.505158   4.352753
    28  H    6.108414   6.616795   7.523269   5.789054   3.808350
    29  H    5.585617   6.281078   5.970011   4.660824   3.428073
                   21         22         23         24         25
    21  C    0.000000
    22  H    1.110788   0.000000
    23  C    1.495632   2.207898   0.000000
    24  H    2.127302   3.093702   1.094063   0.000000
    25  H    2.100608   2.491214   1.095158   1.771911   0.000000
    26  C    2.490376   2.833318   1.528338   2.181726   2.155865
    27  H    3.433903   3.813469   2.161107   2.527804   2.479280
    28  H    2.737673   2.629788   2.181027   3.093738   2.521437
    29  H    2.784933   3.235426   2.173693   2.525127   3.070130
                   26         27         28         29
    26  C    0.000000
    27  H    1.090015   0.000000
    28  H    1.092488   1.764782   0.000000
    29  H    1.091710   1.764584   1.768315   0.000000
 Stoichiometry    C8H16O3PRh
 Framework group  C1[X(C8H16O3PRh)]
 Deg. of freedom    81
 Full point group                 C1      NOp   1
 RotChk:  IX=0 Diff= 1.03D-15
 Largest Abelian subgroup         C1      NOp   1
 Largest concise Abelian subgroup C1      NOp   1
                         Standard orientation:                         
 ---------------------------------------------------------------------
 Center     Atomic      Atomic             Coordinates (Angstroms)
 Number     Number       Type             X           Y           Z
 ---------------------------------------------------------------------
      1         45           0       -0.845077    0.736737   -0.153106
      2         15           0       -0.904311   -1.600249   -0.281554
      3          6           0       -0.807757   -2.536081    1.272858
      4          6           0        0.439898   -2.316138   -1.271598
      5          6           0       -2.410401   -2.248216   -1.063955
      6          1           0       -3.284586   -1.904960   -0.509463
      7          1           0       -2.401989   -3.340160   -1.083093
      8          1           0       -1.640422   -2.254574    1.919381
      9          1           0        0.126289   -2.288618    1.778231
     10          1           0       -0.844452   -3.612152    1.090786
     11          1           0        1.386774   -2.122499   -0.767712
     12          1           0        0.457373   -1.848843   -2.256118
     13          1           0        0.309105   -3.394899   -1.381169
     14          6           0       -0.970346    2.585504   -0.499125
     15          8           0       -1.065546    3.691990   -0.745537
     16          6           0       -0.533206    0.828348    1.725920
     17          8           0       -0.343088    0.886365    2.846532
     18          1           0       -2.480017   -1.864113   -2.081601
     19          1           0       -1.107031    0.567960   -1.760321
     20          8           0        2.499373   -1.059087    1.332743
     21          6           0        3.212065   -0.258512    0.782953
     22          1           0        4.272411   -0.160213    1.098949
     23          6           0        2.802926    0.635698   -0.343950
     24          1           0        1.725196    0.544941   -0.508983
     25          1           0        3.014007    1.665443   -0.036635
     26          6           0        3.593575    0.311574   -1.611086
     27          1           0        3.329721    1.008693   -2.406410
     28          1           0        4.670425    0.385854   -1.442542
     29          1           0        3.373882   -0.698503   -1.962238
 ---------------------------------------------------------------------
 Rotational constants (GHZ):           0.4730005           0.4405136           0.3291159
 Leave Link  202 at Tue Oct  4 19:24:50 2022, MaxMem=  2952790016 cpu:               0.1 elap:               0.0
 (Enter /mnt/data/applications/G16/g16/l601.exe)
 Copying SCF densities to generalized density rwf, IOpCl= 0 IROHF=0.

 **********************************************************************

            Population analysis using the SCF density.

 **********************************************************************

 Orbital symmetries:
       Occupied  (A) (A) (A) (A) (A) (A) (A) (A) (A) (A) (A) (A)
                 (A) (A) (A) (A) (A) (A) (A) (A) (A) (A) (A) (A)
                 (A) (A) (A) (A) (A) (A) (A) (A) (A) (A) (A) (A)
                 (A) (A) (A) (A) (A) (A) (A) (A) (A) (A) (A) (A)
                 (A) (A) (A) (A) (A) (A) (A) (A) (A) (A) (A) (A)
       Virtual   (A) (A) (A) (A) (A) (A) (A) (A) (A) (A) (A) (A)
                 (A) (A) (A) (A) (A) (A) (A) (A) (A) (A) (A) (A)
                 (A) (A) (A) (A) (A) (A) (A) (A) (A) (A) (A) (A)
                 (A) (A) (A) (A) (A) (A) (A) (A) (A) (A) (A) (A)
                 (A) (A) (A) (A) (A) (A) (A) (A) (A) (A) (A) (A)
                 (A) (A) (A) (A) (A) (A) (A) (A) (A) (A) (A) (A)
                 (A) (A) (A) (A) (A) (A) (A) (A) (A) (A) (A) (A)
                 (A) (A) (A) (A) (A) (A) (A) (A) (A) (A) (A) (A)
                 (A) (A) (A) (A) (A) (A) (A) (A) (A) (A) (A) (A)
                 (A) (A) (A) (A) (A) (A) (A) (A) (A) (A) (A) (A)
                 (A) (A) (A) (A) (A) (A) (A) (A) (A) (A) (A) (A)
                 (A) (A) (A) (A) (A) (A) (A) (A) (A) (A) (A) (A)
                 (A) (A) (A) (A) (A) (A) (A) (A) (A) (A) (A) (A)
                 (A) (A) (A) (A) (A) (A) (A) (A) (A) (A) (A) (A)
                 (A) (A) (A) (A) (A) (A) (A) (A) (A) (A) (A) (A)
                 (A) (A) (A) (A) (A) (A) (A) (A) (A) (A) (A) (A)
                 (A) (A) (A) (A) (A) (A) (A) (A) (A) (A) (A) (A)
                 (A) (A) (A) (A) (A) (A) (A) (A) (A) (A) (A) (A)
                 (A) (A) (A) (A) (A) (A) (A) (A) (A) (A) (A) (A)
                 (A) (A) (A) (A) (A) (A) (A) (A) (A) (A) (A) (A)
                 (A) (A) (A) (A) (A) (A) (A) (A) (A) (A) (A) (A)
                 (A) (A) (A) (A) (A) (A) (A) (A) (A) (A) (A) (A)
                 (A) (A) (A) (A) (A) (A) (A) (A) (A) (A) (A) (A)
                 (A) (A) (A) (A) (A) (A) (A) (A) (A) (A) (A) (A)
                 (A) (A) (A) (A) (A) (A) (A) (A) (A) (A) (A) (A)
                 (A) (A) (A) (A) (A) (A) (A) (A) (A) (A) (A) (A)
                 (A) (A) (A) (A) (A) (A) (A) (A) (A) (A) (A) (A)
                 (A) (A) (A) (A) (A) (A) (A) (A) (A) (A) (A) (A)
                 (A) (A) (A) (A) (A) (A) (A) (A) (A) (A) (A) (A)
                 (A) (A) (A) (A) (A) (A) (A) (A) (A) (A) (A) (A)
                 (A) (A) (A) (A) (A) (A) (A) (A) (A) (A) (A) (A)
                 (A) (A) (A) (A) (A) (A) (A) (A) (A) (A) (A) (A)
                 (A) (A) (A) (A) (A) (A) (A) (A) (A) (A) (A) (A)
                 (A) (A) (A) (A) (A) (A) (A) (A) (A) (A) (A) (A)
                 (A) (A) (A) (A) (A) (A) (A) (A) (A) (A) (A) (A)
                 (A) (A) (A) (A) (A) (A) (A) (A) (A) (A) (A) (A)
                 (A) (A) (A) (A) (A) (A) (A) (A) (A) (A) (A) (A)
                 (A) (A) (A) (A) (A) (A)
 The electronic state is 1-A.
 Alpha  occ. eigenvalues --  -77.23973 -19.31896 -19.31812 -19.25034 -10.39989
 Alpha  occ. eigenvalues --  -10.39599 -10.37329 -10.28533 -10.28183 -10.28119
 Alpha  occ. eigenvalues --  -10.28116 -10.27882  -6.68384  -4.83070  -4.83068
 Alpha  occ. eigenvalues --   -4.82765  -3.32404  -2.08594  -2.08265  -2.04112
 Alpha  occ. eigenvalues --   -1.23398  -1.23275  -1.15519  -0.88639  -0.87865
 Alpha  occ. eigenvalues --   -0.79746  -0.79565  -0.75344  -0.66648  -0.66175
 Alpha  occ. eigenvalues --   -0.65090  -0.63714  -0.57341  -0.55682  -0.55178
 Alpha  occ. eigenvalues --   -0.54694  -0.54342  -0.54314  -0.54175  -0.53873
 Alpha  occ. eigenvalues --   -0.52934  -0.52557  -0.52054  -0.51798  -0.49722
 Alpha  occ. eigenvalues --   -0.49242  -0.49048  -0.47454  -0.46334  -0.44470
 Alpha  occ. eigenvalues --   -0.43390  -0.42501  -0.42409  -0.37155  -0.36059
 Alpha  occ. eigenvalues --   -0.34323  -0.34063  -0.32264  -0.31780  -0.27666
 Alpha virt. eigenvalues --    0.01215   0.04459   0.05055   0.06895   0.07662
 Alpha virt. eigenvalues --    0.08062   0.08540   0.08720   0.09511   0.09812
 Alpha virt. eigenvalues --    0.13014   0.13387   0.14003   0.14696   0.15534
 Alpha virt. eigenvalues --    0.16205   0.17016   0.17855   0.18316   0.18512
 Alpha virt. eigenvalues --    0.18826   0.19663   0.20054   0.20307   0.20753
 Alpha virt. eigenvalues --    0.20985   0.21366   0.21979   0.22472   0.22804
 Alpha virt. eigenvalues --    0.23666   0.24491   0.25493   0.25963   0.26227
 Alpha virt. eigenvalues --    0.26769   0.27475   0.28042   0.28539   0.28821
 Alpha virt. eigenvalues --    0.30571   0.31221   0.31835   0.33042   0.33833
 Alpha virt. eigenvalues --    0.34399   0.35304   0.35372   0.37314   0.37510
 Alpha virt. eigenvalues --    0.38237   0.39752   0.40727   0.41257   0.43127
 Alpha virt. eigenvalues --    0.43936   0.44633   0.45287   0.46065   0.46197
 Alpha virt. eigenvalues --    0.46602   0.47240   0.48202   0.48468   0.48944
 Alpha virt. eigenvalues --    0.49748   0.50312   0.50574   0.51508   0.51957
 Alpha virt. eigenvalues --    0.52414   0.52619   0.52972   0.53544   0.54154
 Alpha virt. eigenvalues --    0.54559   0.55188   0.55554   0.56005   0.56726
 Alpha virt. eigenvalues --    0.57841   0.58447   0.59015   0.59501   0.60852
 Alpha virt. eigenvalues --    0.61797   0.61967   0.62458   0.63152   0.64285
 Alpha virt. eigenvalues --    0.65161   0.65914   0.67016   0.67517   0.68425
 Alpha virt. eigenvalues --    0.68798   0.69575   0.70426   0.71261   0.72010
 Alpha virt. eigenvalues --    0.73050   0.74035   0.74784   0.75913   0.76839
 Alpha virt. eigenvalues --    0.77635   0.78184   0.79992   0.80870   0.81343
 Alpha virt. eigenvalues --    0.81995   0.82720   0.83703   0.84810   0.85477
 Alpha virt. eigenvalues --    0.87352   0.87415   0.89016   0.90079   0.91101
 Alpha virt. eigenvalues --    0.91453   0.94222   0.94973   0.95432   0.97616
 Alpha virt. eigenvalues --    0.98536   0.98981   1.00704   1.02219   1.02302
 Alpha virt. eigenvalues --    1.03957   1.05661   1.06650   1.07720   1.08130
 Alpha virt. eigenvalues --    1.09704   1.10902   1.12278   1.12835   1.13002
 Alpha virt. eigenvalues --    1.13972   1.14466   1.15456   1.16263   1.17203
 Alpha virt. eigenvalues --    1.19141   1.20126   1.20583   1.21707   1.24780
 Alpha virt. eigenvalues --    1.25844   1.27926   1.29514   1.30567   1.34507
 Alpha virt. eigenvalues --    1.35800   1.37050   1.39223   1.50096   1.51421
 Alpha virt. eigenvalues --    1.52185   1.52991   1.53461   1.54794   1.55294
 Alpha virt. eigenvalues --    1.56667   1.57429   1.58277   1.58672   1.59117
 Alpha virt. eigenvalues --    1.59726   1.60417   1.61103   1.61271   1.62067
 Alpha virt. eigenvalues --    1.62244   1.62590   1.62903   1.63084   1.63730
 Alpha virt. eigenvalues --    1.63891   1.64500   1.64957   1.65257   1.66129
 Alpha virt. eigenvalues --    1.66633   1.67065   1.67655   1.68805   1.69282
 Alpha virt. eigenvalues --    1.70580   1.71347   1.71449   1.72565   1.73549
 Alpha virt. eigenvalues --    1.73757   1.74663   1.74911   1.75849   1.76444
 Alpha virt. eigenvalues --    1.78176   1.79514   1.82296   1.83117   1.85872
 Alpha virt. eigenvalues --    1.87167   1.89369   1.91768   1.93072   1.94958
 Alpha virt. eigenvalues --    1.96340   1.99147   1.99843   2.01283   2.02126
 Alpha virt. eigenvalues --    2.03713   2.05241   2.06534   2.08509   2.09429
 Alpha virt. eigenvalues --    2.09866   2.11750   2.13243   2.14539   2.14922
 Alpha virt. eigenvalues --    2.15792   2.16298   2.17140   2.17953   2.18960
 Alpha virt. eigenvalues --    2.20206   2.20826   2.23258   2.25671   2.27057
 Alpha virt. eigenvalues --    2.29122   2.31034   2.33294   2.33702   2.34429
 Alpha virt. eigenvalues --    2.35459   2.37189   2.38389   2.40317   2.40801
 Alpha virt. eigenvalues --    2.42303   2.43111   2.44311   2.46589   2.46901
 Alpha virt. eigenvalues --    2.47047   2.48209   2.49827   2.50556   2.51512
 Alpha virt. eigenvalues --    2.53883   2.56346   2.58203   2.58911   2.61917
 Alpha virt. eigenvalues --    2.62558   2.64278   2.64929   2.65731   2.66438
 Alpha virt. eigenvalues --    2.67087   2.68448   2.69248   2.70329   2.71793
 Alpha virt. eigenvalues --    2.72660   2.72905   2.74048   2.74333   2.75184
 Alpha virt. eigenvalues --    2.75718   2.75807   2.76729   2.78148   2.80532
 Alpha virt. eigenvalues --    2.82882   2.83654   2.86683   2.87192   2.87434
 Alpha virt. eigenvalues --    2.89144   2.89900   2.90517   2.92172   2.92429
 Alpha virt. eigenvalues --    2.93930   2.94313   2.95066   2.95633   2.97003
 Alpha virt. eigenvalues --    2.97887   2.99003   3.01681   3.02861   3.03861
 Alpha virt. eigenvalues --    3.04770   3.06551   3.07065   3.08066   3.08980
 Alpha virt. eigenvalues --    3.10887   3.11223   3.12674   3.14502   3.16011
 Alpha virt. eigenvalues --    3.16639   3.17117   3.18640   3.19257   3.21600
 Alpha virt. eigenvalues --    3.22154   3.22568   3.23332   3.23853   3.24562
 Alpha virt. eigenvalues --    3.25648   3.25883   3.27358   3.29192   3.30131
 Alpha virt. eigenvalues --    3.30570   3.31756   3.33155   3.35787   3.37116
 Alpha virt. eigenvalues --    3.38387   3.38823   3.39580   3.40467   3.42177
 Alpha virt. eigenvalues --    3.43355   3.43632   3.44344   3.45820   3.47527
 Alpha virt. eigenvalues --    3.49064   3.51565   3.55127   3.55286   3.56397
 Alpha virt. eigenvalues --    3.57431   3.59382   3.61755   3.63410   3.64112
 Alpha virt. eigenvalues --    3.64756   3.67833   3.68511   3.69055   3.70255
 Alpha virt. eigenvalues --    3.70628   3.71348   3.71796   3.73353   3.73810
 Alpha virt. eigenvalues --    3.78198   3.79105   3.79386   3.81062   3.84014
 Alpha virt. eigenvalues --    3.85953   3.89652   3.97020   3.99878   4.01844
 Alpha virt. eigenvalues --    4.04151   4.04408   4.08391   4.16675   4.20512
 Alpha virt. eigenvalues --    4.32106   4.33187   4.35020   4.35626   4.36100
 Alpha virt. eigenvalues --    4.38471   4.40381   4.40925   4.42928   4.47664
 Alpha virt. eigenvalues --    4.49576   4.51190   4.53322   4.54310   4.55454
 Alpha virt. eigenvalues --    4.60864   4.65399   4.76222   4.85259   4.92336
 Alpha virt. eigenvalues --    5.19544   5.19560   5.19609   5.19660   5.27247
 Alpha virt. eigenvalues --    5.28004   5.57887   5.58237   5.58561   5.59287
 Alpha virt. eigenvalues --    5.65170   5.74528   6.21230   6.28893   6.30762
 Alpha virt. eigenvalues --    6.31619   6.33883   6.34833   6.35192   6.35600
 Alpha virt. eigenvalues --    6.36245   6.43088   6.45449   6.49568   6.55646
 Alpha virt. eigenvalues --    6.62736   6.64821   6.81720   6.81770   6.82157
 Alpha virt. eigenvalues --    6.84807   6.90171   7.03415   7.16551   7.17338
 Alpha virt. eigenvalues --    7.17873   7.86055   7.88954   7.90018  15.69341
 Alpha virt. eigenvalues --   22.39080  22.43371  22.43759  22.45549  22.59248
 Alpha virt. eigenvalues --   22.64932  22.88593  22.89674  37.65624  38.38166
 Alpha virt. eigenvalues --   38.53348  43.93203  43.95124  43.98016  49.85539
          Condensed to atoms (all electrons):
               1          2          3          4          5          6
     1  Rh  16.058853   0.253726  -0.020579  -0.018386  -0.033249  -0.004706
     2  P    0.253726  13.776749   0.333105   0.329683   0.340995  -0.021699
     3  C   -0.020579   0.333105   5.034600  -0.034899  -0.038921  -0.001778
     4  C   -0.018386   0.329683  -0.034899   5.027766  -0.033370   0.004158
     5  C   -0.033249   0.340995  -0.038921  -0.033370   5.010197   0.401491
     6  H   -0.004706  -0.021699  -0.001778   0.004158   0.401491   0.492724
     7  H    0.007770  -0.026546  -0.004715  -0.006273   0.395731  -0.022741
     8  H   -0.002609  -0.025924   0.398729   0.004134   0.000725   0.000676
     9  H   -0.004476  -0.021529   0.400398  -0.001304   0.004156  -0.000055
    10  H    0.006938  -0.023614   0.392059  -0.004983  -0.005631  -0.000104
    11  H   -0.009296  -0.022217  -0.000328   0.395514   0.004314  -0.000080
    12  H   -0.002728  -0.022467   0.003775   0.396950  -0.000531  -0.000102
    13  H    0.007276  -0.027116  -0.004144   0.394918  -0.004345  -0.000116
    14  C    0.141783  -0.029447  -0.000012   0.000361   0.000665  -0.000004
    15  O   -0.007177   0.000281  -0.000002  -0.000005  -0.000005  -0.000000
    16  C    0.095456   0.015710  -0.004573   0.000869   0.000110   0.000197
    17  O   -0.002967  -0.004241   0.002426   0.000023   0.000031  -0.000014
    18  H   -0.004404  -0.021110   0.004164  -0.000278   0.399441  -0.013358
    19  H    0.310088   0.026186   0.001243  -0.008095  -0.007305  -0.000615
    20  O    0.006666   0.009992  -0.007924  -0.011662   0.000207  -0.000000
    21  C   -0.003815  -0.000329  -0.000023  -0.003384  -0.000027  -0.000001
    22  H   -0.001359   0.000300  -0.000102  -0.000395   0.000003   0.000000
    23  C   -0.024386  -0.005965   0.000591   0.011464   0.000049   0.000005
    24  H    0.023282   0.002293  -0.000607  -0.004479   0.000175  -0.000012
    25  H   -0.001427   0.000185  -0.000001  -0.000169   0.000002   0.000000
    26  C    0.001830   0.000014   0.000017  -0.001716  -0.000017  -0.000000
    27  H    0.000699   0.000004  -0.000000   0.000031  -0.000001  -0.000000
    28  H   -0.000364   0.000003  -0.000001  -0.000013   0.000000   0.000000
    29  H   -0.000494   0.000102   0.000001  -0.000433   0.000002   0.000000
               7          8          9         10         11         12
     1  Rh   0.007770  -0.002609  -0.004476   0.006938  -0.009296  -0.002728
     2  P   -0.026546  -0.025924  -0.021529  -0.023614  -0.022217  -0.022467
     3  C   -0.004715   0.398729   0.400398   0.392059  -0.000328   0.003775
     4  C   -0.006273   0.004134  -0.001304  -0.004983   0.395514   0.396950
     5  C    0.395731   0.000725   0.004156  -0.005631   0.004314  -0.000531
     6  H   -0.022741   0.000676  -0.000055  -0.000104  -0.000080  -0.000102
     7  H    0.525375  -0.000384  -0.000139   0.003821  -0.000096  -0.000188
     8  H   -0.000384   0.499550  -0.014070  -0.021002  -0.000060  -0.000056
     9  H   -0.000139  -0.014070   0.467298  -0.018195   0.000775  -0.000093
    10  H    0.003821  -0.021002  -0.018195   0.520499  -0.000090  -0.000132
    11  H   -0.000096  -0.000060   0.000775  -0.000090   0.503007  -0.013041
    12  H   -0.000188  -0.000056  -0.000093  -0.000132  -0.013041   0.488013
    13  H    0.003830  -0.000145  -0.000198   0.003398  -0.019872  -0.020353
    14  C   -0.000010   0.000023   0.000063  -0.000008  -0.000003   0.000086
    15  O    0.000000  -0.000000  -0.000000   0.000000  -0.000000  -0.000001
    16  C   -0.000020  -0.001239  -0.000923   0.000510  -0.000047   0.000028
    17  O   -0.000001  -0.000109  -0.000098  -0.000023  -0.000011  -0.000001
    18  H   -0.021987  -0.000110  -0.000071  -0.000112  -0.000072   0.000719
    19  H    0.000449   0.000022   0.000009  -0.000010  -0.000150  -0.000727
    20  O   -0.000001   0.000159   0.007572  -0.000068   0.011353   0.000349
    21  C    0.000001   0.000011  -0.000848  -0.000003  -0.000585  -0.000102
    22  H   -0.000000   0.000003   0.000080  -0.000000   0.000593   0.000016
    23  C   -0.000008  -0.000034  -0.000000  -0.000020   0.000769  -0.000411
    24  H    0.000004   0.000035   0.000025   0.000001  -0.001702  -0.000228
    25  H   -0.000000   0.000001  -0.000012   0.000000   0.000437   0.000014
    26  C    0.000001   0.000001  -0.000004  -0.000001  -0.002369  -0.000043
    27  H    0.000000  -0.000000   0.000000   0.000000   0.000036  -0.000050
    28  H   -0.000000   0.000000   0.000001  -0.000000   0.000042   0.000021
    29  H   -0.000000   0.000000  -0.000012   0.000001   0.001752  -0.000174
              13         14         15         16         17         18
     1  Rh   0.007276   0.141783  -0.007177   0.095456  -0.002967  -0.004404
     2  P   -0.027116  -0.029447   0.000281   0.015710  -0.004241  -0.021110
     3  C   -0.004144  -0.000012  -0.000002  -0.004573   0.002426   0.004164
     4  C    0.394918   0.000361  -0.000005   0.000869   0.000023  -0.000278
     5  C   -0.004345   0.000665  -0.000005   0.000110   0.000031   0.399441
     6  H   -0.000116  -0.000004  -0.000000   0.000197  -0.000014  -0.013358
     7  H    0.003830  -0.000010   0.000000  -0.000020  -0.000001  -0.021987
     8  H   -0.000145   0.000023  -0.000000  -0.001239  -0.000109  -0.000110
     9  H   -0.000198   0.000063  -0.000000  -0.000923  -0.000098  -0.000071
    10  H    0.003398  -0.000008   0.000000   0.000510  -0.000023  -0.000112
    11  H   -0.019872  -0.000003  -0.000000  -0.000047  -0.000011  -0.000072
    12  H   -0.020353   0.000086  -0.000001   0.000028  -0.000001   0.000719
    13  H    0.516659  -0.000012   0.000000  -0.000042  -0.000001  -0.000359
    14  C   -0.000012   5.381948   0.551870   0.027499  -0.003659  -0.000041
    15  O    0.000000   0.551870   7.578912  -0.002792   0.000176  -0.000000
    16  C   -0.000042   0.027499  -0.002792   5.428436   0.540619   0.000016
    17  O   -0.000001  -0.003659   0.000176   0.540619   7.586827  -0.000001
    18  H   -0.000359  -0.000041  -0.000000   0.000016  -0.000001   0.488661
    19  H    0.000419   0.032866  -0.003560  -0.026489   0.000270  -0.000653
    20  O    0.000158   0.000197   0.000000  -0.001187  -0.000327  -0.000001
    21  C    0.000162   0.000040  -0.000002  -0.002348   0.000440   0.000002
    22  H    0.000007   0.000016   0.000000   0.000002  -0.000036  -0.000000
    23  C   -0.000410  -0.000579  -0.000009   0.004499   0.000043  -0.000006
    24  H    0.000256  -0.000644  -0.000161  -0.011054  -0.000377   0.000017
    25  H    0.000003  -0.000432   0.000017  -0.000273  -0.000042   0.000000
    26  C    0.000114   0.000122  -0.000006   0.000128  -0.000007  -0.000000
    27  H   -0.000007  -0.000037  -0.000007   0.000000  -0.000000  -0.000000
    28  H   -0.000002   0.000002  -0.000000  -0.000007   0.000000  -0.000000
    29  H    0.000066  -0.000006   0.000000   0.000009  -0.000001  -0.000000
              19         20         21         22         23         24
     1  Rh   0.310088   0.006666  -0.003815  -0.001359  -0.024386   0.023282
     2  P    0.026186   0.009992  -0.000329   0.000300  -0.005965   0.002293
     3  C    0.001243  -0.007924  -0.000023  -0.000102   0.000591  -0.000607
     4  C   -0.008095  -0.011662  -0.003384  -0.000395   0.011464  -0.004479
     5  C   -0.007305   0.000207  -0.000027   0.000003   0.000049   0.000175
     6  H   -0.000615  -0.000000  -0.000001   0.000000   0.000005  -0.000012
     7  H    0.000449  -0.000001   0.000001  -0.000000  -0.000008   0.000004
     8  H    0.000022   0.000159   0.000011   0.000003  -0.000034   0.000035
     9  H    0.000009   0.007572  -0.000848   0.000080  -0.000000   0.000025
    10  H   -0.000010  -0.000068  -0.000003  -0.000000  -0.000020   0.000001
    11  H   -0.000150   0.011353  -0.000585   0.000593   0.000769  -0.001702
    12  H   -0.000727   0.000349  -0.000102   0.000016  -0.000411  -0.000228
    13  H    0.000419   0.000158   0.000162   0.000007  -0.000410   0.000256
    14  C    0.032866   0.000197   0.000040   0.000016  -0.000579  -0.000644
    15  O   -0.003560   0.000000  -0.000002   0.000000  -0.000009  -0.000161
    16  C   -0.026489  -0.001187  -0.002348   0.000002   0.004499  -0.011054
    17  O    0.000270  -0.000327   0.000440  -0.000036   0.000043  -0.000377
    18  H   -0.000653  -0.000001   0.000002  -0.000000  -0.000006   0.000017
    19  H    0.819413   0.000090   0.000260   0.000006  -0.002800   0.004214
    20  O    0.000090   7.918340   0.559219  -0.046025  -0.116026   0.007613
    21  C    0.000260   0.559219   4.668822   0.421412   0.268147  -0.023898
    22  H    0.000006  -0.046025   0.421412   0.634598  -0.128390   0.008068
    23  C   -0.002800  -0.116026   0.268147  -0.128390   5.226943   0.364270
    24  H    0.004214   0.007613  -0.023898   0.008068   0.364270   0.568862
    25  H    0.000011   0.004300  -0.022851   0.003940   0.388498  -0.020657
    26  C    0.000243   0.002345  -0.014707   0.006140   0.259683  -0.026405
    27  H   -0.000005  -0.000279   0.005830  -0.000736  -0.032927  -0.004475
    28  H   -0.000000   0.000212  -0.002010   0.003389  -0.047087   0.008423
    29  H   -0.000018   0.001380  -0.005094   0.001271  -0.028889  -0.007611
              25         26         27         28         29
     1  Rh  -0.001427   0.001830   0.000699  -0.000364  -0.000494
     2  P    0.000185   0.000014   0.000004   0.000003   0.000102
     3  C   -0.000001   0.000017  -0.000000  -0.000001   0.000001
     4  C   -0.000169  -0.001716   0.000031  -0.000013  -0.000433
     5  C    0.000002  -0.000017  -0.000001   0.000000   0.000002
     6  H    0.000000  -0.000000  -0.000000   0.000000   0.000000
     7  H   -0.000000   0.000001   0.000000  -0.000000  -0.000000
     8  H    0.000001   0.000001  -0.000000   0.000000   0.000000
     9  H   -0.000012  -0.000004   0.000000   0.000001  -0.000012
    10  H    0.000000  -0.000001   0.000000  -0.000000   0.000001
    11  H    0.000437  -0.002369   0.000036   0.000042   0.001752
    12  H    0.000014  -0.000043  -0.000050   0.000021  -0.000174
    13  H    0.000003   0.000114  -0.000007  -0.000002   0.000066
    14  C   -0.000432   0.000122  -0.000037   0.000002  -0.000006
    15  O    0.000017  -0.000006  -0.000007  -0.000000   0.000000
    16  C   -0.000273   0.000128   0.000000  -0.000007   0.000009
    17  O   -0.000042  -0.000007  -0.000000   0.000000  -0.000001
    18  H    0.000000  -0.000000  -0.000000  -0.000000  -0.000000
    19  H    0.000011   0.000243  -0.000005  -0.000000  -0.000018
    20  O    0.004300   0.002345  -0.000279   0.000212   0.001380
    21  C   -0.022851  -0.014707   0.005830  -0.002010  -0.005094
    22  H    0.003940   0.006140  -0.000736   0.003389   0.001271
    23  C    0.388498   0.259683  -0.032927  -0.047087  -0.028889
    24  H   -0.020657  -0.026405  -0.004475   0.008423  -0.007611
    25  H    0.550318  -0.026524  -0.006524  -0.003915   0.006467
    26  C   -0.026524   4.938722   0.416449   0.419036   0.405277
    27  H   -0.006524   0.416449   0.519884  -0.021431  -0.021211
    28  H   -0.003915   0.419036  -0.021431   0.541827  -0.027165
    29  H    0.006467   0.405277  -0.021211  -0.027165   0.547449
 Mulliken charges:
               1
     1  Rh   0.228056
     2  P    0.162877
     3  C   -0.452500
     4  C   -0.436026
     5  C   -0.434894
     6  H    0.166134
     7  H    0.146126
     8  H    0.161671
     9  H    0.181654
    10  H    0.146769
    11  H    0.151425
    12  H    0.171458
    13  H    0.149856
    14  C   -0.102648
    15  O   -0.117528
    16  C   -0.063093
    17  O   -0.118941
    18  H    0.169543
    19  H   -0.145365
    20  O   -0.346651
    21  C    0.155683
    22  H    0.097198
    23  C   -0.137014
    24  H    0.114772
    25  H    0.128634
    26  C   -0.378323
    27  H    0.144757
    28  H    0.129039
    29  H    0.127331
 Sum of Mulliken charges =  -0.00000
 Mulliken charges with hydrogens summed into heavy atoms:
               1
     1  Rh   0.082691
     2  P    0.162877
     3  C    0.037594
     4  C    0.036714
     5  C    0.046910
    14  C   -0.102648
    15  O   -0.117528
    16  C   -0.063093
    17  O   -0.118941
    20  O   -0.346651
    21  C    0.252881
    23  C    0.106392
    26  C    0.022803
 Electronic spatial extent (au):  <R**2>=           3785.3400
 Charge=              0.0000 electrons
 Dipole moment (field-independent basis, Debye):
    X=              1.8846    Y=             -3.8382    Z=             -1.4254  Tot=              4.5073
 Quadrupole moment (field-independent basis, Debye-Ang):
   XX=            -91.3462   YY=           -100.4021   ZZ=           -108.3582
   XY=             11.4299   XZ=             -4.8054   YZ=              5.0763
 Traceless Quadrupole moment (field-independent basis, Debye-Ang):
   XX=              8.6893   YY=             -0.3666   ZZ=             -8.3227
   XY=             11.4299   XZ=             -4.8054   YZ=              5.0763
 Octapole moment (field-independent basis, Debye-Ang**2):
  XXX=              2.9810  YYY=             -6.6076  ZZZ=            -12.6100  XYY=            -15.9991
  XXY=             16.9568  XXZ=             -0.3436  XZZ=            -14.6458  YZZ=              7.5451
  YYZ=              1.8182  XYZ=              2.6324
 Hexadecapole moment (field-independent basis, Debye-Ang**3):
 XXXX=          -1962.7063 YYYY=          -1950.8575 ZZZZ=          -1031.7568 XXXY=              8.6338
 XXXZ=             14.0787 YYYX=             19.7218 YYYZ=             35.2356 ZZZX=              3.1455
 ZZZY=            -10.7504 XXYY=           -681.3497 XXZZ=           -527.3145 YYZZ=           -485.6067
 XXYZ=             15.2754 YYXZ=            -10.4397 ZZXY=              7.0229
 N-N= 1.070433162725D+03 E-N=-4.448569518993D+03  KE= 9.190822822200D+02
 No NMR shielding tensors so no spin-rotation constants.
 Leave Link  601 at Tue Oct  4 19:24:51 2022, MaxMem=  2952790016 cpu:              10.3 elap:               1.0
 (Enter /mnt/data/applications/G16/g16/l9999.exe)
 1\1\GINC-KIMIK2161\FOpt\RwB97XD\Gen\C8H16O3P1Rh1\DGARAY\04-Oct-2022\0\
 \#p opt=(maxstep=5) freq pseudo=read WB97XD gen scrf(smd,solvent=tolue
 ne)\\Auto-generated job for I9c\\0,1\Rh,0.8430971298,0.7364992702,0.15
 50307179\P,0.9045025152,-1.6007922129,0.2767166098\C,0.8098029608,-2.5
 321902967,-1.2804699792\C,-0.4396228461,-2.320850468,1.2638466864\C,2.
 4107358876,-2.2495854009,1.0581574737\H,3.2849303006,-1.9038773859,0.5
 052049481\H,2.403363846,-3.3415877048,1.0741137122\H,1.6425930577,-2.2
 48003918,-1.9256582913\H,-0.1241707472,-2.2841562888,-1.7856959213\H,0
 .8474232486,-3.6087511766,-1.1015058181\H,-1.3863756797,-2.126657309,0
 .7599428654\H,-0.4581512593,-1.8564395578,2.2497109009\H,-0.307858606,
 -3.3997997856,1.3703592495\C,0.966373881,2.5843711085,0.5065030016\O,1
 .0603571564,3.690227061,0.7561912758\C,0.532289944,0.8332768882,-1.723
 9127181\O,0.3428033386,0.8943715949,-2.8444674877\H,2.4793588229,-1.86
 83776667,2.0769586991\H,1.1042283985,0.5632989963,1.761908859\O,-2.498
 7103067,-1.058208572,-1.3380949267\C,-3.2125096301,-0.2599217037,-0.78
 64175803\H,-4.2727556533,-0.1617229701,-1.1027793716\C,-2.8049230763,0
 .6313985529,0.3433329832\H,-1.7272077807,0.5411980001,0.5087657222\H,-
 3.01680699,1.6618298262,0.0388851257\C,-3.5960362696,0.3028302544,1.60
 90339579\H,-3.3333412963,0.9978847818,2.4065452521\H,-4.6728536245,0.3
 765651353,1.4400440255\H,-3.3755857219,-0.7080530521,1.9573820282\\Ver
 sion=AM64L-G16RevA.03\State=1-A\HF=-992.2369202\RMSD=8.786e-09\RMSF=2.
 129e-05\Dipole=-0.7403311,-1.5124126,0.55596\Quadrupole=6.4810011,-0.2
 669567,-6.2140444,-8.4786593,-3.585996,-3.7655058\PG=C01 [X(C8H16O3P1R
 h1)]\\@


     "IF I COULD JUST GET IT ON PAPER"
 LIFE AND INK, THEY RUN OUT AT THE SAME TIME,
 OR SO SAID MY OLD FRIEND THE SQUID.
     -- JIMMY BUFFETT, 1981
 Leave Link 9999 at Tue Oct  4 19:24:51 2022, MaxMem=  2952790016 cpu:               0.5 elap:               0.1
 Job cpu time:       0 days 16 hours  8 minutes 34.1 seconds.
 Elapsed time:       0 days  1 hours 21 minutes 16.2 seconds.
 File lengths (MBytes):  RWF=    280 Int=      0 D2E=      0 Chk=     23 Scr=      1
 Normal termination of Gaussian 16 at Tue Oct  4 19:24:51 2022.
 (Enter /mnt/data/applications/G16/g16/l1.exe)
 Link1:  Proceeding to internal job step number  2.
 -------------------------------------------------------------------
 #P Geom=AllCheck Guess=TCheck SCRF=Check GenChk RwB97XD/ChkBas Freq
 -------------------------------------------------------------------
 1/8=5,10=4,29=7,30=1,38=1,40=1/1,3;
 2/12=2,40=1/2;
 3/5=7,6=2,11=2,14=-4,16=1,17=8,25=1,30=1,67=1,70=2,71=2,74=-58,82=7,116=1,140=1/1,2,3;
 4/5=101/1;
 5/5=2,38=6,98=1/2;
 8/6=4,10=90,11=11/1;
 11/6=1,8=1,9=11,15=111,16=1/1,2,10;
 10/6=1/2;
 6/7=2,8=2,9=2,10=2,28=1/1;
 7/8=1,10=1,25=1/1,2,3,16;
 1/8=5,10=4,30=1/3;
 99//99;
 Leave Link    1 at Tue Oct  4 19:24:51 2022, MaxMem=  2952790016 cpu:               0.8 elap:               0.1
 (Enter /mnt/data/applications/G16/g16/l101.exe)
 Structure from the checkpoint file:  "I9c.chk"
 --------------------------
 Auto-generated job for I9c
 --------------------------
 Charge =  0 Multiplicity = 1
 Redundant internal coordinates found in file.  (old form).
 Rh,0,0.8430971298,0.7364992702,0.1550307179
 P,0,0.9045025152,-1.6007922129,0.2767166098
 C,0,0.8098029608,-2.5321902967,-1.2804699792
 C,0,-0.4396228461,-2.320850468,1.2638466864
 C,0,2.4107358876,-2.2495854009,1.0581574737
 H,0,3.2849303006,-1.9038773859,0.5052049481
 H,0,2.403363846,-3.3415877048,1.0741137122
 H,0,1.6425930577,-2.248003918,-1.9256582913
 H,0,-0.1241707472,-2.2841562888,-1.7856959213
 H,0,0.8474232486,-3.6087511766,-1.1015058181
 H,0,-1.3863756797,-2.126657309,0.7599428654
 H,0,-0.4581512593,-1.8564395578,2.2497109009
 H,0,-0.307858606,-3.3997997856,1.3703592495
 C,0,0.966373881,2.5843711085,0.5065030016
 O,0,1.0603571564,3.690227061,0.7561912758
 C,0,0.532289944,0.8332768882,-1.7239127181
 O,0,0.3428033386,0.8943715949,-2.8444674877
 H,0,2.4793588229,-1.8683776667,2.0769586991
 H,0,1.1042283985,0.5632989963,1.761908859
 O,0,-2.4987103067,-1.058208572,-1.3380949267
 C,0,-3.2125096301,-0.2599217037,-0.7864175803
 H,0,-4.2727556533,-0.1617229701,-1.1027793716
 C,0,-2.8049230763,0.6313985529,0.3433329832
 H,0,-1.7272077807,0.5411980001,0.5087657222
 H,0,-3.01680699,1.6618298262,0.0388851257
 C,0,-3.5960362696,0.3028302544,1.6090339579
 H,0,-3.3333412963,0.9978847818,2.4065452521
 H,0,-4.6728536245,0.3765651353,1.4400440255
 H,0,-3.3755857219,-0.7080530521,1.9573820282
 Recover connectivity data from disk.
 ITRead=  0  0  0  0  0  0  0  0  0  0  0  0  0  0  0  0  0  0  0  0
 ITRead=  0  0  0  0  0  0  0  0  0
 MicOpt= -1 -1 -1 -1 -1 -1 -1 -1 -1 -1 -1 -1 -1 -1 -1 -1 -1 -1 -1 -1
 MicOpt= -1 -1 -1 -1 -1 -1 -1 -1 -1
 NAtoms=     29 NQM=       29 NQMF=       0 NMMI=      0 NMMIF=      0
                NMic=       0 NMicF=      0.
                    Isotopes and Nuclear Properties:
 (Nuclear quadrupole moments (NQMom) in fm**2, nuclear magnetic moments (NMagM)
  in nuclear magnetons)

  Atom         1           2           3           4           5           6           7           8           9          10
 IAtWgt=         103          31          12          12          12           1           1           1           1           1
 AtmWgt= 102.9048000  30.9737634  12.0000000  12.0000000  12.0000000   1.0078250   1.0078250   1.0078250   1.0078250   1.0078250
 NucSpn=           1           1           0           0           0           1           1           1           1           1
 AtZEff= 229.5000000  12.9400000   3.6000000   3.6000000   3.6000000   1.0000000   1.0000000   1.0000000   1.0000000   1.0000000
 NQMom=    0.0000000   0.0000000   0.0000000   0.0000000   0.0000000   0.0000000   0.0000000   0.0000000   0.0000000   0.0000000
 NMagM=   -0.0884000   1.1316000   0.0000000   0.0000000   0.0000000   2.7928460   2.7928460   2.7928460   2.7928460   2.7928460
 AtZNuc=  45.0000000  15.0000000   6.0000000   6.0000000   6.0000000   1.0000000   1.0000000   1.0000000   1.0000000   1.0000000

  Atom        11          12          13          14          15          16          17          18          19          20
 IAtWgt=           1           1           1          12          16          12          16           1           1          16
 AtmWgt=   1.0078250   1.0078250   1.0078250  12.0000000  15.9949146  12.0000000  15.9949146   1.0078250   1.0078250  15.9949146
 NucSpn=           1           1           1           0           0           0           0           1           1           0
 AtZEff=   1.0000000   1.0000000   1.0000000   3.6000000   5.6000000   3.6000000   5.6000000   1.0000000   1.0000000   5.6000000
 NQMom=    0.0000000   0.0000000   0.0000000   0.0000000   0.0000000   0.0000000   0.0000000   0.0000000   0.0000000   0.0000000
 NMagM=    2.7928460   2.7928460   2.7928460   0.0000000   0.0000000   0.0000000   0.0000000   2.7928460   2.7928460   0.0000000
 AtZNuc=   1.0000000   1.0000000   1.0000000   6.0000000   8.0000000   6.0000000   8.0000000   1.0000000   1.0000000   8.0000000

  Atom        21          22          23          24          25          26          27          28          29
 IAtWgt=          12           1          12           1           1          12           1           1           1
 AtmWgt=  12.0000000   1.0078250  12.0000000   1.0078250   1.0078250  12.0000000   1.0078250   1.0078250   1.0078250
 NucSpn=           0           1           0           1           1           0           1           1           1
 AtZEff=   3.6000000   1.0000000   3.6000000   1.0000000   1.0000000   3.6000000   1.0000000   1.0000000   1.0000000
 NQMom=    0.0000000   0.0000000   0.0000000   0.0000000   0.0000000   0.0000000   0.0000000   0.0000000   0.0000000
 NMagM=    0.0000000   2.7928460   0.0000000   2.7928460   2.7928460   0.0000000   2.7928460   2.7928460   2.7928460
 AtZNuc=   6.0000000   1.0000000   6.0000000   1.0000000   1.0000000   6.0000000   1.0000000   1.0000000   1.0000000
 Leave Link  101 at Tue Oct  4 19:24:52 2022, MaxMem=  2952790016 cpu:               5.1 elap:               0.4
 (Enter /mnt/data/applications/G16/g16/l103.exe)

 GradGradGradGradGradGradGradGradGradGradGradGradGradGradGradGradGradGrad
 Berny optimization.
 Initialization pass.
                           ----------------------------
                           !    Initial Parameters    !
                           ! (Angstroms and Degrees)  !
 --------------------------                            --------------------------
 ! Name  Definition              Value          Derivative Info.                !
 --------------------------------------------------------------------------------
 ! R1    R(1,2)                  2.3413         calculate D2E/DX2 analytically  !
 ! R2    R(1,14)                 1.885          calculate D2E/DX2 analytically  !
 ! R3    R(1,16)                 1.9069         calculate D2E/DX2 analytically  !
 ! R4    R(1,19)                 1.6371         calculate D2E/DX2 analytically  !
 ! R5    R(1,24)                 2.6019         calculate D2E/DX2 analytically  !
 ! R6    R(2,3)                  1.8169         calculate D2E/DX2 analytically  !
 ! R7    R(2,4)                  1.8165         calculate D2E/DX2 analytically  !
 ! R8    R(2,5)                  1.8167         calculate D2E/DX2 analytically  !
 ! R9    R(3,8)                  1.0911         calculate D2E/DX2 analytically  !
 ! R10   R(3,9)                  1.0904         calculate D2E/DX2 analytically  !
 ! R11   R(3,10)                 1.092          calculate D2E/DX2 analytically  !
 ! R12   R(4,11)                 1.0899         calculate D2E/DX2 analytically  !
 ! R13   R(4,12)                 1.0899         calculate D2E/DX2 analytically  !
 ! R14   R(4,13)                 1.0922         calculate D2E/DX2 analytically  !
 ! R15   R(5,6)                  1.0906         calculate D2E/DX2 analytically  !
 ! R16   R(5,7)                  1.0921         calculate D2E/DX2 analytically  !
 ! R17   R(5,18)                 1.0899         calculate D2E/DX2 analytically  !
 ! R18   R(9,20)                 2.7096         calculate D2E/DX2 analytically  !
 ! R19   R(11,20)                2.604          calculate D2E/DX2 analytically  !
 ! R20   R(11,24)                2.7012         calculate D2E/DX2 analytically  !
 ! R21   R(11,29)                2.7209         calculate D2E/DX2 analytically  !
 ! R22   R(14,15)                1.1376         calculate D2E/DX2 analytically  !
 ! R23   R(16,17)                1.1381         calculate D2E/DX2 analytically  !
 ! R24   R(20,21)                1.2046         calculate D2E/DX2 analytically  !
 ! R25   R(21,22)                1.1108         calculate D2E/DX2 analytically  !
 ! R26   R(21,23)                1.4956         calculate D2E/DX2 analytically  !
 ! R27   R(23,24)                1.0941         calculate D2E/DX2 analytically  !
 ! R28   R(23,25)                1.0952         calculate D2E/DX2 analytically  !
 ! R29   R(23,26)                1.5283         calculate D2E/DX2 analytically  !
 ! R30   R(26,27)                1.09           calculate D2E/DX2 analytically  !
 ! R31   R(26,28)                1.0925         calculate D2E/DX2 analytically  !
 ! R32   R(26,29)                1.0917         calculate D2E/DX2 analytically  !
 ! A1    A(2,1,16)              96.0935         calculate D2E/DX2 analytically  !
 ! A2    A(2,1,19)              80.746          calculate D2E/DX2 analytically  !
 ! A3    A(2,1,24)              86.7845         calculate D2E/DX2 analytically  !
 ! A4    A(14,1,16)             98.3156         calculate D2E/DX2 analytically  !
 ! A5    A(14,1,19)             84.8519         calculate D2E/DX2 analytically  !
 ! A6    A(14,1,24)             96.4789         calculate D2E/DX2 analytically  !
 ! A7    A(16,1,24)             88.6682         calculate D2E/DX2 analytically  !
 ! A8    A(19,1,24)             90.9275         calculate D2E/DX2 analytically  !
 ! A9    A(1,2,3)              117.7644         calculate D2E/DX2 analytically  !
 ! A10   A(1,2,4)              113.8641         calculate D2E/DX2 analytically  !
 ! A11   A(1,2,5)              113.6174         calculate D2E/DX2 analytically  !
 ! A12   A(3,2,4)              102.9423         calculate D2E/DX2 analytically  !
 ! A13   A(3,2,5)              103.2261         calculate D2E/DX2 analytically  !
 ! A14   A(4,2,5)              103.7797         calculate D2E/DX2 analytically  !
 ! A15   A(2,3,8)              109.4798         calculate D2E/DX2 analytically  !
 ! A16   A(2,3,9)              108.9729         calculate D2E/DX2 analytically  !
 ! A17   A(2,3,10)             111.2921         calculate D2E/DX2 analytically  !
 ! A18   A(8,3,9)              108.6937         calculate D2E/DX2 analytically  !
 ! A19   A(8,3,10)             109.1102         calculate D2E/DX2 analytically  !
 ! A20   A(9,3,10)             109.2499         calculate D2E/DX2 analytically  !
 ! A21   A(2,4,11)             108.7165         calculate D2E/DX2 analytically  !
 ! A22   A(2,4,12)             109.5859         calculate D2E/DX2 analytically  !
 ! A23   A(2,4,13)             110.8137         calculate D2E/DX2 analytically  !
 ! A24   A(11,4,12)            109.1169         calculate D2E/DX2 analytically  !
 ! A25   A(11,4,13)            109.0197         calculate D2E/DX2 analytically  !
 ! A26   A(12,4,13)            109.5587         calculate D2E/DX2 analytically  !
 ! A27   A(2,5,6)              109.4683         calculate D2E/DX2 analytically  !
 ! A28   A(2,5,7)              110.9635         calculate D2E/DX2 analytically  !
 ! A29   A(2,5,18)             109.2302         calculate D2E/DX2 analytically  !
 ! A30   A(6,5,7)              109.2539         calculate D2E/DX2 analytically  !
 ! A31   A(6,5,18)             108.2147         calculate D2E/DX2 analytically  !
 ! A32   A(7,5,18)             109.6621         calculate D2E/DX2 analytically  !
 ! A33   A(3,9,20)             140.9848         calculate D2E/DX2 analytically  !
 ! A34   A(4,11,20)            144.7512         calculate D2E/DX2 analytically  !
 ! A35   A(4,11,24)            109.1811         calculate D2E/DX2 analytically  !
 ! A36   A(4,11,29)            121.6327         calculate D2E/DX2 analytically  !
 ! A37   A(20,11,24)            57.7196         calculate D2E/DX2 analytically  !
 ! A38   A(20,11,29)            80.1167         calculate D2E/DX2 analytically  !
 ! A39   A(24,11,29)            55.5106         calculate D2E/DX2 analytically  !
 ! A40   A(9,20,11)             64.7288         calculate D2E/DX2 analytically  !
 ! A41   A(9,20,21)            153.4789         calculate D2E/DX2 analytically  !
 ! A42   A(11,20,21)            98.9772         calculate D2E/DX2 analytically  !
 ! A43   A(20,21,22)           119.5867         calculate D2E/DX2 analytically  !
 ! A44   A(20,21,23)           125.4069         calculate D2E/DX2 analytically  !
 ! A45   A(22,21,23)           114.9968         calculate D2E/DX2 analytically  !
 ! A46   A(21,23,24)           109.4832         calculate D2E/DX2 analytically  !
 ! A47   A(21,23,25)           107.3384         calculate D2E/DX2 analytically  !
 ! A48   A(21,23,26)           110.8779         calculate D2E/DX2 analytically  !
 ! A49   A(24,23,25)           108.0707         calculate D2E/DX2 analytically  !
 ! A50   A(24,23,26)           111.5274         calculate D2E/DX2 analytically  !
 ! A51   A(25,23,26)           109.4116         calculate D2E/DX2 analytically  !
 ! A52   A(1,24,11)             87.8297         calculate D2E/DX2 analytically  !
 ! A53   A(1,24,23)            161.1487         calculate D2E/DX2 analytically  !
 ! A54   A(11,24,23)           102.696          calculate D2E/DX2 analytically  !
 ! A55   A(23,26,27)           110.126          calculate D2E/DX2 analytically  !
 ! A56   A(23,26,28)           111.5673         calculate D2E/DX2 analytically  !
 ! A57   A(23,26,29)           111.0261         calculate D2E/DX2 analytically  !
 ! A58   A(27,26,28)           107.9196         calculate D2E/DX2 analytically  !
 ! A59   A(27,26,29)           107.9581         calculate D2E/DX2 analytically  !
 ! A60   A(28,26,29)           108.1127         calculate D2E/DX2 analytically  !
 ! A61   A(11,29,26)           119.3391         calculate D2E/DX2 analytically  !
 ! A62   L(2,1,14,16,-1)       194.4091         calculate D2E/DX2 analytically  !
 ! A63   L(16,1,19,2,-1)       176.8395         calculate D2E/DX2 analytically  !
 ! A64   L(1,14,15,25,-1)      181.1216         calculate D2E/DX2 analytically  !
 ! A65   L(1,16,17,3,-1)       180.1802         calculate D2E/DX2 analytically  !
 ! A66   L(2,1,14,16,-2)       182.9768         calculate D2E/DX2 analytically  !
 ! A67   L(16,1,19,2,-2)       180.2195         calculate D2E/DX2 analytically  !
 ! A68   L(1,14,15,25,-2)      178.0247         calculate D2E/DX2 analytically  !
 ! A69   L(1,16,17,3,-2)       179.8016         calculate D2E/DX2 analytically  !
 ! D1    D(16,1,2,3)             5.1038         calculate D2E/DX2 analytically  !
 ! D2    D(16,1,2,4)          -115.5378         calculate D2E/DX2 analytically  !
 ! D3    D(16,1,2,5)           125.9268         calculate D2E/DX2 analytically  !
 ! D4    D(19,1,2,3)          -175.1157         calculate D2E/DX2 analytically  !
 ! D5    D(19,1,2,4)            64.2428         calculate D2E/DX2 analytically  !
 ! D6    D(19,1,2,5)           -54.2927         calculate D2E/DX2 analytically  !
 ! D7    D(24,1,2,3)            93.4185         calculate D2E/DX2 analytically  !
 ! D8    D(24,1,2,4)           -27.223          calculate D2E/DX2 analytically  !
 ! D9    D(24,1,2,5)          -145.7585         calculate D2E/DX2 analytically  !
 ! D10   D(2,1,24,11)            3.1191         calculate D2E/DX2 analytically  !
 ! D11   D(2,1,24,23)         -121.6089         calculate D2E/DX2 analytically  !
 ! D12   D(14,1,24,11)        -162.482          calculate D2E/DX2 analytically  !
 ! D13   D(14,1,24,23)          72.79           calculate D2E/DX2 analytically  !
 ! D14   D(16,1,24,11)          99.2991         calculate D2E/DX2 analytically  !
 ! D15   D(16,1,24,23)         -25.4289         calculate D2E/DX2 analytically  !
 ! D16   D(19,1,24,11)         -77.5582         calculate D2E/DX2 analytically  !
 ! D17   D(19,1,24,23)         157.7139         calculate D2E/DX2 analytically  !
 ! D18   D(1,2,3,8)             59.2869         calculate D2E/DX2 analytically  !
 ! D19   D(1,2,3,9)            -59.471          calculate D2E/DX2 analytically  !
 ! D20   D(1,2,3,10)           179.988          calculate D2E/DX2 analytically  !
 ! D21   D(4,2,3,8)           -174.5486         calculate D2E/DX2 analytically  !
 ! D22   D(4,2,3,9)             66.6935         calculate D2E/DX2 analytically  !
 ! D23   D(4,2,3,10)           -53.8476         calculate D2E/DX2 analytically  !
 ! D24   D(5,2,3,8)            -66.7863         calculate D2E/DX2 analytically  !
 ! D25   D(5,2,3,9)            174.4558         calculate D2E/DX2 analytically  !
 ! D26   D(5,2,3,10)            53.9147         calculate D2E/DX2 analytically  !
 ! D27   D(1,2,4,11)            65.8403         calculate D2E/DX2 analytically  !
 ! D28   D(1,2,4,12)           -53.3404         calculate D2E/DX2 analytically  !
 ! D29   D(1,2,4,13)          -174.3643         calculate D2E/DX2 analytically  !
 ! D30   D(3,2,4,11)           -62.7925         calculate D2E/DX2 analytically  !
 ! D31   D(3,2,4,12)           178.0267         calculate D2E/DX2 analytically  !
 ! D32   D(3,2,4,13)            57.0029         calculate D2E/DX2 analytically  !
 ! D33   D(5,2,4,11)          -170.1345         calculate D2E/DX2 analytically  !
 ! D34   D(5,2,4,12)            70.6848         calculate D2E/DX2 analytically  !
 ! D35   D(5,2,4,13)           -50.3391         calculate D2E/DX2 analytically  !
 ! D36   D(1,2,5,6)            -58.1939         calculate D2E/DX2 analytically  !
 ! D37   D(1,2,5,7)           -178.8563         calculate D2E/DX2 analytically  !
 ! D38   D(1,2,5,18)            60.1286         calculate D2E/DX2 analytically  !
 ! D39   D(3,2,5,6)             70.4913         calculate D2E/DX2 analytically  !
 ! D40   D(3,2,5,7)            -50.1711         calculate D2E/DX2 analytically  !
 ! D41   D(3,2,5,18)          -171.1862         calculate D2E/DX2 analytically  !
 ! D42   D(4,2,5,6)            177.6207         calculate D2E/DX2 analytically  !
 ! D43   D(4,2,5,7)             56.9582         calculate D2E/DX2 analytically  !
 ! D44   D(4,2,5,18)           -64.0568         calculate D2E/DX2 analytically  !
 ! D45   D(2,3,9,20)           -12.8368         calculate D2E/DX2 analytically  !
 ! D46   D(8,3,9,20)          -132.0853         calculate D2E/DX2 analytically  !
 ! D47   D(10,3,9,20)          108.9515         calculate D2E/DX2 analytically  !
 ! D48   D(2,4,11,20)            1.3281         calculate D2E/DX2 analytically  !
 ! D49   D(2,4,11,24)          -59.4936         calculate D2E/DX2 analytically  !
 ! D50   D(2,4,11,29)         -120.1614         calculate D2E/DX2 analytically  !
 ! D51   D(12,4,11,20)         120.802          calculate D2E/DX2 analytically  !
 ! D52   D(12,4,11,24)          59.9803         calculate D2E/DX2 analytically  !
 ! D53   D(12,4,11,29)          -0.6875         calculate D2E/DX2 analytically  !
 ! D54   D(13,4,11,20)        -119.5774         calculate D2E/DX2 analytically  !
 ! D55   D(13,4,11,24)         179.6009         calculate D2E/DX2 analytically  !
 ! D56   D(13,4,11,29)         118.9331         calculate D2E/DX2 analytically  !
 ! D57   D(3,9,20,11)          -28.3911         calculate D2E/DX2 analytically  !
 ! D58   D(3,9,20,21)           27.585          calculate D2E/DX2 analytically  !
 ! D59   D(4,11,20,9)           36.9944         calculate D2E/DX2 analytically  !
 ! D60   D(4,11,20,21)        -121.0015         calculate D2E/DX2 analytically  !
 ! D61   D(24,11,20,9)         114.256          calculate D2E/DX2 analytically  !
 ! D62   D(24,11,20,21)        -43.7399         calculate D2E/DX2 analytically  !
 ! D63   D(29,11,20,9)         169.5196         calculate D2E/DX2 analytically  !
 ! D64   D(29,11,20,21)         11.5237         calculate D2E/DX2 analytically  !
 ! D65   D(4,11,24,1)           35.39           calculate D2E/DX2 analytically  !
 ! D66   D(4,11,24,23)        -160.4059         calculate D2E/DX2 analytically  !
 ! D67   D(20,11,24,1)        -108.0253         calculate D2E/DX2 analytically  !
 ! D68   D(20,11,24,23)         56.1788         calculate D2E/DX2 analytically  !
 ! D69   D(29,11,24,1)         151.1581         calculate D2E/DX2 analytically  !
 ! D70   D(29,11,24,23)        -44.6378         calculate D2E/DX2 analytically  !
 ! D71   D(4,11,29,26)         108.1269         calculate D2E/DX2 analytically  !
 ! D72   D(20,11,29,26)        -41.9028         calculate D2E/DX2 analytically  !
 ! D73   D(24,11,29,26)         15.5484         calculate D2E/DX2 analytically  !
 ! D74   D(9,20,21,22)         176.6661         calculate D2E/DX2 analytically  !
 ! D75   D(9,20,21,23)          -4.5204         calculate D2E/DX2 analytically  !
 ! D76   D(11,20,21,22)       -133.9771         calculate D2E/DX2 analytically  !
 ! D77   D(11,20,21,23)         44.8364         calculate D2E/DX2 analytically  !
 ! D78   D(20,21,23,24)          7.2033         calculate D2E/DX2 analytically  !
 ! D79   D(20,21,23,25)        124.2777         calculate D2E/DX2 analytically  !
 ! D80   D(20,21,23,26)       -116.2686         calculate D2E/DX2 analytically  !
 ! D81   D(22,21,23,24)       -173.9351         calculate D2E/DX2 analytically  !
 ! D82   D(22,21,23,25)        -56.8607         calculate D2E/DX2 analytically  !
 ! D83   D(22,21,23,26)         62.593          calculate D2E/DX2 analytically  !
 ! D84   D(21,23,24,1)          69.9584         calculate D2E/DX2 analytically  !
 ! D85   D(21,23,24,11)        -52.7046         calculate D2E/DX2 analytically  !
 ! D86   D(25,23,24,1)         -46.654          calculate D2E/DX2 analytically  !
 ! D87   D(25,23,24,11)       -169.317          calculate D2E/DX2 analytically  !
 ! D88   D(26,23,24,1)        -166.9535         calculate D2E/DX2 analytically  !
 ! D89   D(26,23,24,11)         70.3835         calculate D2E/DX2 analytically  !
 ! D90   D(21,23,26,27)       -176.581          calculate D2E/DX2 analytically  !
 ! D91   D(21,23,26,28)        -56.7653         calculate D2E/DX2 analytically  !
 ! D92   D(21,23,26,29)         63.9035         calculate D2E/DX2 analytically  !
 ! D93   D(24,23,26,27)         61.1297         calculate D2E/DX2 analytically  !
 ! D94   D(24,23,26,28)       -179.0546         calculate D2E/DX2 analytically  !
 ! D95   D(24,23,26,29)        -58.3858         calculate D2E/DX2 analytically  !
 ! D96   D(25,23,26,27)        -58.3787         calculate D2E/DX2 analytically  !
 ! D97   D(25,23,26,28)         61.437          calculate D2E/DX2 analytically  !
 ! D98   D(25,23,26,29)       -177.8942         calculate D2E/DX2 analytically  !
 ! D99   D(23,26,29,11)          7.5654         calculate D2E/DX2 analytically  !
 ! D100  D(27,26,29,11)       -113.2379         calculate D2E/DX2 analytically  !
 ! D101  D(28,26,29,11)        130.2544         calculate D2E/DX2 analytically  !
 --------------------------------------------------------------------------------
 Trust Radius=5.00D-02 FncErr=1.00D-07 GrdErr=1.00D-07 EigMax=2.50D+02 EigMin=1.00D-04
 Number of steps in this run=      2 maximum allowed number of steps=      2.
 GradGradGradGradGradGradGradGradGradGradGradGradGradGradGradGradGradGrad

 Leave Link  103 at Tue Oct  4 19:24:52 2022, MaxMem=  2952790016 cpu:               0.1 elap:               0.0
 (Enter /mnt/data/applications/G16/g16/l202.exe)
                          Input orientation:                          
 ---------------------------------------------------------------------
 Center     Atomic      Atomic             Coordinates (Angstroms)
 Number     Number       Type             X           Y           Z
 ---------------------------------------------------------------------
      1         45           0        0.843097    0.736499    0.155031
      2         15           0        0.904503   -1.600792    0.276717
      3          6           0        0.809803   -2.532190   -1.280470
      4          6           0       -0.439623   -2.320850    1.263847
      5          6           0        2.410736   -2.249585    1.058157
      6          1           0        3.284930   -1.903877    0.505205
      7          1           0        2.403364   -3.341588    1.074114
      8          1           0        1.642593   -2.248004   -1.925658
      9          1           0       -0.124171   -2.284156   -1.785696
     10          1           0        0.847423   -3.608751   -1.101506
     11          1           0       -1.386376   -2.126657    0.759943
     12          1           0       -0.458151   -1.856440    2.249711
     13          1           0       -0.307859   -3.399800    1.370359
     14          6           0        0.966374    2.584371    0.506503
     15          8           0        1.060357    3.690227    0.756191
     16          6           0        0.532290    0.833277   -1.723913
     17          8           0        0.342803    0.894372   -2.844467
     18          1           0        2.479359   -1.868378    2.076959
     19          1           0        1.104228    0.563299    1.761909
     20          8           0       -2.498710   -1.058209   -1.338095
     21          6           0       -3.212510   -0.259922   -0.786418
     22          1           0       -4.272756   -0.161723   -1.102779
     23          6           0       -2.804923    0.631399    0.343333
     24          1           0       -1.727208    0.541198    0.508766
     25          1           0       -3.016807    1.661830    0.038885
     26          6           0       -3.596036    0.302830    1.609034
     27          1           0       -3.333341    0.997885    2.406545
     28          1           0       -4.672854    0.376565    1.440044
     29          1           0       -3.375586   -0.708053    1.957382
 ---------------------------------------------------------------------
                    Distance matrix (angstroms):
                    1          2          3          4          5
     1  Rh   0.000000
     2  P    2.341262   0.000000
     3  C    3.570168   1.816948   0.000000
     4  C    3.496031   1.816475   2.842407   0.000000
     5  C    3.491394   1.816679   2.848163   2.858659   0.000000
     6  H    3.613414   2.410499   3.116034   3.823833   1.090636
     7  H    4.462055   2.431624   2.956117   3.026628   1.092144
     8  H    3.725013   2.411248   1.091132   3.809708   3.081104
     9  H    3.718385   2.403893   1.090450   3.066034   3.809783
    10  H    4.523285   2.436115   1.091983   2.984974   2.992561
    11  H    3.678877   2.399618   3.025052   1.089941   3.810787
    12  H    3.578305   2.411408   3.811368   1.089931   3.131274
    13  H    4.462140   2.429465   3.004798   1.092171   2.968370
    14  C    1.885036   4.191923   5.421899   5.158643   5.075198
    15  O    3.022103   5.314986   6.552041   6.216165   6.098859
    16  C    1.906934   3.172657   3.405881   4.451948   4.557687
    17  O    3.045030   4.035237   3.795458   5.275234   5.421374
    18  H    3.627195   2.406792   3.807938   3.063713   1.089947
    19  H    1.637145   2.632295   4.350265   3.309057   3.180337
    20  O    4.076528   3.805768   3.622458   3.550240   5.591428
    21  C    4.281019   4.458473   4.646105   4.017451   6.243565
    22  H    5.344234   5.547786   5.610980   4.995564   7.327884
    23  C    3.654389   4.329775   5.070629   3.893297   6.001178
    24  H    2.601872   3.401157   4.368467   3.227901   5.021243
    25  H    3.970968   5.106656   5.828674   4.899403   6.767297
    26  C    4.691279   5.064948   5.983142   4.118956   6.549779
    27  H    4.751871   5.408199   6.574280   4.548997   6.734882
    28  H    5.675079   6.030769   6.776546   5.022682   7.564373
    29  H    4.809624   4.684098   5.597199   3.420816   6.055282
                    6          7          8          9         10
     6  H    0.000000
     7  H    1.779839   0.000000
     8  H    2.953776   3.282275   0.000000
     9  H    4.124901   3.960442   1.772668   0.000000
    10  H    3.380762   2.688057   1.778526   1.779512   0.000000
    11  H    4.683548   3.992103   4.049917   2.845741   3.263656
    12  H    4.129917   3.431612   4.690433   4.071731   4.000722
    13  H    3.986779   2.727980   3.999328   3.352475   2.736504
    14  C    5.051740   6.124060   5.452021   5.490539   6.399579
    15  O    6.025423   7.165972   6.541705   6.599815   7.534684
    16  C    4.476383   5.362776   3.281427   3.186400   4.496478
    17  O    5.263707   6.127360   3.522526   3.382618   4.854964
    18  H    1.766526   1.783766   4.106731   4.676680   3.974261
    19  H    3.524447   4.172404   4.668127   4.711949   5.066665
    20  O    6.128899   5.921394   4.348705   2.709563   4.214007
    21  C    6.825511   6.670553   5.368646   3.825431   5.272286
    22  H    7.920816   7.708500   6.326219   4.709762   6.172377
    23  C    6.598495   6.591276   5.763652   4.496627   5.779798
    24  H    5.576732   5.697128   5.006159   3.977048   5.142351
    25  H    7.255592   7.448767   6.391889   5.221805   6.634138
    26  C    7.309973   7.039938   6.814987   5.501867   6.510901
    27  H    7.472405   7.315475   7.352802   6.216547   7.141870
    28  H    8.330706   8.001963   7.622413   6.178621   7.267440
    29  H    6.921076   6.411858   6.529285   5.202541   5.966963
                   11         12         13         14         15
    11  H    0.000000
    12  H    1.775958   0.000000
    13  H    1.776710   1.782641   0.000000
    14  C    5.271949   4.978840   6.179014   0.000000
    15  O    6.310520   5.941547   7.246910   1.137583   0.000000
    16  C    4.314166   4.899514   5.310302   2.868713   3.819939
    17  O    5.010833   5.844582   6.052110   3.804463   4.614806
    18  H    4.092083   2.942610   3.257778   4.958067   5.886941
    19  H    3.800383   2.921321   4.225335   2.383229   3.284977
    20  O    2.603965   4.203975   4.197452   5.355160   6.292904
    21  C    3.034913   4.399254   4.790357   5.217731   6.020026
    22  H    3.957511   5.353733   5.685241   6.130196   6.836328
    23  C    3.129331   3.915476   4.851873   4.250107   4.946441
    24  H    2.701242   3.223362   4.276489   3.380820   4.212852
    25  H    4.186988   4.879825   5.893328   4.115274   4.610010
    26  C    3.392044   3.862543   4.957676   5.218869   5.820979
    27  H    4.032956   4.054440   5.437541   4.961315   5.410819
    28  H    4.186836   4.837932   5.772259   6.127544   6.657155
    29  H    2.720892   3.148916   4.123232   5.638947   6.361235
                   16         17         18         19         20
    16  C    0.000000
    17  O    1.138104   0.000000
    18  H    5.053379   6.034740   0.000000
    19  H    3.542733   4.680607   2.811279   0.000000
    20  O    3.593541   3.762436   6.090988   5.021999   0.000000
    21  C    4.012170   4.267108   6.571409   5.079950   1.204624
    22  H    4.946139   5.045017   7.656008   6.135475   2.001574
    23  C    3.930808   4.487695   6.097374   4.159142   2.403277
    24  H    3.189905   3.956495   5.095143   3.096431   2.562072
    25  H    4.048462   4.493295   6.842803   4.599838   3.092427
    26  C    5.332259   5.974785   6.468657   4.709958   3.426678
    27  H    5.659583   6.410764   6.489343   4.505158   4.352753
    28  H    6.108414   6.616795   7.523269   5.789054   3.808350
    29  H    5.585617   6.281078   5.970011   4.660824   3.428073
                   21         22         23         24         25
    21  C    0.000000
    22  H    1.110788   0.000000
    23  C    1.495632   2.207898   0.000000
    24  H    2.127302   3.093702   1.094063   0.000000
    25  H    2.100608   2.491214   1.095158   1.771911   0.000000
    26  C    2.490376   2.833318   1.528338   2.181726   2.155865
    27  H    3.433903   3.813469   2.161107   2.527804   2.479280
    28  H    2.737673   2.629788   2.181027   3.093738   2.521437
    29  H    2.784933   3.235426   2.173693   2.525127   3.070130
                   26         27         28         29
    26  C    0.000000
    27  H    1.090015   0.000000
    28  H    1.092488   1.764782   0.000000
    29  H    1.091710   1.764584   1.768315   0.000000
 Stoichiometry    C8H16O3PRh
 Framework group  C1[X(C8H16O3PRh)]
 Deg. of freedom    81
 Full point group                 C1      NOp   1
 RotChk:  IX=0 Diff= 1.03D-14
 Largest Abelian subgroup         C1      NOp   1
 Largest concise Abelian subgroup C1      NOp   1
                         Standard orientation:                         
 ---------------------------------------------------------------------
 Center     Atomic      Atomic             Coordinates (Angstroms)
 Number     Number       Type             X           Y           Z
 ---------------------------------------------------------------------
      1         45           0       -0.845077    0.736737   -0.153106
      2         15           0       -0.904311   -1.600249   -0.281554
      3          6           0       -0.807757   -2.536081    1.272858
      4          6           0        0.439898   -2.316138   -1.271598
      5          6           0       -2.410401   -2.248216   -1.063955
      6          1           0       -3.284586   -1.904960   -0.509463
      7          1           0       -2.401989   -3.340160   -1.083093
      8          1           0       -1.640422   -2.254574    1.919381
      9          1           0        0.126289   -2.288618    1.778231
     10          1           0       -0.844452   -3.612152    1.090786
     11          1           0        1.386774   -2.122499   -0.767712
     12          1           0        0.457373   -1.848843   -2.256118
     13          1           0        0.309105   -3.394899   -1.381169
     14          6           0       -0.970346    2.585504   -0.499125
     15          8           0       -1.065546    3.691990   -0.745537
     16          6           0       -0.533206    0.828348    1.725920
     17          8           0       -0.343088    0.886365    2.846532
     18          1           0       -2.480017   -1.864113   -2.081601
     19          1           0       -1.107031    0.567960   -1.760321
     20          8           0        2.499373   -1.059087    1.332743
     21          6           0        3.212065   -0.258512    0.782953
     22          1           0        4.272411   -0.160213    1.098949
     23          6           0        2.802926    0.635698   -0.343950
     24          1           0        1.725196    0.544941   -0.508983
     25          1           0        3.014007    1.665443   -0.036635
     26          6           0        3.593575    0.311574   -1.611086
     27          1           0        3.329721    1.008693   -2.406410
     28          1           0        4.670425    0.385854   -1.442542
     29          1           0        3.373882   -0.698503   -1.962238
 ---------------------------------------------------------------------
 Rotational constants (GHZ):           0.4730005           0.4405136           0.3291159
 Leave Link  202 at Tue Oct  4 19:24:52 2022, MaxMem=  2952790016 cpu:               0.1 elap:               0.0
 (Enter /mnt/data/applications/G16/g16/l301.exe)
 Basis read from chk: "I9c.chk" (5D, 7F)
 Pseudo-potential data read from chk file.
 There are   573 symmetry adapted cartesian basis functions of A   symmetry.
 There are   510 symmetry adapted basis functions of A   symmetry.
   510 basis functions,   823 primitive gaussians,   573 cartesian basis functions
    60 alpha electrons       60 beta electrons
       nuclear repulsion energy      1070.4559739022 Hartrees.
 IExCor= 4639 DFT=T Ex+Corr=wB97XD ExCW=0 ScaHFX=  1.000000
 ScaDFX=  1.000000  1.000000  1.000000  1.000000 ScalE2=  1.000000  1.000000
 IRadAn=      5 IRanWt=     -1 IRanGd=            0 ICorTp=0 IEmpDi=121
 HFx  wShort=  0.000000 wLong=  0.200000 cFull=  0.222036 cShort=  0.000000 cLong=  0.777964
 DFx  wShort=  0.000000 wLong=  0.200000 cFull=  0.000000 cShort=  0.000000 cLong=  1.000000
 NAtoms=   29 NActive=   29 NUniq=   29 SFac= 1.00D+00 NAtFMM=   60 NAOKFM=F Big=F
 Integral buffers will be    131072 words long.
 Raffenetti 2 integral format.
 Two-electron integral symmetry is turned on.
 R6Disp:  Grimme-D2 Dispersion energy=       -0.0235998413 Hartrees.
 Nuclear repulsion after empirical dispersion term =     1070.4323740609 Hartrees.
 No density basis found on file 20724.
 Force inversion solution in PCM.
 ------------------------------------------------------------------------------
 Polarizable Continuum Model (PCM)
 =================================
 Model                : PCM.
 Atomic radii         : SMD-Coulomb.
 Polarization charges : Total charges.
 Charge compensation  : None.
 Solution method      : Matrix inversion.
 Cavity type          : VdW (van der Waals Surface) (Alpha=1.000).
 Cavity algorithm     : GePol (No added spheres)
                        Default sphere list used, NSphG=   29.
                        Lebedev-Laikov grids with approx.  5.0 points / Ang**2.
                        Smoothing algorithm: York/Karplus (Gamma=1.0000).
                        Polarization charges: spherical gaussians, with
                                              point-specific exponents (IZeta= 3).
                        Self-potential: point-specific (ISelfS= 7).
                        Self-field    : sphere-specific E.n sum rule (ISelfD= 2).
 1st derivatives      : Analytical E(r).r(x)/FMM algorithm (CHGder, D1EAlg=3).
                        Cavity 1st derivative terms included.
 2nd derivatives      : Analytical E(r).r(xy)/FMM algorithm (CHGder, D2EAlg=3).
                        Cavity 2nd derivative terms included.
 Solvent              : Toluene, Eps=   2.374100 Eps(inf)=   2.238315
 ------------------------------------------------------------------------------
 GePol: Number of generator spheres                  =      29
 GePol: Total number of spheres                      =      29
 GePol: Number of exposed spheres                    =      29 (100.00%)
 GePol: Number of points                             =    2666
 GePol: Average weight of points                     =       0.12
 GePol: Minimum weight of points                     =   0.10D-10
 GePol: Maximum weight of points                     =    0.20615
 GePol: Number of points with low weight             =     125
 GePol: Fraction of low-weight points (<1% of avg)   =       4.69%
 GePol: Cavity surface area                          =    323.226 Ang**2
 GePol: Cavity volume                                =    296.995 Ang**3
 ------------------------------------------------------------------------------
 Atomic radii for non-electrostatic terms: SMD-CDS.
 ------------------------------------------------------------------------------
 PCM non-electrostatic energy =         0.0007886638 Hartrees.
 Nuclear repulsion after PCM non-electrostatic terms =     1070.4331627247 Hartrees.
 Leave Link  301 at Tue Oct  4 19:24:52 2022, MaxMem=  2952790016 cpu:               2.4 elap:               0.2
 (Enter /mnt/data/applications/G16/g16/l302.exe)
 NPDir=0 NMtPBC=     1 NCelOv=     1 NCel=       1 NClECP=     1 NCelD=      1
         NCelK=      1 NCelE2=     1 NClLst=     1 CellRange=     0.0.
 One-electron integrals computed using PRISM.
 One-electron integral symmetry used in STVInt
   1 Symmetry operations used in ECPInt.
 ECPInt:  NShTT=   22578 NPrTT=   66767 LenC2=   20834 LenP2D=   45559.
 LDataN:  DoStor=T MaxTD1= 7 Len=  274
 NBasis=   510 RedAO= T EigKep=  1.88D-04  NBF=   510
 NBsUse=   510 1.00D-06 EigRej= -1.00D+00 NBFU=   510
 Precomputing XC quadrature grid using
 IXCGrd= 4 IRadAn=           5 IRanWt=          -1 IRanGd=           0 AccXCQ= 0.00D+00.
 Defaulting to unpruned grid for atomic number  45.
 Generated NRdTot=       0 NPtTot=           0 NUsed=           0 NTot=          32
 NSgBfM=   568   567   568   568   568 MxSgAt=    29 MxSgA2=    29.
 Leave Link  302 at Tue Oct  4 19:24:54 2022, MaxMem=  2952790016 cpu:              22.0 elap:               1.9
 (Enter /mnt/data/applications/G16/g16/l303.exe)
 DipDrv:  MaxL=1.
 Leave Link  303 at Tue Oct  4 19:24:54 2022, MaxMem=  2952790016 cpu:               1.2 elap:               0.1
 (Enter /mnt/data/applications/G16/g16/l401.exe)
 Initial guess from the checkpoint file:  "I9c.chk"
 B after Tr=    -0.000000   -0.000000   -0.000000
         Rot=    1.000000   -0.000000   -0.000000    0.000000 Ang=   0.00 deg.
 Guess basis will be translated and rotated to current coordinates.
 JPrj=2 DoOrth=T DoCkMO=T.
 Leave Link  401 at Tue Oct  4 19:24:55 2022, MaxMem=  2952790016 cpu:              17.8 elap:               1.5
 (Enter /mnt/data/applications/G16/g16/l502.exe)
 Integral symmetry usage will be decided dynamically.
 Closed shell SCF:
 Using DIIS extrapolation, IDIIS=  1040.
 NGot=  2952790016 LenX=  2952121193 LenY=  2951792291
 Requested convergence on RMS density matrix=1.00D-08 within 128 cycles.
 Requested convergence on MAX density matrix=1.00D-06.
 Requested convergence on             energy=1.00D-06.
 No special actions if energy rises.
 Fock matrices will be formed incrementally for  20 cycles.

 Cycle   1  Pass 1  IDiag  1:
 FoFJK:  IHMeth= 1 ICntrl=       0 DoSepK=T KAlg= 0 I1Cent=           0 FoldK=F
 IRaf=         1 NMat=       1 IRICut=       1 DoRegI=T DoRafI=F ISym2E= 0 IDoP0=0 IntGTp=1.
 FoFCou: FMM=F IPFlag=           0 FMFlag=      100000 FMFlg1=           0
         NFxFlg=           0 DoJE=T BraDBF=F KetDBF=F FulRan=T
         wScrn=  0.000000 ICntrl=       500 IOpCl=  0 I1Cent=           0 NGrid=           0
         NMat0=    1 NMatS0=      1 NMatT0=    0 NMatD0=    1 NMtDS0=    0 NMtDT0=    0
 Symmetry not used in FoFCou.
 Defaulting to unpruned grid for atomic number  45.
 Defaulting to unpruned grid for atomic number  45.
 Defaulting to unpruned grid for atomic number  45.
 Defaulting to unpruned grid for atomic number  45.
 Defaulting to unpruned grid for atomic number  45.
 Defaulting to unpruned grid for atomic number  45.
 Defaulting to unpruned grid for atomic number  45.
 Defaulting to unpruned grid for atomic number  45.
 Defaulting to unpruned grid for atomic number  45.
 Defaulting to unpruned grid for atomic number  45.
 Defaulting to unpruned grid for atomic number  45.
 Defaulting to unpruned grid for atomic number  45.
 Inv3:  Mode=1 IEnd=    21322668.
 Iteration    1 A*A^-1 deviation from unit magnitude is 2.66D-15 for   1460.
 Iteration    1 A*A^-1 deviation from orthogonality  is 1.86D-15 for   1419    635.
 Iteration    1 A^-1*A deviation from unit magnitude is 2.44D-15 for    249.
 Iteration    1 A^-1*A deviation from orthogonality  is 1.53D-15 for   1058    332.
 E= -992.236920177902    
 DIIS: error= 1.19D-08 at cycle   1 NSaved=   1.
 NSaved= 1 IEnMin= 1 EnMin= -992.236920177902     IErMin= 1 ErrMin= 1.19D-08
 ErrMax= 1.19D-08  0.00D+00 EMaxC= 1.00D-01 BMatC= 1.41D-13 BMatP= 1.41D-13
 IDIUse=1 WtCom= 1.00D+00 WtEn= 0.00D+00
 Coeff-Com:  0.100D+01
 Coeff:      0.100D+01
 Gap=     0.289 Goal=   None    Shift=    0.000
 RMSDP=1.79D-09 MaxDP=1.17D-07              OVMax= 4.99D-07

 Error on total polarization charges =  0.03359
 SCF Done:  E(RwB97XD) =  -992.236920178     A.U. after    1 cycles
            NFock=  1  Conv=0.18D-08     -V/T= 2.0796
 KE= 9.190822840279D+02 PE=-4.448569520801D+03 EE= 1.466817153870D+03
 SMD-CDS (non-electrostatic) energy       (kcal/mol) =       0.49
 (included in total energy above)
 Leave Link  502 at Tue Oct  4 19:26:23 2022, MaxMem=  2952790016 cpu:            1007.8 elap:              87.8
 (Enter /mnt/data/applications/G16/g16/l801.exe)
 DoSCS=F DFT=T ScalE2(SS,OS)=  1.000000  1.000000
 Range of M.O.s used for correlation:     1   510
 NBasis=   510 NAE=    60 NBE=    60 NFC=     0 NFV=     0
 NROrb=    510 NOA=    60 NOB=    60 NVA=   450 NVB=   450

 **** Warning!!: The largest alpha MO coefficient is  0.17022897D+02

 Leave Link  801 at Tue Oct  4 19:26:23 2022, MaxMem=  2952790016 cpu:               0.3 elap:               0.0
 (Enter /mnt/data/applications/G16/g16/l1101.exe)
 Using compressed storage, NAtomX=    29.
 Will process     30 centers per pass.
   1 Symmetry operations used in ECPInt.
 ECPInt:  NShTT=   22578 NPrTT=   66767 LenC2=   20834 LenP2D=   45559.
 LDataN:  DoStor=T MaxTD1= 8 Len=  415
 R6Disp: Adding Grimme-D2 dispersion energy 1st derivatives to the gradient.
 Leave Link 1101 at Tue Oct  4 19:26:27 2022, MaxMem=  2952790016 cpu:              41.7 elap:               3.5
 (Enter /mnt/data/applications/G16/g16/l1102.exe)
 Symmetrizing basis deriv contribution to polar:
 IMax=3 JMax=2 DiffMx= 0.00D+00
 Leave Link 1102 at Tue Oct  4 19:26:27 2022, MaxMem=  2952790016 cpu:               1.0 elap:               0.1
 (Enter /mnt/data/applications/G16/g16/l1110.exe)
 Forming Gx(P) for the SCF density, NAtomX=    29.
 Integral derivatives from FoFJK, PRISM(SPDF).
 Do as many integral derivatives as possible in FoFJK.
 G2DrvN: MDV=    2952787734.
 G2DrvN: will do    30 centers at a time, making    1 passes.
 Calling FoFCou, ICntrl=  3107 FMM=F I1Cent=   0 AccDes= 0.00D+00.
 FoFJK:  IHMeth= 1 ICntrl=    3107 DoSepK=T KAlg= 0 I1Cent=           0 FoldK=F
 IRaf=         1 NMat=       1 IRICut=       1 DoRegI=T DoRafI=F ISym2E= 0 IDoP0=0 IntGTp=1.
 FoFCou: FMM=F IPFlag=           0 FMFlag=      100000 FMFlg1=           0
         NFxFlg=           0 DoJE=F BraDBF=F KetDBF=F FulRan=T
         wScrn=  0.000000 ICntrl=      3507 IOpCl=  0 I1Cent=           0 NGrid=           0
         NMat0=    1 NMatS0=      1 NMatT0=    0 NMatD0=    1 NMtDS0=    0 NMtDT0=    0
 Symmetry not used in FoFCou.
 Defaulting to unpruned grid for atomic number  45.
 Defaulting to unpruned grid for atomic number  45.
 Defaulting to unpruned grid for atomic number  45.
 Defaulting to unpruned grid for atomic number  45.
 Defaulting to unpruned grid for atomic number  45.
 Defaulting to unpruned grid for atomic number  45.
 Defaulting to unpruned grid for atomic number  45.
 Defaulting to unpruned grid for atomic number  45.
 Defaulting to unpruned grid for atomic number  45.
 Defaulting to unpruned grid for atomic number  45.
 Defaulting to unpruned grid for atomic number  45.
 Defaulting to unpruned grid for atomic number  45.
 NEqPCM:  Using equilibrium solvation (IEInf=0, Eps=   2.3741, EpsInf=   2.2383)
 G2PCM: DoFxE=T DoFxN=T DoGrad=T DoDP/DQ/DG/TGxP=FFFF NFrqRd=   0 IEInf=0 SqF1=F DoCFld=F IF1Alg=4.
 GePol: Maximum number of non-zero 1st derivatives   =     419
 End of G2Drv F.D. properties file   721 does not exist.
 End of G2Drv F.D. properties file   722 does not exist.
 End of G2Drv F.D. properties file   788 does not exist.
 Leave Link 1110 at Tue Oct  4 19:44:08 2022, MaxMem=  2952790016 cpu:           12701.5 elap:            1061.3
 (Enter /mnt/data/applications/G16/g16/l1002.exe)
 Minotr:  Closed shell wavefunction.
          IDoAtm=11111111111111111111111111111
 NEqPCM:  Using equilibrium solvation (IEInf=0, Eps=   2.3741, EpsInf=   2.2383)
          Direct CPHF calculation.
          Differentiating once with respect to electric field.
                with respect to dipole field.
          Differentiating once with respect to nuclear coordinates.
          Requested convergence is 1.0D-08 RMS, and 1.0D-07 maximum.
          Secondary convergence is 1.0D-12 RMS, and 1.0D-12 maximum.
          NewPWx=T KeepS1=F KeepF1=F KeepIn=T MapXYZ=F SortEE=F KeepMc=T.
 Defaulting to unpruned grid for atomic number  45.
         9000 words used for storage of precomputed grid.
 Two-electron integrals replicated using symmetry.
          MDV=    2952790016 using IRadAn=       1.
          Solving linear equations simultaneously, MaxMat=     384.
 FoF2E skips out because all densities are zero.
 CalDSu exits because no D1Ps are significant.
 FoFJK:  IHMeth= 1 ICntrl=       0 DoSepK=T KAlg= 0 I1Cent=           0 FoldK=F
 IRaf=         1 NMat=      87 IRICut=       1 DoRegI=T DoRafI=F ISym2E= 2 IDoP0=3 IntGTp=3.
 Defaulting to unpruned grid for atomic number  45.
 Defaulting to unpruned grid for atomic number  45.
 Defaulting to unpruned grid for atomic number  45.
 Defaulting to unpruned grid for atomic number  45.
 Defaulting to unpruned grid for atomic number  45.
 Defaulting to unpruned grid for atomic number  45.
 Defaulting to unpruned grid for atomic number  45.
 Defaulting to unpruned grid for atomic number  45.
 Defaulting to unpruned grid for atomic number  45.
 Defaulting to unpruned grid for atomic number  45.
 Defaulting to unpruned grid for atomic number  45.
 Defaulting to unpruned grid for atomic number  45.
          There are    90 degrees of freedom in the 1st order CPHF.  IDoFFX=6 NUNeed=     3.
     87 vectors produced by pass  0 Test12= 3.00D-14 1.11D-09 XBig12= 8.95D+01 3.92D+00.
 AX will form    87 AO Fock derivatives at one time.
     87 vectors produced by pass  1 Test12= 3.00D-14 1.11D-09 XBig12= 1.25D+01 6.53D-01.
     87 vectors produced by pass  2 Test12= 3.00D-14 1.11D-09 XBig12= 8.20D-01 2.19D-01.
     87 vectors produced by pass  3 Test12= 3.00D-14 1.11D-09 XBig12= 1.57D-02 1.90D-02.
     87 vectors produced by pass  4 Test12= 3.00D-14 1.11D-09 XBig12= 2.28D-04 2.61D-03.
     87 vectors produced by pass  5 Test12= 3.00D-14 1.11D-09 XBig12= 2.35D-06 1.73D-04.
     86 vectors produced by pass  6 Test12= 3.00D-14 1.11D-09 XBig12= 1.90D-08 1.46D-05.
     40 vectors produced by pass  7 Test12= 3.00D-14 1.11D-09 XBig12= 1.41D-10 1.26D-06.
      9 vectors produced by pass  8 Test12= 3.00D-14 1.11D-09 XBig12= 1.06D-12 1.60D-07.
      3 vectors produced by pass  9 Test12= 3.00D-14 1.11D-09 XBig12= 8.90D-15 1.67D-08.
      1 vectors produced by pass 10 Test12= 3.00D-14 1.11D-09 XBig12= 9.53D-17 1.48D-09.
 InvSVY:  IOpt=1 It=  1 EMax= 3.55D-15
 Solved reduced A of dimension   661 with    90 vectors.
 FullF1:  Do perturbations      1 to       3.
 Isotropic polarizability for W=    0.000000      197.92 Bohr**3.
 End of Minotr F.D. properties file   721 does not exist.
 End of Minotr F.D. properties file   722 does not exist.
 End of Minotr F.D. properties file   788 does not exist.
 Leave Link 1002 at Tue Oct  4 20:43:33 2022, MaxMem=  2952790016 cpu:           42660.7 elap:            3564.5
 (Enter /mnt/data/applications/G16/g16/l601.exe)
 Copying SCF densities to generalized density rwf, IOpCl= 0 IROHF=0.

 **********************************************************************

            Population analysis using the SCF density.

 **********************************************************************

 Orbital symmetries:
       Occupied  (A) (A) (A) (A) (A) (A) (A) (A) (A) (A) (A) (A)
                 (A) (A) (A) (A) (A) (A) (A) (A) (A) (A) (A) (A)
                 (A) (A) (A) (A) (A) (A) (A) (A) (A) (A) (A) (A)
                 (A) (A) (A) (A) (A) (A) (A) (A) (A) (A) (A) (A)
                 (A) (A) (A) (A) (A) (A) (A) (A) (A) (A) (A) (A)
       Virtual   (A) (A) (A) (A) (A) (A) (A) (A) (A) (A) (A) (A)
                 (A) (A) (A) (A) (A) (A) (A) (A) (A) (A) (A) (A)
                 (A) (A) (A) (A) (A) (A) (A) (A) (A) (A) (A) (A)
                 (A) (A) (A) (A) (A) (A) (A) (A) (A) (A) (A) (A)
                 (A) (A) (A) (A) (A) (A) (A) (A) (A) (A) (A) (A)
                 (A) (A) (A) (A) (A) (A) (A) (A) (A) (A) (A) (A)
                 (A) (A) (A) (A) (A) (A) (A) (A) (A) (A) (A) (A)
                 (A) (A) (A) (A) (A) (A) (A) (A) (A) (A) (A) (A)
                 (A) (A) (A) (A) (A) (A) (A) (A) (A) (A) (A) (A)
                 (A) (A) (A) (A) (A) (A) (A) (A) (A) (A) (A) (A)
                 (A) (A) (A) (A) (A) (A) (A) (A) (A) (A) (A) (A)
                 (A) (A) (A) (A) (A) (A) (A) (A) (A) (A) (A) (A)
                 (A) (A) (A) (A) (A) (A) (A) (A) (A) (A) (A) (A)
                 (A) (A) (A) (A) (A) (A) (A) (A) (A) (A) (A) (A)
                 (A) (A) (A) (A) (A) (A) (A) (A) (A) (A) (A) (A)
                 (A) (A) (A) (A) (A) (A) (A) (A) (A) (A) (A) (A)
                 (A) (A) (A) (A) (A) (A) (A) (A) (A) (A) (A) (A)
                 (A) (A) (A) (A) (A) (A) (A) (A) (A) (A) (A) (A)
                 (A) (A) (A) (A) (A) (A) (A) (A) (A) (A) (A) (A)
                 (A) (A) (A) (A) (A) (A) (A) (A) (A) (A) (A) (A)
                 (A) (A) (A) (A) (A) (A) (A) (A) (A) (A) (A) (A)
                 (A) (A) (A) (A) (A) (A) (A) (A) (A) (A) (A) (A)
                 (A) (A) (A) (A) (A) (A) (A) (A) (A) (A) (A) (A)
                 (A) (A) (A) (A) (A) (A) (A) (A) (A) (A) (A) (A)
                 (A) (A) (A) (A) (A) (A) (A) (A) (A) (A) (A) (A)
                 (A) (A) (A) (A) (A) (A) (A) (A) (A) (A) (A) (A)
                 (A) (A) (A) (A) (A) (A) (A) (A) (A) (A) (A) (A)
                 (A) (A) (A) (A) (A) (A) (A) (A) (A) (A) (A) (A)
                 (A) (A) (A) (A) (A) (A) (A) (A) (A) (A) (A) (A)
                 (A) (A) (A) (A) (A) (A) (A) (A) (A) (A) (A) (A)
                 (A) (A) (A) (A) (A) (A) (A) (A) (A) (A) (A) (A)
                 (A) (A) (A) (A) (A) (A) (A) (A) (A) (A) (A) (A)
                 (A) (A) (A) (A) (A) (A) (A) (A) (A) (A) (A) (A)
                 (A) (A) (A) (A) (A) (A) (A) (A) (A) (A) (A) (A)
                 (A) (A) (A) (A) (A) (A) (A) (A) (A) (A) (A) (A)
                 (A) (A) (A) (A) (A) (A) (A) (A) (A) (A) (A) (A)
                 (A) (A) (A) (A) (A) (A) (A) (A) (A) (A) (A) (A)
                 (A) (A) (A) (A) (A) (A)
 The electronic state is 1-A.
 Alpha  occ. eigenvalues --  -77.23973 -19.31896 -19.31812 -19.25034 -10.39989
 Alpha  occ. eigenvalues --  -10.39599 -10.37329 -10.28533 -10.28183 -10.28119
 Alpha  occ. eigenvalues --  -10.28116 -10.27882  -6.68384  -4.83070  -4.83068
 Alpha  occ. eigenvalues --   -4.82765  -3.32404  -2.08594  -2.08265  -2.04112
 Alpha  occ. eigenvalues --   -1.23398  -1.23275  -1.15519  -0.88639  -0.87865
 Alpha  occ. eigenvalues --   -0.79746  -0.79565  -0.75344  -0.66648  -0.66175
 Alpha  occ. eigenvalues --   -0.65090  -0.63714  -0.57341  -0.55682  -0.55178
 Alpha  occ. eigenvalues --   -0.54694  -0.54342  -0.54314  -0.54176  -0.53873
 Alpha  occ. eigenvalues --   -0.52934  -0.52557  -0.52054  -0.51798  -0.49722
 Alpha  occ. eigenvalues --   -0.49242  -0.49048  -0.47454  -0.46334  -0.44470
 Alpha  occ. eigenvalues --   -0.43390  -0.42501  -0.42409  -0.37155  -0.36059
 Alpha  occ. eigenvalues --   -0.34323  -0.34063  -0.32264  -0.31780  -0.27666
 Alpha virt. eigenvalues --    0.01215   0.04459   0.05055   0.06895   0.07662
 Alpha virt. eigenvalues --    0.08062   0.08540   0.08720   0.09511   0.09812
 Alpha virt. eigenvalues --    0.13014   0.13387   0.14003   0.14696   0.15534
 Alpha virt. eigenvalues --    0.16205   0.17016   0.17855   0.18316   0.18512
 Alpha virt. eigenvalues --    0.18826   0.19663   0.20054   0.20307   0.20753
 Alpha virt. eigenvalues --    0.20985   0.21366   0.21979   0.22472   0.22804
 Alpha virt. eigenvalues --    0.23666   0.24491   0.25493   0.25963   0.26227
 Alpha virt. eigenvalues --    0.26769   0.27475   0.28042   0.28539   0.28821
 Alpha virt. eigenvalues --    0.30571   0.31221   0.31835   0.33042   0.33833
 Alpha virt. eigenvalues --    0.34399   0.35304   0.35372   0.37314   0.37510
 Alpha virt. eigenvalues --    0.38237   0.39752   0.40727   0.41257   0.43127
 Alpha virt. eigenvalues --    0.43936   0.44633   0.45287   0.46065   0.46197
 Alpha virt. eigenvalues --    0.46602   0.47240   0.48202   0.48468   0.48944
 Alpha virt. eigenvalues --    0.49748   0.50312   0.50574   0.51508   0.51957
 Alpha virt. eigenvalues --    0.52414   0.52619   0.52972   0.53544   0.54154
 Alpha virt. eigenvalues --    0.54559   0.55188   0.55554   0.56005   0.56726
 Alpha virt. eigenvalues --    0.57841   0.58447   0.59015   0.59501   0.60852
 Alpha virt. eigenvalues --    0.61797   0.61967   0.62458   0.63152   0.64285
 Alpha virt. eigenvalues --    0.65161   0.65914   0.67016   0.67517   0.68425
 Alpha virt. eigenvalues --    0.68798   0.69575   0.70426   0.71261   0.72010
 Alpha virt. eigenvalues --    0.73050   0.74035   0.74784   0.75913   0.76839
 Alpha virt. eigenvalues --    0.77635   0.78184   0.79992   0.80870   0.81343
 Alpha virt. eigenvalues --    0.81995   0.82720   0.83703   0.84810   0.85477
 Alpha virt. eigenvalues --    0.87352   0.87415   0.89016   0.90079   0.91101
 Alpha virt. eigenvalues --    0.91453   0.94222   0.94973   0.95432   0.97616
 Alpha virt. eigenvalues --    0.98536   0.98981   1.00704   1.02219   1.02302
 Alpha virt. eigenvalues --    1.03957   1.05661   1.06650   1.07720   1.08130
 Alpha virt. eigenvalues --    1.09704   1.10902   1.12278   1.12835   1.13002
 Alpha virt. eigenvalues --    1.13972   1.14466   1.15456   1.16263   1.17203
 Alpha virt. eigenvalues --    1.19141   1.20126   1.20583   1.21707   1.24780
 Alpha virt. eigenvalues --    1.25844   1.27926   1.29514   1.30567   1.34507
 Alpha virt. eigenvalues --    1.35800   1.37050   1.39223   1.50096   1.51421
 Alpha virt. eigenvalues --    1.52185   1.52991   1.53461   1.54794   1.55294
 Alpha virt. eigenvalues --    1.56667   1.57429   1.58277   1.58672   1.59117
 Alpha virt. eigenvalues --    1.59726   1.60417   1.61103   1.61271   1.62067
 Alpha virt. eigenvalues --    1.62244   1.62590   1.62903   1.63084   1.63730
 Alpha virt. eigenvalues --    1.63891   1.64500   1.64957   1.65257   1.66129
 Alpha virt. eigenvalues --    1.66633   1.67065   1.67655   1.68805   1.69282
 Alpha virt. eigenvalues --    1.70580   1.71347   1.71449   1.72565   1.73549
 Alpha virt. eigenvalues --    1.73757   1.74663   1.74911   1.75849   1.76444
 Alpha virt. eigenvalues --    1.78176   1.79514   1.82296   1.83117   1.85872
 Alpha virt. eigenvalues --    1.87167   1.89369   1.91768   1.93072   1.94958
 Alpha virt. eigenvalues --    1.96340   1.99147   1.99843   2.01283   2.02126
 Alpha virt. eigenvalues --    2.03713   2.05241   2.06534   2.08509   2.09429
 Alpha virt. eigenvalues --    2.09866   2.11750   2.13243   2.14539   2.14922
 Alpha virt. eigenvalues --    2.15792   2.16298   2.17140   2.17953   2.18960
 Alpha virt. eigenvalues --    2.20206   2.20826   2.23258   2.25671   2.27057
 Alpha virt. eigenvalues --    2.29122   2.31034   2.33294   2.33702   2.34429
 Alpha virt. eigenvalues --    2.35459   2.37189   2.38389   2.40317   2.40801
 Alpha virt. eigenvalues --    2.42303   2.43111   2.44311   2.46589   2.46901
 Alpha virt. eigenvalues --    2.47047   2.48209   2.49827   2.50556   2.51512
 Alpha virt. eigenvalues --    2.53883   2.56346   2.58203   2.58911   2.61917
 Alpha virt. eigenvalues --    2.62558   2.64278   2.64929   2.65731   2.66438
 Alpha virt. eigenvalues --    2.67087   2.68448   2.69248   2.70329   2.71793
 Alpha virt. eigenvalues --    2.72660   2.72905   2.74048   2.74333   2.75184
 Alpha virt. eigenvalues --    2.75718   2.75807   2.76729   2.78148   2.80532
 Alpha virt. eigenvalues --    2.82882   2.83654   2.86683   2.87192   2.87434
 Alpha virt. eigenvalues --    2.89144   2.89900   2.90517   2.92172   2.92429
 Alpha virt. eigenvalues --    2.93930   2.94313   2.95066   2.95633   2.97003
 Alpha virt. eigenvalues --    2.97887   2.99003   3.01681   3.02861   3.03861
 Alpha virt. eigenvalues --    3.04770   3.06551   3.07065   3.08066   3.08980
 Alpha virt. eigenvalues --    3.10887   3.11223   3.12674   3.14502   3.16011
 Alpha virt. eigenvalues --    3.16639   3.17117   3.18640   3.19257   3.21600
 Alpha virt. eigenvalues --    3.22154   3.22568   3.23332   3.23854   3.24562
 Alpha virt. eigenvalues --    3.25648   3.25883   3.27358   3.29192   3.30131
 Alpha virt. eigenvalues --    3.30570   3.31756   3.33155   3.35787   3.37116
 Alpha virt. eigenvalues --    3.38387   3.38823   3.39580   3.40467   3.42177
 Alpha virt. eigenvalues --    3.43355   3.43632   3.44344   3.45820   3.47527
 Alpha virt. eigenvalues --    3.49064   3.51565   3.55127   3.55286   3.56397
 Alpha virt. eigenvalues --    3.57431   3.59382   3.61755   3.63410   3.64112
 Alpha virt. eigenvalues --    3.64756   3.67833   3.68511   3.69055   3.70255
 Alpha virt. eigenvalues --    3.70628   3.71348   3.71796   3.73353   3.73810
 Alpha virt. eigenvalues --    3.78198   3.79105   3.79386   3.81062   3.84014
 Alpha virt. eigenvalues --    3.85953   3.89652   3.97020   3.99878   4.01844
 Alpha virt. eigenvalues --    4.04151   4.04408   4.08391   4.16675   4.20512
 Alpha virt. eigenvalues --    4.32106   4.33187   4.35020   4.35626   4.36100
 Alpha virt. eigenvalues --    4.38471   4.40381   4.40925   4.42928   4.47664
 Alpha virt. eigenvalues --    4.49576   4.51190   4.53322   4.54310   4.55454
 Alpha virt. eigenvalues --    4.60864   4.65399   4.76222   4.85259   4.92336
 Alpha virt. eigenvalues --    5.19544   5.19560   5.19609   5.19660   5.27247
 Alpha virt. eigenvalues --    5.28004   5.57887   5.58237   5.58561   5.59287
 Alpha virt. eigenvalues --    5.65170   5.74528   6.21229   6.28892   6.30762
 Alpha virt. eigenvalues --    6.31619   6.33883   6.34833   6.35192   6.35600
 Alpha virt. eigenvalues --    6.36245   6.43088   6.45449   6.49568   6.55646
 Alpha virt. eigenvalues --    6.62736   6.64821   6.81720   6.81770   6.82157
 Alpha virt. eigenvalues --    6.84807   6.90171   7.03415   7.16551   7.17338
 Alpha virt. eigenvalues --    7.17873   7.86055   7.88954   7.90018  15.69341
 Alpha virt. eigenvalues --   22.39080  22.43371  22.43759  22.45549  22.59248
 Alpha virt. eigenvalues --   22.64932  22.88593  22.89674  37.65624  38.38166
 Alpha virt. eigenvalues --   38.53348  43.93203  43.95124  43.98016  49.85539
          Condensed to atoms (all electrons):
               1          2          3          4          5          6
     1  Rh  16.058853   0.253726  -0.020579  -0.018386  -0.033249  -0.004706
     2  P    0.253726  13.776748   0.333105   0.329683   0.340995  -0.021699
     3  C   -0.020579   0.333105   5.034600  -0.034899  -0.038921  -0.001778
     4  C   -0.018386   0.329683  -0.034899   5.027766  -0.033370   0.004158
     5  C   -0.033249   0.340995  -0.038921  -0.033370   5.010197   0.401491
     6  H   -0.004706  -0.021699  -0.001778   0.004158   0.401491   0.492724
     7  H    0.007770  -0.026546  -0.004715  -0.006273   0.395731  -0.022741
     8  H   -0.002609  -0.025924   0.398729   0.004134   0.000725   0.000676
     9  H   -0.004476  -0.021529   0.400398  -0.001304   0.004156  -0.000055
    10  H    0.006938  -0.023614   0.392059  -0.004983  -0.005631  -0.000104
    11  H   -0.009296  -0.022217  -0.000328   0.395514   0.004314  -0.000080
    12  H   -0.002728  -0.022467   0.003775   0.396950  -0.000531  -0.000102
    13  H    0.007276  -0.027116  -0.004144   0.394918  -0.004345  -0.000116
    14  C    0.141783  -0.029447  -0.000012   0.000361   0.000665  -0.000004
    15  O   -0.007177   0.000281  -0.000002  -0.000005  -0.000005  -0.000000
    16  C    0.095456   0.015710  -0.004573   0.000869   0.000110   0.000197
    17  O   -0.002967  -0.004241   0.002426   0.000023   0.000031  -0.000014
    18  H   -0.004404  -0.021110   0.004164  -0.000278   0.399441  -0.013358
    19  H    0.310088   0.026186   0.001243  -0.008095  -0.007305  -0.000615
    20  O    0.006666   0.009992  -0.007924  -0.011662   0.000207  -0.000000
    21  C   -0.003815  -0.000329  -0.000023  -0.003384  -0.000027  -0.000001
    22  H   -0.001359   0.000300  -0.000102  -0.000395   0.000003   0.000000
    23  C   -0.024386  -0.005965   0.000591   0.011464   0.000049   0.000005
    24  H    0.023282   0.002293  -0.000607  -0.004479   0.000175  -0.000012
    25  H   -0.001427   0.000185  -0.000001  -0.000169   0.000002   0.000000
    26  C    0.001830   0.000014   0.000017  -0.001716  -0.000017  -0.000000
    27  H    0.000699   0.000004  -0.000000   0.000031  -0.000001  -0.000000
    28  H   -0.000364   0.000003  -0.000001  -0.000013   0.000000   0.000000
    29  H   -0.000494   0.000102   0.000001  -0.000433   0.000002   0.000000
               7          8          9         10         11         12
     1  Rh   0.007770  -0.002609  -0.004476   0.006938  -0.009296  -0.002728
     2  P   -0.026546  -0.025924  -0.021529  -0.023614  -0.022217  -0.022467
     3  C   -0.004715   0.398729   0.400398   0.392059  -0.000328   0.003775
     4  C   -0.006273   0.004134  -0.001304  -0.004983   0.395514   0.396950
     5  C    0.395731   0.000725   0.004156  -0.005631   0.004314  -0.000531
     6  H   -0.022741   0.000676  -0.000055  -0.000104  -0.000080  -0.000102
     7  H    0.525375  -0.000384  -0.000139   0.003821  -0.000096  -0.000188
     8  H   -0.000384   0.499550  -0.014070  -0.021002  -0.000060  -0.000056
     9  H   -0.000139  -0.014070   0.467298  -0.018195   0.000775  -0.000093
    10  H    0.003821  -0.021002  -0.018195   0.520499  -0.000090  -0.000132
    11  H   -0.000096  -0.000060   0.000775  -0.000090   0.503007  -0.013041
    12  H   -0.000188  -0.000056  -0.000093  -0.000132  -0.013041   0.488013
    13  H    0.003830  -0.000145  -0.000198   0.003398  -0.019872  -0.020353
    14  C   -0.000010   0.000023   0.000063  -0.000008  -0.000003   0.000086
    15  O    0.000000  -0.000000  -0.000000   0.000000  -0.000000  -0.000001
    16  C   -0.000020  -0.001239  -0.000923   0.000510  -0.000047   0.000028
    17  O   -0.000001  -0.000109  -0.000098  -0.000023  -0.000011  -0.000001
    18  H   -0.021987  -0.000110  -0.000071  -0.000112  -0.000072   0.000719
    19  H    0.000449   0.000022   0.000009  -0.000010  -0.000150  -0.000727
    20  O   -0.000001   0.000159   0.007572  -0.000068   0.011353   0.000349
    21  C    0.000001   0.000011  -0.000848  -0.000003  -0.000585  -0.000102
    22  H   -0.000000   0.000003   0.000080  -0.000000   0.000593   0.000016
    23  C   -0.000008  -0.000034  -0.000000  -0.000020   0.000769  -0.000411
    24  H    0.000004   0.000035   0.000025   0.000001  -0.001702  -0.000228
    25  H   -0.000000   0.000001  -0.000012   0.000000   0.000437   0.000014
    26  C    0.000001   0.000001  -0.000004  -0.000001  -0.002369  -0.000043
    27  H    0.000000  -0.000000   0.000000   0.000000   0.000036  -0.000050
    28  H   -0.000000   0.000000   0.000001  -0.000000   0.000042   0.000021
    29  H   -0.000000   0.000000  -0.000012   0.000001   0.001752  -0.000174
              13         14         15         16         17         18
     1  Rh   0.007276   0.141783  -0.007177   0.095456  -0.002967  -0.004404
     2  P   -0.027116  -0.029447   0.000281   0.015710  -0.004241  -0.021110
     3  C   -0.004144  -0.000012  -0.000002  -0.004573   0.002426   0.004164
     4  C    0.394918   0.000361  -0.000005   0.000869   0.000023  -0.000278
     5  C   -0.004345   0.000665  -0.000005   0.000110   0.000031   0.399441
     6  H   -0.000116  -0.000004  -0.000000   0.000197  -0.000014  -0.013358
     7  H    0.003830  -0.000010   0.000000  -0.000020  -0.000001  -0.021987
     8  H   -0.000145   0.000023  -0.000000  -0.001239  -0.000109  -0.000110
     9  H   -0.000198   0.000063  -0.000000  -0.000923  -0.000098  -0.000071
    10  H    0.003398  -0.000008   0.000000   0.000510  -0.000023  -0.000112
    11  H   -0.019872  -0.000003  -0.000000  -0.000047  -0.000011  -0.000072
    12  H   -0.020353   0.000086  -0.000001   0.000028  -0.000001   0.000719
    13  H    0.516659  -0.000012   0.000000  -0.000042  -0.000001  -0.000359
    14  C   -0.000012   5.381948   0.551870   0.027499  -0.003659  -0.000041
    15  O    0.000000   0.551870   7.578912  -0.002792   0.000176  -0.000000
    16  C   -0.000042   0.027499  -0.002792   5.428436   0.540619   0.000016
    17  O   -0.000001  -0.003659   0.000176   0.540619   7.586827  -0.000001
    18  H   -0.000359  -0.000041  -0.000000   0.000016  -0.000001   0.488661
    19  H    0.000419   0.032866  -0.003560  -0.026489   0.000270  -0.000653
    20  O    0.000158   0.000197   0.000000  -0.001187  -0.000327  -0.000001
    21  C    0.000162   0.000040  -0.000002  -0.002348   0.000440   0.000002
    22  H    0.000007   0.000016   0.000000   0.000002  -0.000036  -0.000000
    23  C   -0.000410  -0.000579  -0.000009   0.004499   0.000043  -0.000006
    24  H    0.000256  -0.000644  -0.000161  -0.011054  -0.000377   0.000017
    25  H    0.000003  -0.000432   0.000017  -0.000273  -0.000042   0.000000
    26  C    0.000114   0.000122  -0.000006   0.000128  -0.000007  -0.000000
    27  H   -0.000007  -0.000037  -0.000007   0.000000  -0.000000  -0.000000
    28  H   -0.000002   0.000002  -0.000000  -0.000007   0.000000  -0.000000
    29  H    0.000066  -0.000006   0.000000   0.000009  -0.000001  -0.000000
              19         20         21         22         23         24
     1  Rh   0.310088   0.006666  -0.003815  -0.001359  -0.024386   0.023282
     2  P    0.026186   0.009992  -0.000329   0.000300  -0.005965   0.002293
     3  C    0.001243  -0.007924  -0.000023  -0.000102   0.000591  -0.000607
     4  C   -0.008095  -0.011662  -0.003384  -0.000395   0.011464  -0.004479
     5  C   -0.007305   0.000207  -0.000027   0.000003   0.000049   0.000175
     6  H   -0.000615  -0.000000  -0.000001   0.000000   0.000005  -0.000012
     7  H    0.000449  -0.000001   0.000001  -0.000000  -0.000008   0.000004
     8  H    0.000022   0.000159   0.000011   0.000003  -0.000034   0.000035
     9  H    0.000009   0.007572  -0.000848   0.000080  -0.000000   0.000025
    10  H   -0.000010  -0.000068  -0.000003  -0.000000  -0.000020   0.000001
    11  H   -0.000150   0.011353  -0.000585   0.000593   0.000769  -0.001702
    12  H   -0.000727   0.000349  -0.000102   0.000016  -0.000411  -0.000228
    13  H    0.000419   0.000158   0.000162   0.000007  -0.000410   0.000256
    14  C    0.032866   0.000197   0.000040   0.000016  -0.000579  -0.000644
    15  O   -0.003560   0.000000  -0.000002   0.000000  -0.000009  -0.000161
    16  C   -0.026489  -0.001187  -0.002348   0.000002   0.004499  -0.011054
    17  O    0.000270  -0.000327   0.000440  -0.000036   0.000043  -0.000377
    18  H   -0.000653  -0.000001   0.000002  -0.000000  -0.000006   0.000017
    19  H    0.819413   0.000090   0.000260   0.000006  -0.002800   0.004214
    20  O    0.000090   7.918341   0.559219  -0.046025  -0.116026   0.007613
    21  C    0.000260   0.559219   4.668821   0.421412   0.268147  -0.023898
    22  H    0.000006  -0.046025   0.421412   0.634597  -0.128390   0.008068
    23  C   -0.002800  -0.116026   0.268147  -0.128390   5.226943   0.364270
    24  H    0.004214   0.007613  -0.023898   0.008068   0.364270   0.568862
    25  H    0.000011   0.004300  -0.022851   0.003940   0.388498  -0.020657
    26  C    0.000243   0.002345  -0.014707   0.006140   0.259683  -0.026405
    27  H   -0.000005  -0.000279   0.005830  -0.000736  -0.032927  -0.004475
    28  H   -0.000000   0.000212  -0.002010   0.003389  -0.047087   0.008423
    29  H   -0.000018   0.001380  -0.005094   0.001271  -0.028889  -0.007611
              25         26         27         28         29
     1  Rh  -0.001427   0.001830   0.000699  -0.000364  -0.000494
     2  P    0.000185   0.000014   0.000004   0.000003   0.000102
     3  C   -0.000001   0.000017  -0.000000  -0.000001   0.000001
     4  C   -0.000169  -0.001716   0.000031  -0.000013  -0.000433
     5  C    0.000002  -0.000017  -0.000001   0.000000   0.000002
     6  H    0.000000  -0.000000  -0.000000   0.000000   0.000000
     7  H   -0.000000   0.000001   0.000000  -0.000000  -0.000000
     8  H    0.000001   0.000001  -0.000000   0.000000   0.000000
     9  H   -0.000012  -0.000004   0.000000   0.000001  -0.000012
    10  H    0.000000  -0.000001   0.000000  -0.000000   0.000001
    11  H    0.000437  -0.002369   0.000036   0.000042   0.001752
    12  H    0.000014  -0.000043  -0.000050   0.000021  -0.000174
    13  H    0.000003   0.000114  -0.000007  -0.000002   0.000066
    14  C   -0.000432   0.000122  -0.000037   0.000002  -0.000006
    15  O    0.000017  -0.000006  -0.000007  -0.000000   0.000000
    16  C   -0.000273   0.000128   0.000000  -0.000007   0.000009
    17  O   -0.000042  -0.000007  -0.000000   0.000000  -0.000001
    18  H    0.000000  -0.000000  -0.000000  -0.000000  -0.000000
    19  H    0.000011   0.000243  -0.000005  -0.000000  -0.000018
    20  O    0.004300   0.002345  -0.000279   0.000212   0.001380
    21  C   -0.022851  -0.014707   0.005830  -0.002010  -0.005094
    22  H    0.003940   0.006140  -0.000736   0.003389   0.001271
    23  C    0.388498   0.259683  -0.032927  -0.047087  -0.028889
    24  H   -0.020657  -0.026405  -0.004475   0.008423  -0.007611
    25  H    0.550318  -0.026524  -0.006524  -0.003915   0.006467
    26  C   -0.026524   4.938722   0.416449   0.419036   0.405277
    27  H   -0.006524   0.416449   0.519884  -0.021431  -0.021211
    28  H   -0.003915   0.419036  -0.021431   0.541827  -0.027165
    29  H    0.006467   0.405277  -0.021211  -0.027165   0.547449
 Mulliken charges:
               1
     1  Rh   0.228056
     2  P    0.162877
     3  C   -0.452500
     4  C   -0.436026
     5  C   -0.434894
     6  H    0.166134
     7  H    0.146126
     8  H    0.161671
     9  H    0.181654
    10  H    0.146769
    11  H    0.151425
    12  H    0.171458
    13  H    0.149856
    14  C   -0.102648
    15  O   -0.117528
    16  C   -0.063093
    17  O   -0.118941
    18  H    0.169543
    19  H   -0.145365
    20  O   -0.346652
    21  C    0.155683
    22  H    0.097198
    23  C   -0.137014
    24  H    0.114772
    25  H    0.128634
    26  C   -0.378323
    27  H    0.144757
    28  H    0.129039
    29  H    0.127331
 Sum of Mulliken charges =  -0.00000
 Mulliken charges with hydrogens summed into heavy atoms:
               1
     1  Rh   0.082691
     2  P    0.162877
     3  C    0.037594
     4  C    0.036714
     5  C    0.046910
    14  C   -0.102648
    15  O   -0.117528
    16  C   -0.063093
    17  O   -0.118941
    20  O   -0.346652
    21  C    0.252881
    23  C    0.106392
    26  C    0.022803
 APT charges:
               1
     1  Rh  -1.214172
     2  P    1.314359
     3  C   -0.332078
     4  C   -0.307824
     5  C   -0.297280
     6  H    0.041121
     7  H   -0.009603
     8  H    0.032475
     9  H    0.064894
    10  H   -0.002313
    11  H    0.054721
    12  H    0.042769
    13  H   -0.012878
    14  C    1.367485
    15  O   -0.953601
    16  C    1.236164
    17  O   -0.870871
    18  H    0.040540
    19  H   -0.152820
    20  O   -0.768921
    21  C    0.830804
    22  H   -0.082944
    23  C   -0.095452
    24  H    0.010165
    25  H    0.013039
    26  C    0.078258
    27  H    0.001580
    28  H   -0.020064
    29  H   -0.007553
 Sum of APT charges =   0.00000
 APT charges with hydrogens summed into heavy atoms:
               1
     1  Rh  -1.366992
     2  P    1.314359
     3  C   -0.237022
     4  C   -0.223212
     5  C   -0.225222
    14  C    1.367485
    15  O   -0.953601
    16  C    1.236164
    17  O   -0.870871
    20  O   -0.768921
    21  C    0.747860
    23  C   -0.072248
    26  C    0.052221
 Electronic spatial extent (au):  <R**2>=           3785.3400
 Charge=             -0.0000 electrons
 Dipole moment (field-independent basis, Debye):
    X=              1.8846    Y=             -3.8382    Z=             -1.4254  Tot=              4.5073
 Quadrupole moment (field-independent basis, Debye-Ang):
   XX=            -91.3462   YY=           -100.4021   ZZ=           -108.3582
   XY=             11.4299   XZ=             -4.8054   YZ=              5.0763
 Traceless Quadrupole moment (field-independent basis, Debye-Ang):
   XX=              8.6893   YY=             -0.3666   ZZ=             -8.3227
   XY=             11.4299   XZ=             -4.8054   YZ=              5.0763
 Octapole moment (field-independent basis, Debye-Ang**2):
  XXX=              2.9811  YYY=             -6.6076  ZZZ=            -12.6100  XYY=            -15.9991
  XXY=             16.9568  XXZ=             -0.3436  XZZ=            -14.6459  YZZ=              7.5451
  YYZ=              1.8182  XYZ=              2.6324
 Hexadecapole moment (field-independent basis, Debye-Ang**3):
 XXXX=          -1962.7061 YYYY=          -1950.8576 ZZZZ=          -1031.7568 XXXY=              8.6338
 XXXZ=             14.0787 YYYX=             19.7218 YYYZ=             35.2356 ZZZX=              3.1455
 ZZZY=            -10.7503 XXYY=           -681.3497 XXZZ=           -527.3145 YYZZ=           -485.6067
 XXYZ=             15.2754 YYXZ=            -10.4397 ZZXY=              7.0229
 N-N= 1.070433162725D+03 E-N=-4.448569522109D+03  KE= 9.190822840279D+02
  Exact polarizability: 187.782   4.635 215.621   2.546  -6.065 190.366
 Approx polarizability: 165.898   2.623 200.421   3.482  -8.073 193.130
 No NMR shielding tensors so no spin-rotation constants.
 Leave Link  601 at Tue Oct  4 20:43:34 2022, MaxMem=  2952790016 cpu:              12.9 elap:               1.2
 (Enter /mnt/data/applications/G16/g16/l701.exe)
 ... and contract with generalized density number  0.
 Compute integral second derivatives.
 R6Disp: Adding Grimme-D2 dispersion energy 2nd derivatives to the Hessian.
   1 Symmetry operations used in ECPInt.
 ECPInt:  NShTT=   22578 NPrTT=   66767 LenC2=   20834 LenP2D=   45559.
 LDataN:  DoStor=T MaxTD1= 9 Len=  602
 D2PCM: PCM CHGder 2nd derivatives, FixD1E=F FixD2E=F DoIter=F DoCFld=F I1PDM=0
 GePol: Maximum number of non-zero 2nd derivatives   =     419
 Leave Link  701 at Tue Oct  4 20:44:48 2022, MaxMem=  2952790016 cpu:             889.8 elap:              74.4
 (Enter /mnt/data/applications/G16/g16/l702.exe)
 L702 exits ... SP integral derivatives will be done elsewhere.
 Leave Link  702 at Tue Oct  4 20:44:49 2022, MaxMem=  2952790016 cpu:               0.2 elap:               0.0
 (Enter /mnt/data/applications/G16/g16/l703.exe)
 Integral derivatives from FoFJK, PRISM(SPDF).
 Compute integral second derivatives, UseDBF=F ICtDFT=           0.
 Calling FoFJK, ICntrl=    100127 FMM=F ISym2X=0 I1Cent= 0 IOpClX= 0 NMat=1 NMatS=1 NMatT=0.
 FoFJK:  IHMeth= 1 ICntrl=  100127 DoSepK=T KAlg= 0 I1Cent=           0 FoldK=F
 IRaf=         1 NMat=       1 IRICut=       1 DoRegI=T DoRafI=F ISym2E= 0 IDoP0=0 IntGTp=1.
 FoFCou: FMM=F IPFlag=           0 FMFlag=      100000 FMFlg1=         800
         NFxFlg=           0 DoJE=F BraDBF=F KetDBF=F FulRan=T
         wScrn=  0.000000 ICntrl=    100527 IOpCl=  0 I1Cent=           0 NGrid=           0
         NMat0=    1 NMatS0=      1 NMatT0=    0 NMatD0=    1 NMtDS0=    0 NMtDT0=    0
 Symmetry not used in FoFCou.
 Defaulting to unpruned grid for atomic number  45.
 Defaulting to unpruned grid for atomic number  45.
 Defaulting to unpruned grid for atomic number  45.
 Defaulting to unpruned grid for atomic number  45.
 Defaulting to unpruned grid for atomic number  45.
 Defaulting to unpruned grid for atomic number  45.
 Defaulting to unpruned grid for atomic number  45.
 Defaulting to unpruned grid for atomic number  45.
 Defaulting to unpruned grid for atomic number  45.
 Defaulting to unpruned grid for atomic number  45.
 Defaulting to unpruned grid for atomic number  45.
 Defaulting to unpruned grid for atomic number  45.
 Leave Link  703 at Tue Oct  4 21:18:44 2022, MaxMem=  2952790016 cpu:           24359.0 elap:            2035.3
 (Enter /mnt/data/applications/G16/g16/l716.exe)
 Dipole        = 7.41444018D-01-1.51007507D+00-5.60812529D-01
 Polarizability= 1.87781561D+02 4.63524745D+00 2.15620573D+02
                 2.54562742D+00-6.06477215D+00 1.90365842D+02
 Full mass-weighted force constant matrix:
 Low frequencies ---  -21.9106  -20.6411   -8.5788    0.0017    0.0018    0.0019
 Low frequencies ---   21.4846   28.9788   36.5157
 ******    1 imaginary frequencies (negative Signs) ****** 
 Diagonal vibrational polarizability:
      142.0414497     118.8561824     132.2755702
 Harmonic frequencies (cm**-1), IR intensities (KM/Mole), Raman scattering
 activities (A**4/AMU), depolarization ratios for plane and unpolarized
 incident light, reduced masses (AMU), force constants (mDyne/A),
 and normal coordinates:
                      1                      2                      3
                      A                      A                      A
 Frequencies --    -13.9348                27.3033                35.1497
 Red. masses --      4.1164                 3.7592                 4.4637
 Frc consts  --      0.0005                 0.0017                 0.0032
 IR Inten    --      0.1713                 3.1414                 2.2894
  Atom  AN      X      Y      Z        X      Y      Z        X      Y      Z
     1  45    -0.03   0.02  -0.02     0.01  -0.02  -0.01    -0.02   0.01  -0.01
     2  15     0.03   0.02  -0.02    -0.04  -0.02   0.03     0.01   0.01  -0.02
     3   6     0.19   0.03  -0.02    -0.01   0.00   0.04     0.09   0.00  -0.03
     4   6    -0.04   0.05  -0.13    -0.10  -0.07  -0.01    -0.00   0.05  -0.07
     5   6    -0.02  -0.02   0.11    -0.09   0.01   0.09     0.00  -0.02   0.03
     6   1     0.02  -0.04   0.20    -0.06   0.05   0.12     0.01  -0.04   0.07
     7   1     0.01  -0.01   0.11    -0.13   0.01   0.11     0.02  -0.02   0.03
     8   1     0.24   0.00   0.05     0.02   0.03   0.06     0.11  -0.02   0.01
     9   1     0.23   0.06  -0.11     0.01  -0.02  -0.00     0.11   0.02  -0.06
    10   1     0.21   0.02  -0.02    -0.05  -0.00   0.05     0.11   0.00  -0.03
    11   1     0.00   0.08  -0.23    -0.08  -0.10  -0.05     0.01   0.07  -0.10
    12   1    -0.14   0.05  -0.14    -0.12  -0.08  -0.02    -0.04   0.07  -0.06
    13   1    -0.02   0.05  -0.11    -0.14  -0.07   0.00     0.02   0.05  -0.08
    14   6    -0.06   0.02  -0.04     0.03  -0.02  -0.04    -0.11   0.01   0.03
    15   8    -0.07   0.01  -0.05     0.05  -0.02  -0.06    -0.19   0.01   0.06
    16   6    -0.01   0.04  -0.03     0.05  -0.00  -0.02     0.12   0.01  -0.03
    17   8     0.02   0.04  -0.03     0.08   0.01  -0.03     0.20   0.03  -0.05
    18   1    -0.12  -0.01   0.12    -0.12   0.00   0.09    -0.04  -0.01   0.04
    19   1    -0.03   0.00  -0.02    -0.02  -0.04  -0.01    -0.13   0.03   0.01
    20   8     0.12  -0.16   0.09    -0.04  -0.11  -0.14    -0.15   0.00   0.01
    21   6     0.10  -0.16   0.06    -0.06   0.01   0.01    -0.11   0.02   0.08
    22   1     0.14  -0.25  -0.05    -0.09   0.06   0.13    -0.17   0.10   0.25
    23   6     0.02  -0.05   0.18    -0.02   0.09   0.07     0.03  -0.09  -0.05
    24   1    -0.00   0.01   0.29     0.00   0.02  -0.05     0.06  -0.13  -0.21
    25   1     0.10  -0.09   0.24    -0.14   0.07   0.20    -0.05  -0.05  -0.10
    26   6    -0.13   0.01   0.07     0.13   0.29   0.11     0.23  -0.16   0.09
    27   1    -0.20   0.08   0.15     0.17   0.36   0.17     0.34  -0.23   0.00
    28   1    -0.11  -0.04  -0.05     0.11   0.34   0.23     0.20  -0.13   0.26
    29   1    -0.21   0.05   0.01     0.24   0.32  -0.02     0.31  -0.20   0.14
                      4                      5                      6
                      A                      A                      A
 Frequencies --     40.6505                46.9549                57.1417
 Red. masses --      4.3160                 5.9361                 5.7859
 Frc consts  --      0.0042                 0.0077                 0.0111
 IR Inten    --      0.3157                 4.3650                 1.2241
  Atom  AN      X      Y      Z        X      Y      Z        X      Y      Z
     1  45    -0.02   0.01  -0.01    -0.10  -0.01  -0.00     0.09  -0.02  -0.04
     2  15    -0.01   0.01   0.01    -0.08  -0.01  -0.03    -0.06  -0.01  -0.03
     3   6    -0.21   0.03   0.04    -0.03  -0.03  -0.04    -0.10  -0.00  -0.02
     4   6     0.11  -0.02   0.18    -0.03   0.08  -0.03    -0.16  -0.15  -0.06
     5   6     0.08   0.01  -0.17    -0.05  -0.07  -0.04    -0.14   0.13   0.02
     6   1     0.02   0.04  -0.29    -0.06  -0.12  -0.04    -0.09   0.22   0.05
     7   1     0.07   0.01  -0.13     0.01  -0.07  -0.06    -0.25   0.13   0.04
     8   1    -0.28   0.07  -0.06    -0.03  -0.06  -0.02    -0.06   0.08  -0.00
     9   1    -0.26   0.01   0.14    -0.03  -0.01  -0.05    -0.06  -0.08  -0.05
    10   1    -0.22   0.03   0.05    -0.01  -0.03  -0.05    -0.20   0.00  -0.01
    11   1     0.04  -0.03   0.31    -0.05   0.16  -0.02    -0.12  -0.22  -0.10
    12   1     0.24  -0.02   0.19    -0.06   0.08  -0.02    -0.15  -0.17  -0.07
    13   1     0.10  -0.01   0.17     0.06   0.07  -0.02    -0.26  -0.14  -0.03
    14   6    -0.09   0.01   0.00     0.08  -0.00   0.00    -0.05  -0.02   0.01
    15   8    -0.16   0.00   0.01     0.24   0.01  -0.00    -0.20  -0.02   0.06
    16   6     0.09   0.03  -0.02     0.06  -0.03  -0.03     0.09  -0.06  -0.03
    17   8     0.19   0.05  -0.04     0.18  -0.02  -0.05     0.07  -0.09  -0.03
    18   1     0.22  -0.02  -0.19    -0.06  -0.05  -0.03    -0.14   0.13   0.02
    19   1    -0.06   0.01   0.00    -0.18   0.01   0.01     0.05  -0.00  -0.03
    20   8     0.10  -0.14  -0.03     0.27   0.05   0.11     0.09   0.14   0.14
    21   6     0.07  -0.09  -0.01     0.11   0.18   0.10     0.05   0.16   0.10
    22   1     0.08  -0.10  -0.05     0.06   0.47   0.17     0.05   0.21   0.08
    23   6     0.01  -0.03   0.06    -0.04  -0.02  -0.00    -0.00   0.10   0.08
    24   1    -0.00  -0.04   0.10    -0.02  -0.24  -0.02    -0.02   0.13   0.16
    25   1     0.00  -0.05   0.11    -0.24   0.06  -0.13     0.07   0.11  -0.03
    26   6    -0.05   0.06   0.01     0.05  -0.03   0.05    -0.12  -0.04   0.04
    27   1    -0.10   0.09   0.06    -0.07  -0.18  -0.04    -0.16  -0.10   0.00
    28   1    -0.04   0.07  -0.04     0.03   0.20   0.06    -0.11  -0.08  -0.06
    29   1    -0.04   0.07  -0.04     0.25  -0.11   0.18    -0.20  -0.06   0.14
                      7                      8                      9
                      A                      A                      A
 Frequencies --     63.2024                70.4161                73.0498
 Red. masses --      5.6646                 4.8840                 5.0648
 Frc consts  --      0.0133                 0.0143                 0.0159
 IR Inten    --      0.4070                 3.9084                 6.2887
  Atom  AN      X      Y      Z        X      Y      Z        X      Y      Z
     1  45    -0.00   0.02  -0.01    -0.02  -0.01  -0.06    -0.00   0.01  -0.07
     2  15    -0.03   0.02   0.02    -0.02  -0.02   0.01     0.03  -0.00   0.03
     3   6    -0.04   0.04   0.03    -0.00   0.07   0.06     0.05   0.11   0.10
     4   6    -0.05  -0.02   0.02    -0.01  -0.06   0.05     0.05  -0.06   0.09
     5   6    -0.06   0.05   0.05    -0.01  -0.08   0.05     0.04  -0.08   0.08
     6   1    -0.04   0.08   0.06    -0.01  -0.07   0.04     0.04  -0.06   0.07
     7   1    -0.09   0.05   0.05     0.01  -0.08   0.10     0.06  -0.08   0.15
     8   1    -0.02   0.07   0.04     0.00   0.10   0.05     0.06   0.16   0.09
     9   1    -0.02   0.02   0.02    -0.00   0.10   0.04     0.06   0.14   0.06
    10   1    -0.07   0.04   0.05     0.01   0.06   0.12     0.04   0.10   0.17
    11   1    -0.05  -0.02   0.01    -0.01  -0.03   0.02     0.03  -0.02   0.09
    12   1    -0.05  -0.04   0.01    -0.02  -0.12   0.02     0.05  -0.13   0.06
    13   1    -0.06  -0.02   0.05    -0.00  -0.07   0.11     0.05  -0.07   0.16
    14   6    -0.07   0.02   0.01     0.02   0.02   0.08     0.02   0.04   0.07
    15   8    -0.16   0.01   0.03     0.06   0.06   0.26     0.06   0.08   0.24
    16   6    -0.13  -0.00   0.01     0.01  -0.02  -0.07    -0.03  -0.02  -0.07
    17   8    -0.25  -0.04   0.04     0.02  -0.00  -0.08    -0.06  -0.06  -0.06
    18   1    -0.06   0.04   0.04    -0.03  -0.13   0.03     0.02  -0.14   0.06
    19   1     0.04   0.00  -0.01    -0.05   0.01  -0.07     0.01   0.02  -0.07
    20   8     0.25  -0.08  -0.05    -0.07   0.16   0.20     0.03  -0.15  -0.19
    21   6     0.18  -0.01  -0.04     0.06  -0.15  -0.08    -0.07   0.12   0.07
    22   1     0.15   0.14   0.01     0.18  -0.48  -0.38    -0.17   0.39   0.34
    23   6     0.13  -0.10  -0.10     0.06  -0.07  -0.02    -0.05   0.08   0.04
    24   1     0.15  -0.26  -0.18     0.05  -0.05  -0.02    -0.06   0.10   0.05
    25   1    -0.06  -0.06  -0.11     0.03  -0.10   0.13     0.01   0.09  -0.08
    26   6     0.29  -0.02  -0.02     0.07   0.14  -0.05    -0.10  -0.12   0.05
    27   1     0.25  -0.07  -0.06     0.06   0.24   0.04    -0.08  -0.19  -0.02
    28   1     0.26   0.15   0.08     0.07   0.15  -0.03    -0.09  -0.17   0.01
    29   1     0.47  -0.06  -0.02     0.11   0.18  -0.20    -0.18  -0.14   0.17
                     10                     11                     12
                      A                      A                      A
 Frequencies --     86.2665               104.6556               154.0001
 Red. masses --     10.9725                 2.5317                 3.0574
 Frc consts  --      0.0481                 0.0163                 0.0427
 IR Inten    --      0.6244                 1.8204                 0.8739
  Atom  AN      X      Y      Z        X      Y      Z        X      Y      Z
     1  45     0.03  -0.06   0.01    -0.04  -0.01   0.01     0.05  -0.01  -0.01
     2  15    -0.01  -0.07  -0.06    -0.01  -0.01  -0.00    -0.12   0.01   0.02
     3   6    -0.02  -0.13  -0.10    -0.03  -0.02  -0.01    -0.06  -0.02   0.01
     4   6    -0.04  -0.07  -0.12    -0.02  -0.03  -0.01    -0.02   0.24   0.01
     5   6    -0.03   0.01  -0.09    -0.01   0.00  -0.01    -0.03  -0.19   0.01
     6   1    -0.02   0.01  -0.07    -0.01   0.02  -0.01    -0.08  -0.45   0.09
     7   1    -0.06   0.01  -0.13    -0.03   0.00  -0.00     0.21  -0.19  -0.11
     8   1    -0.03  -0.17  -0.11    -0.03  -0.03  -0.02    -0.07  -0.08   0.01
     9   1    -0.03  -0.13  -0.08    -0.03  -0.03   0.01    -0.07   0.02   0.01
    10   1     0.00  -0.13  -0.14    -0.02  -0.02  -0.02     0.00  -0.02  -0.02
    11   1    -0.03  -0.12  -0.13    -0.02  -0.07  -0.00    -0.04   0.51  -0.04
    12   1    -0.05  -0.03  -0.10    -0.01  -0.02  -0.00    -0.18   0.19  -0.01
    13   1    -0.08  -0.06  -0.16    -0.06  -0.03  -0.03     0.26   0.20   0.08
    14   6     0.02  -0.06   0.11    -0.01  -0.01   0.00     0.05  -0.01  -0.01
    15   8     0.00  -0.02   0.26     0.03  -0.01   0.00    -0.06  -0.01   0.01
    16   6    -0.04   0.23   0.01    -0.02   0.01   0.00     0.05   0.00  -0.01
    17   8    -0.08   0.65  -0.00     0.02   0.04  -0.01    -0.04   0.01   0.00
    18   1    -0.02   0.05  -0.07    -0.00  -0.00  -0.01    -0.16  -0.10   0.05
    19   1     0.09  -0.07   0.00    -0.01  -0.01   0.00    -0.11  -0.01   0.02
    20   8     0.07  -0.06  -0.03    -0.02   0.05  -0.09    -0.01  -0.00  -0.02
    21   6    -0.01   0.04   0.01     0.10   0.01   0.01     0.01  -0.00   0.00
    22   1    -0.04   0.19   0.08     0.10  -0.15   0.04     0.01  -0.03   0.01
    23   6    -0.07  -0.02  -0.01     0.23   0.15   0.07     0.03   0.03   0.02
    24   1    -0.06  -0.11  -0.03     0.19   0.40   0.14     0.02   0.08   0.03
    25   1    -0.15   0.01  -0.05     0.53   0.09   0.06     0.09   0.02   0.02
    26   6    -0.02  -0.00   0.01     0.06  -0.06   0.01    -0.01  -0.00   0.00
    27   1    -0.08  -0.06  -0.02     0.24   0.05   0.04     0.05   0.05   0.03
    28   1    -0.03   0.10   0.02     0.09  -0.41  -0.05     0.00  -0.11  -0.00
    29   1     0.07  -0.03   0.05    -0.29   0.02  -0.01    -0.11   0.03  -0.02
                     13                     14                     15
                      A                      A                      A
 Frequencies --    177.7970               195.5379               204.4665
 Red. masses --      2.7860                 1.1396                 3.3556
 Frc consts  --      0.0519                 0.0257                 0.0827
 IR Inten    --      1.9224                 0.8945                 2.6493
  Atom  AN      X      Y      Z        X      Y      Z        X      Y      Z
     1  45     0.00  -0.00   0.04    -0.01  -0.01  -0.00     0.00   0.09   0.00
     2  15    -0.02   0.01  -0.11     0.03   0.00   0.01    -0.00  -0.07   0.00
     3   6     0.00   0.24   0.02    -0.02  -0.03  -0.00    -0.02  -0.19  -0.05
     4   6    -0.05  -0.11  -0.06     0.02  -0.01   0.02    -0.05  -0.19   0.01
     5   6     0.03  -0.14  -0.08     0.01   0.07  -0.00     0.04  -0.19   0.00
     6   1    -0.01  -0.18  -0.12     0.04  -0.16   0.20     0.01  -0.49   0.15
     7   1     0.13  -0.14  -0.01     0.09   0.08  -0.30     0.27  -0.18  -0.20
     8   1     0.06   0.42   0.02     0.08   0.12   0.07    -0.02  -0.24  -0.03
     9   1     0.04   0.29  -0.08     0.06  -0.20  -0.07    -0.02  -0.26  -0.01
    10   1    -0.08   0.21   0.24    -0.23  -0.02  -0.01    -0.04  -0.16  -0.17
    11   1    -0.00   0.08  -0.23     0.06   0.35  -0.19    -0.02  -0.31  -0.00
    12   1    -0.20  -0.36  -0.19    -0.23  -0.30  -0.12     0.01  -0.21  -0.00
    13   1     0.02  -0.15   0.23     0.24  -0.07   0.36    -0.19  -0.18   0.02
    14   6     0.00   0.00   0.04    -0.01  -0.00  -0.01    -0.00   0.07  -0.00
    15   8    -0.01  -0.02  -0.05     0.01  -0.00   0.01    -0.01   0.06  -0.03
    16   6     0.01  -0.03   0.05    -0.03   0.00  -0.00     0.01   0.04   0.02
    17   8     0.01   0.03   0.05     0.02   0.00  -0.01    -0.00  -0.02   0.02
    18   1     0.01  -0.22  -0.11    -0.15   0.35   0.11    -0.14  -0.02   0.08
    19   1    -0.01   0.10   0.03     0.12  -0.03  -0.02    -0.03   0.15   0.01
    20   8     0.00  -0.00  -0.00    -0.00  -0.00   0.00     0.01   0.00   0.01
    21   6    -0.00   0.00  -0.00    -0.00   0.00   0.00     0.00   0.00   0.00
    22   1    -0.00   0.01   0.00    -0.01   0.01   0.00     0.00   0.01  -0.00
    23   6    -0.00  -0.00  -0.00    -0.00  -0.00  -0.00    -0.00  -0.00   0.00
    24   1    -0.00  -0.00  -0.01    -0.00  -0.01  -0.01    -0.00  -0.01  -0.00
    25   1    -0.01   0.00  -0.00    -0.01  -0.00  -0.00    -0.01   0.00  -0.00
    26   6     0.01  -0.00   0.00     0.00   0.00  -0.00     0.00   0.00   0.00
    27   1     0.04   0.02   0.01     0.03   0.03   0.01    -0.02  -0.02  -0.01
    28   1     0.01  -0.03   0.02     0.00  -0.04   0.01    -0.00   0.03  -0.00
    29   1    -0.01   0.01  -0.02    -0.03   0.02  -0.03     0.03  -0.01   0.02
                     16                     17                     18
                      A                      A                      A
 Frequencies --    217.3777               226.8842               246.5064
 Red. masses --      1.1358                 1.1171                 1.2365
 Frc consts  --      0.0316                 0.0339                 0.0443
 IR Inten    --      1.5760                 0.4344                 1.6835
  Atom  AN      X      Y      Z        X      Y      Z        X      Y      Z
     1  45    -0.00  -0.00   0.00     0.00   0.01  -0.00    -0.00   0.00  -0.00
     2  15    -0.00   0.00  -0.01     0.00  -0.01   0.03    -0.04  -0.01   0.02
     3   6    -0.01   0.02   0.00    -0.00  -0.06  -0.00     0.08  -0.03  -0.00
     4   6     0.00   0.00  -0.00    -0.03  -0.00  -0.02    -0.01   0.01   0.04
     5   6    -0.01  -0.00   0.01     0.02  -0.01  -0.01    -0.00  -0.00  -0.06
     6   1     0.01  -0.10   0.09    -0.03   0.31  -0.28    -0.05   0.09  -0.20
     7   1     0.05   0.00  -0.09    -0.16  -0.01   0.32    -0.05  -0.01   0.02
     8   1     0.00   0.05   0.00    -0.06  -0.16  -0.04     0.41   0.29   0.30
     9   1     0.00   0.00  -0.01    -0.05  -0.02   0.07     0.35  -0.35  -0.34
    10   1    -0.04   0.02   0.02     0.09  -0.05  -0.06    -0.38  -0.01   0.02
    11   1    -0.00  -0.02   0.03     0.03   0.30  -0.24    -0.04  -0.04   0.11
    12   1     0.04   0.03   0.01    -0.29  -0.24  -0.13     0.06   0.04   0.06
    13   1    -0.01   0.01  -0.03     0.16  -0.05   0.27    -0.03   0.01  -0.00
    14   6     0.00  -0.00   0.00    -0.00   0.01  -0.01     0.00   0.00  -0.00
    15   8    -0.00  -0.01  -0.00    -0.00   0.01   0.00    -0.00   0.00   0.00
    16   6    -0.01  -0.00   0.00     0.00   0.01  -0.00     0.04   0.01  -0.01
    17   8     0.00   0.00  -0.00    -0.00  -0.01   0.00    -0.03   0.00   0.00
    18   1    -0.08   0.08   0.05     0.26  -0.31  -0.14     0.15  -0.08  -0.10
    19   1     0.02  -0.00  -0.00    -0.01  -0.01   0.00    -0.15   0.01   0.02
    20   8    -0.04   0.01  -0.03    -0.01   0.00  -0.01    -0.01   0.00  -0.00
    21   6     0.02  -0.02   0.00     0.01  -0.00   0.00     0.00  -0.00  -0.00
    22   1     0.03  -0.12   0.01     0.01  -0.02   0.01     0.00  -0.01  -0.00
    23   6     0.06   0.03   0.03     0.01   0.01   0.01     0.01   0.00   0.00
    24   1     0.05   0.05   0.06     0.01   0.01   0.01     0.00   0.01   0.01
    25   1     0.09   0.02   0.02     0.02   0.01   0.00     0.01   0.00   0.01
    26   6    -0.00  -0.00   0.00    -0.00  -0.00   0.00    -0.00   0.00   0.00
    27   1    -0.44  -0.34  -0.15    -0.10  -0.08  -0.03    -0.02  -0.01  -0.00
    28   1    -0.01   0.51  -0.20    -0.00   0.11  -0.05    -0.00   0.01  -0.01
    29   1     0.36  -0.19   0.31     0.08  -0.04   0.07     0.01  -0.01   0.01
                     19                     20                     21
                      A                      A                      A
 Frequencies --    262.3175               265.8410               278.2963
 Red. masses --      2.1908                 2.1575                 2.0622
 Frc consts  --      0.0888                 0.0898                 0.0941
 IR Inten    --      0.6799                 3.1422                14.3938
  Atom  AN      X      Y      Z        X      Y      Z        X      Y      Z
     1  45     0.00   0.00   0.00    -0.00   0.01   0.00    -0.01  -0.00  -0.00
     2  15    -0.07   0.01  -0.07     0.05  -0.01  -0.08     0.01  -0.00   0.02
     3   6     0.14  -0.01  -0.09    -0.11  -0.01  -0.08     0.03   0.01   0.02
     4   6     0.07  -0.05   0.17     0.13   0.01   0.00    -0.01  -0.03   0.01
     5   6    -0.12   0.02  -0.01    -0.07  -0.03   0.16     0.01   0.06  -0.04
     6   1    -0.06   0.07   0.05     0.06   0.18   0.24     0.02  -0.05   0.03
     7   1    -0.17   0.02   0.00    -0.18  -0.04   0.42     0.03   0.07  -0.24
     8   1     0.09  -0.29  -0.03    -0.05   0.20  -0.09    -0.08  -0.15  -0.05
     9   1     0.10   0.24  -0.13    -0.06  -0.27  -0.06    -0.06   0.18   0.10
    10   1     0.46  -0.01  -0.14    -0.41  -0.00  -0.08     0.25   0.00   0.02
    11   1    -0.04   0.12   0.32     0.07   0.11   0.09     0.01   0.02  -0.05
    12   1     0.22  -0.25   0.08     0.18  -0.02  -0.01    -0.07  -0.12  -0.03
    13   1     0.18  -0.08   0.38     0.22  -0.00   0.04     0.00  -0.04   0.10
    14   6     0.03   0.01   0.01    -0.03   0.00   0.03    -0.04  -0.01   0.02
    15   8    -0.02  -0.00  -0.01     0.02  -0.00  -0.02     0.03  -0.01  -0.01
    16   6    -0.03  -0.02   0.02     0.08  -0.02  -0.00     0.24  -0.02  -0.05
    17   8     0.02   0.01   0.01    -0.04   0.02   0.01    -0.12   0.01   0.01
    18   1    -0.16   0.02  -0.00    -0.21  -0.26   0.09    -0.01   0.25   0.03
    19   1     0.11   0.04  -0.01    -0.27   0.09   0.04    -0.77   0.09   0.10
    20   8    -0.01   0.00  -0.00    -0.00   0.00   0.00    -0.00  -0.00  -0.00
    21   6     0.00  -0.00  -0.00     0.00  -0.00   0.00     0.00  -0.00   0.00
    22   1     0.00  -0.02  -0.00    -0.00   0.00   0.01     0.00  -0.01   0.00
    23   6     0.01   0.00   0.00     0.00  -0.00   0.00     0.00   0.00   0.01
    24   1     0.00   0.01   0.00     0.00  -0.00   0.00     0.00   0.01   0.01
    25   1     0.01   0.00   0.01    -0.00  -0.00   0.00     0.01   0.00   0.01
    26   6     0.00   0.00   0.00    -0.00   0.00  -0.00    -0.00   0.00   0.00
    27   1    -0.00  -0.00  -0.00     0.00   0.02   0.01    -0.02  -0.01  -0.00
    28   1     0.00   0.00  -0.00    -0.00  -0.01  -0.00    -0.00   0.01  -0.01
    29   1    -0.00  -0.00   0.00    -0.01   0.01  -0.01     0.00  -0.00   0.01
                     22                     23                     24
                      A                      A                      A
 Frequencies --    335.8035               348.9524               394.2615
 Red. masses --      2.1611                 3.4512                 4.5397
 Frc consts  --      0.1436                 0.2476                 0.4158
 IR Inten    --      3.3830                42.4174                11.1827
  Atom  AN      X      Y      Z        X      Y      Z        X      Y      Z
     1  45    -0.00   0.00   0.00    -0.00  -0.05   0.00    -0.00  -0.00   0.00
     2  15    -0.00  -0.01  -0.00     0.01   0.22   0.01    -0.01  -0.04  -0.05
     3   6     0.00   0.00   0.01    -0.01  -0.02  -0.15    -0.00   0.03  -0.01
     4   6     0.00  -0.00  -0.00    -0.10  -0.03   0.07     0.04  -0.01  -0.02
     5   6    -0.01   0.00  -0.01     0.12  -0.04   0.06    -0.05  -0.01  -0.02
     6   1    -0.01   0.00  -0.01     0.03  -0.19   0.01    -0.01   0.01   0.03
     7   1    -0.02   0.00  -0.02     0.38  -0.04   0.20    -0.08  -0.01  -0.04
     8   1     0.00   0.01   0.01    -0.00  -0.16  -0.07    -0.00   0.10  -0.04
     9   1     0.00   0.02   0.00     0.00  -0.20  -0.09    -0.01   0.12  -0.03
    10   1     0.01  -0.00   0.03    -0.07   0.03  -0.43     0.02   0.01   0.11
    11   1    -0.00  -0.00   0.01    -0.05  -0.18   0.03     0.01   0.02   0.03
    12   1     0.00   0.02   0.00    -0.02  -0.21  -0.01     0.08  -0.02  -0.03
    13   1     0.00   0.00  -0.02    -0.35  -0.02   0.25     0.09  -0.02  -0.02
    14   6     0.01  -0.00   0.00    -0.02   0.01  -0.05    -0.07  -0.07  -0.29
    15   8    -0.00  -0.00  -0.00     0.01   0.02   0.02     0.03   0.04   0.12
    16   6    -0.00  -0.00  -0.00     0.03   0.02  -0.01     0.07   0.36   0.09
    17   8    -0.00  -0.00  -0.00    -0.01  -0.00   0.00     0.00  -0.13   0.13
    18   1     0.00   0.01  -0.00     0.03  -0.20   0.01    -0.10   0.01  -0.01
    19   1     0.01   0.02  -0.00    -0.06  -0.26   0.04    -0.07  -0.78   0.14
    20   8    -0.06  -0.02   0.01    -0.00  -0.01   0.00    -0.00   0.00  -0.00
    21   6     0.01   0.03   0.17    -0.00   0.00   0.02     0.00  -0.00   0.00
    22   1    -0.14   0.30   0.60    -0.02   0.04   0.05     0.00  -0.00   0.00
    23   6     0.13  -0.12  -0.01     0.01  -0.01  -0.00     0.00   0.00   0.00
    24   1     0.13  -0.16   0.02     0.01  -0.02  -0.00     0.00  -0.00   0.00
    25   1     0.06  -0.10  -0.03    -0.00  -0.01  -0.01     0.00   0.00   0.00
    26   6    -0.02   0.07  -0.17     0.00   0.01  -0.02     0.00  -0.00   0.00
    27   1    -0.20   0.23   0.02    -0.01   0.02  -0.00     0.00   0.00   0.00
    28   1     0.01   0.07  -0.36     0.00   0.01  -0.03     0.00  -0.00  -0.00
    29   1    -0.07   0.14  -0.34     0.00   0.01  -0.03    -0.00  -0.00   0.00
                     25                     26                     27
                      A                      A                      A
 Frequencies --    441.5884               461.4772               467.7887
 Red. masses --     11.3866                10.7448                14.6736
 Frc consts  --      1.3082                 1.3482                 1.8918
 IR Inten    --      0.3574                44.0622                 6.7009
  Atom  AN      X      Y      Z        X      Y      Z        X      Y      Z
     1  45    -0.07   0.00   0.01    -0.02   0.06  -0.14    -0.01  -0.11  -0.08
     2  15     0.05   0.01  -0.01     0.00   0.06   0.02     0.00  -0.04   0.01
     3   6    -0.01   0.01  -0.01     0.00  -0.00  -0.01     0.00  -0.03   0.06
     4   6     0.03  -0.04  -0.03    -0.04   0.02   0.03     0.02  -0.00  -0.02
     5   6     0.04   0.03   0.02     0.04   0.02   0.02    -0.02   0.01  -0.01
     6   1     0.08   0.08   0.06     0.02   0.00  -0.01     0.00   0.05  -0.01
     7   1    -0.03   0.03   0.01     0.07   0.02   0.03    -0.10   0.01  -0.07
     8   1    -0.03   0.05  -0.06    -0.00  -0.07   0.02     0.00  -0.02   0.05
     9   1    -0.02  -0.04   0.04     0.01  -0.07   0.01     0.01  -0.03   0.05
    10   1    -0.06   0.01  -0.01    -0.01   0.01  -0.11    -0.00  -0.04   0.07
    11   1     0.07  -0.10  -0.07    -0.02   0.00  -0.00     0.02   0.02  -0.03
    12   1     0.03  -0.09  -0.05    -0.05   0.02   0.03    -0.02   0.06   0.01
    13   1    -0.07  -0.03   0.03    -0.06   0.02   0.03     0.07  -0.00  -0.08
    14   6     0.84   0.00  -0.14    -0.00  -0.32   0.06     0.01   0.48  -0.15
    15   8    -0.31  -0.05   0.06     0.04  -0.33   0.07    -0.06   0.52  -0.09
    16   6     0.08   0.03  -0.01     0.02  -0.09   0.40     0.07  -0.30   0.36
    17   8    -0.03  -0.01   0.01     0.08   0.05   0.40     0.06   0.13   0.37
    18   1     0.01   0.05   0.03     0.06   0.00   0.02     0.02   0.07   0.01
    19   1    -0.26  -0.01   0.04    -0.00   0.61  -0.08     0.00  -0.06   0.01
    20   8     0.00   0.00  -0.00     0.00  -0.00  -0.01    -0.00  -0.00  -0.00
    21   6    -0.00   0.00  -0.01     0.00   0.00   0.00    -0.00   0.00   0.00
    22   1     0.00  -0.01  -0.02    -0.00   0.01   0.01    -0.01   0.01   0.02
    23   6    -0.01   0.00   0.00    -0.00  -0.00   0.00     0.00  -0.00  -0.00
    24   1    -0.01  -0.01   0.01    -0.00  -0.01  -0.00    -0.00   0.01   0.00
    25   1    -0.02   0.01   0.00    -0.01  -0.00  -0.01     0.02  -0.00   0.00
    26   6    -0.01   0.00   0.01     0.00  -0.00   0.00     0.00   0.00  -0.00
    27   1     0.00  -0.00   0.00     0.00   0.00   0.01    -0.00   0.00  -0.00
    28   1    -0.01  -0.00   0.01    -0.00  -0.00   0.00     0.00   0.01  -0.01
    29   1    -0.01   0.00   0.01    -0.00   0.00  -0.00     0.01   0.00  -0.01
                     28                     29                     30
                      A                      A                      A
 Frequencies --    517.7594               560.3903               656.0537
 Red. masses --      2.6830                10.5450                 1.6089
 Frc consts  --      0.4238                 1.9511                 0.4080
 IR Inten    --     16.8326                61.0074                13.1460
  Atom  AN      X      Y      Z        X      Y      Z        X      Y      Z
     1  45    -0.00   0.00  -0.00    -0.01  -0.05  -0.06    -0.02   0.01   0.00
     2  15    -0.00  -0.00   0.00     0.00  -0.00   0.00     0.00  -0.00  -0.00
     3   6    -0.00  -0.00   0.00    -0.00  -0.01   0.01     0.00  -0.00   0.01
     4   6     0.00   0.00   0.00    -0.00   0.00   0.00    -0.01   0.00   0.00
     5   6    -0.00  -0.00   0.00     0.00   0.00   0.00    -0.01  -0.00  -0.00
     6   1    -0.00   0.00   0.00     0.00   0.01  -0.00    -0.02  -0.02  -0.01
     7   1    -0.00  -0.00   0.00    -0.01   0.00  -0.01     0.02  -0.00   0.01
     8   1    -0.00  -0.00   0.00    -0.00  -0.03   0.01     0.00  -0.01   0.01
     9   1     0.00   0.00  -0.00    -0.00  -0.03   0.02     0.00  -0.00   0.00
    10   1     0.00  -0.00   0.00    -0.00  -0.01  -0.02     0.01  -0.00   0.01
    11   1     0.00   0.01  -0.01     0.00   0.00  -0.00    -0.02   0.01   0.01
    12   1    -0.00  -0.00  -0.00    -0.01   0.01   0.01    -0.00   0.02   0.01
    13   1     0.01   0.00   0.01     0.01   0.00  -0.01     0.01   0.00  -0.01
    14   6     0.00  -0.00  -0.00     0.09   0.19   0.65    -0.01  -0.01   0.01
    15   8     0.00  -0.00   0.00    -0.03  -0.01  -0.21     0.00  -0.01  -0.00
    16   6    -0.00   0.00   0.00     0.02   0.49   0.05     0.20  -0.03  -0.03
    17   8     0.00   0.00   0.00     0.01  -0.13   0.08    -0.07   0.01   0.01
    18   1    -0.00  -0.00  -0.00     0.02   0.02   0.01    -0.01  -0.03  -0.01
    19   1     0.00   0.00  -0.00     0.04  -0.46  -0.02     0.95  -0.14  -0.13
    20   8     0.07  -0.14   0.18    -0.00  -0.00   0.00     0.00  -0.00  -0.00
    21   6    -0.20  -0.02  -0.01    -0.00  -0.00   0.00    -0.00   0.00  -0.00
    22   1    -0.19   0.17  -0.07    -0.00   0.00   0.00    -0.00   0.00  -0.00
    23   6     0.02   0.12  -0.08     0.00   0.00  -0.00    -0.00  -0.00   0.00
    24   1    -0.01   0.66  -0.22     0.00   0.00  -0.01     0.00  -0.00  -0.01
    25   1     0.50  -0.01   0.04     0.01   0.00  -0.00    -0.00  -0.00  -0.00
    26   6     0.05   0.02  -0.10     0.00   0.00   0.00    -0.00   0.00   0.00
    27   1    -0.01  -0.06  -0.14    -0.00  -0.00  -0.00    -0.01   0.00   0.00
    28   1     0.05   0.10  -0.12     0.00  -0.00  -0.00    -0.00  -0.00  -0.00
    29   1     0.11  -0.02  -0.02    -0.00   0.00   0.00    -0.00   0.00   0.00
                     31                     32                     33
                      A                      A                      A
 Frequencies --    696.8652               752.6629               760.6327
 Red. masses --      3.8759                 1.4160                 3.0854
 Frc consts  --      1.1090                 0.4726                 1.0517
 IR Inten    --     17.2567                57.4861                29.8430
  Atom  AN      X      Y      Z        X      Y      Z        X      Y      Z
     1  45     0.00  -0.00  -0.00    -0.00  -0.02   0.00     0.00   0.01  -0.00
     2  15     0.00   0.15   0.02     0.01   0.01   0.04    -0.07  -0.02   0.15
     3   6     0.02  -0.10   0.23    -0.00   0.04  -0.06    -0.04   0.14  -0.20
     4   6     0.21  -0.07  -0.14     0.03  -0.02  -0.01     0.18  -0.10  -0.09
     5   6    -0.22  -0.06  -0.11    -0.04  -0.02  -0.01    -0.02  -0.01   0.03
     6   1    -0.28  -0.16  -0.14    -0.07  -0.02  -0.05    -0.13  -0.05  -0.12
     7   1    -0.09  -0.06  -0.05    -0.06  -0.02  -0.04    -0.00  -0.00  -0.08
     8   1     0.01  -0.21   0.27    -0.01   0.01  -0.05     0.01   0.02  -0.09
     9   1     0.02  -0.21   0.27    -0.00   0.01  -0.05     0.02   0.14  -0.31
    10   1    -0.00  -0.07   0.07    -0.01   0.05  -0.12     0.03   0.16  -0.35
    11   1     0.26  -0.18  -0.20     0.06  -0.01  -0.06     0.26  -0.11  -0.24
    12   1     0.23  -0.19  -0.20    -0.03   0.02   0.01     0.02  -0.01  -0.06
    13   1     0.06  -0.06  -0.04     0.05  -0.02  -0.06     0.22  -0.09  -0.22
    14   6     0.00  -0.01   0.01    -0.01   0.01  -0.05     0.00  -0.00   0.03
    15   8     0.00  -0.02   0.00     0.00   0.02   0.01     0.00  -0.01  -0.01
    16   6    -0.01  -0.01  -0.00     0.02   0.11  -0.01    -0.00  -0.07   0.01
    17   8     0.00   0.00  -0.01    -0.01  -0.03   0.00     0.00   0.02   0.00
    18   1    -0.26  -0.15  -0.15     0.02   0.00  -0.00     0.19   0.08   0.05
    19   1    -0.03  -0.05   0.01     0.13   0.94  -0.13    -0.03  -0.50   0.06
    20   8     0.00  -0.00  -0.00    -0.00  -0.00   0.00     0.00  -0.00  -0.00
    21   6     0.00   0.00   0.00    -0.00  -0.00   0.00     0.00   0.00   0.00
    22   1     0.00   0.00   0.00     0.00  -0.00  -0.00     0.00  -0.01  -0.00
    23   6    -0.00  -0.00  -0.00     0.00   0.00  -0.00     0.00   0.00   0.00
    24   1    -0.00  -0.00   0.00     0.00  -0.01  -0.01     0.01  -0.02  -0.01
    25   1    -0.00  -0.00  -0.00    -0.01   0.00  -0.00    -0.02   0.01  -0.00
    26   6    -0.00  -0.00   0.00     0.00   0.00  -0.00     0.00  -0.00  -0.00
    27   1     0.00   0.00   0.00    -0.00  -0.00  -0.00    -0.01  -0.00  -0.00
    28   1    -0.00   0.00   0.00     0.00  -0.00  -0.01     0.00  -0.01  -0.01
    29   1     0.00   0.00  -0.00    -0.01   0.00   0.00    -0.01   0.00   0.01
                     34                     35                     36
                      A                      A                      A
 Frequencies --    763.3424               788.9885               806.7410
 Red. masses --      3.5096                 1.3488                 1.1690
 Frc consts  --      1.2049                 0.4947                 0.4483
 IR Inten    --     19.3839                 2.9221                 0.1141
  Atom  AN      X      Y      Z        X      Y      Z        X      Y      Z
     1  45     0.00   0.01  -0.00     0.00  -0.00   0.00    -0.00   0.00   0.00
     2  15     0.17  -0.02   0.06    -0.00  -0.00   0.00    -0.00   0.00   0.00
     3   6     0.05   0.07  -0.11    -0.00   0.00  -0.00     0.07   0.00  -0.01
     4   6    -0.11   0.08   0.12     0.00  -0.00  -0.00    -0.03  -0.00  -0.06
     5   6    -0.24  -0.12  -0.13     0.00   0.00   0.00    -0.03   0.00   0.06
     6   1    -0.22  -0.07  -0.12    -0.00  -0.00  -0.00    -0.27  -0.11  -0.26
     7   1    -0.38  -0.12  -0.21     0.01   0.00   0.00     0.09   0.01  -0.15
     8   1    -0.09   0.17  -0.32     0.00  -0.01   0.01    -0.12   0.16  -0.31
     9   1    -0.05  -0.07   0.12     0.00   0.00  -0.01    -0.08  -0.16   0.32
    10   1    -0.11   0.09  -0.16     0.00   0.00  -0.01    -0.17   0.01   0.00
    11   1    -0.01  -0.02  -0.03     0.00   0.00  -0.00    -0.24   0.13   0.30
    12   1    -0.26   0.10   0.14     0.00  -0.00  -0.00     0.34  -0.12  -0.10
    13   1    -0.26   0.10   0.11     0.01  -0.00  -0.00     0.14  -0.04   0.10
    14   6     0.01  -0.00   0.02    -0.00   0.00  -0.00     0.00   0.00   0.00
    15   8    -0.00  -0.01  -0.00     0.00  -0.00   0.00    -0.00  -0.00   0.00
    16   6    -0.01  -0.04   0.00     0.00   0.00  -0.00    -0.00  -0.00   0.00
    17   8     0.00   0.01   0.00    -0.00  -0.00  -0.00     0.00   0.00  -0.00
    18   1    -0.24  -0.06  -0.11     0.01   0.00   0.00     0.38   0.11   0.07
    19   1    -0.08  -0.28   0.04     0.00   0.01  -0.00    -0.00  -0.00   0.00
    20   8     0.00   0.00  -0.00     0.01   0.05  -0.04    -0.00   0.00   0.00
    21   6    -0.00   0.00  -0.00     0.00   0.02  -0.06    -0.00  -0.00  -0.00
    22   1    -0.00   0.01   0.00    -0.05   0.26   0.06    -0.00   0.00   0.00
    23   6    -0.00  -0.01  -0.00    -0.03  -0.13   0.01     0.00   0.00  -0.00
    24   1    -0.01   0.02   0.02    -0.10   0.37   0.23     0.00   0.00  -0.00
    25   1     0.02  -0.01  -0.00     0.55  -0.24   0.02    -0.00  -0.00   0.00
    26   6    -0.00  -0.00   0.00    -0.04  -0.02   0.05    -0.00   0.00  -0.00
    27   1     0.00   0.01   0.01     0.00   0.15   0.19     0.00  -0.00  -0.00
    28   1    -0.01   0.01   0.02    -0.09   0.22   0.30    -0.00  -0.00  -0.00
    29   1     0.02   0.00  -0.01     0.27   0.01  -0.23    -0.00  -0.00   0.00
                     37                     38                     39
                      A                      A                      A
 Frequencies --    868.5314               881.0450               892.1019
 Red. masses --      1.2540                 1.2692                 1.5752
 Frc consts  --      0.5573                 0.5805                 0.7386
 IR Inten    --      7.8246                14.8611                16.0380
  Atom  AN      X      Y      Z        X      Y      Z        X      Y      Z
     1  45    -0.00   0.00   0.00    -0.00  -0.00  -0.00    -0.00   0.00  -0.00
     2  15     0.04   0.00  -0.01     0.01  -0.00   0.04     0.00  -0.00   0.00
     3   6    -0.03   0.02   0.02    -0.02  -0.08  -0.07    -0.00  -0.01  -0.01
     4   6    -0.05  -0.09   0.01     0.00   0.03  -0.03     0.00   0.00  -0.00
     5   6    -0.04   0.06  -0.00    -0.03   0.06  -0.03    -0.00   0.01  -0.00
     6   1    -0.21  -0.23  -0.10    -0.11  -0.19   0.00    -0.01  -0.02  -0.01
     7   1     0.35   0.05   0.13     0.33   0.06   0.22     0.03   0.00   0.01
     8   1     0.05  -0.16   0.19     0.05   0.29  -0.14     0.00   0.03  -0.01
     9   1     0.05  -0.01  -0.11    -0.04   0.34  -0.21    -0.00   0.03  -0.01
    10   1     0.08   0.04  -0.14     0.07  -0.17   0.52     0.00  -0.01   0.04
    11   1    -0.19   0.30   0.12    -0.03  -0.04   0.07     0.00  -0.00  -0.00
    12   1    -0.11   0.28   0.19     0.16  -0.13  -0.09     0.01  -0.01  -0.00
    13   1     0.46  -0.11  -0.30    -0.08   0.02   0.14    -0.01   0.00   0.01
    14   6     0.01  -0.00  -0.00     0.00   0.00   0.01     0.00   0.00   0.00
    15   8    -0.00  -0.00   0.00    -0.00   0.00  -0.00    -0.00  -0.00  -0.00
    16   6    -0.01  -0.00   0.00    -0.00  -0.00   0.00     0.00  -0.00  -0.00
    17   8     0.00   0.00  -0.00     0.00   0.00   0.00    -0.00  -0.00   0.00
    18   1    -0.05  -0.18  -0.09    -0.20  -0.23  -0.12    -0.01  -0.01  -0.01
    19   1    -0.06  -0.03   0.01    -0.02   0.04  -0.01     0.01   0.00  -0.00
    20   8    -0.00  -0.00   0.00     0.00   0.00  -0.00    -0.03  -0.03  -0.00
    21   6     0.00  -0.00  -0.00    -0.00   0.00  -0.01     0.07  -0.00   0.13
    22   1    -0.00  -0.00   0.00    -0.01   0.02  -0.00     0.14  -0.36  -0.01
    23   6    -0.00   0.00  -0.00     0.00  -0.00   0.00    -0.08   0.07  -0.01
    24   1    -0.00  -0.00   0.00     0.01  -0.01  -0.02    -0.14   0.08   0.34
    25   1    -0.00   0.00   0.00    -0.00  -0.01   0.02     0.04   0.16  -0.37
    26   6     0.00   0.00  -0.00     0.00   0.00   0.01    -0.01  -0.02  -0.11
    27   1     0.00  -0.00  -0.00    -0.02   0.00   0.01     0.34   0.02  -0.20
    28   1     0.00  -0.00   0.00     0.01  -0.01  -0.02    -0.09   0.13   0.37
    29   1    -0.00  -0.00   0.00    -0.02   0.00   0.01     0.35  -0.06  -0.23
                     40                     41                     42
                      A                      A                      A
 Frequencies --    935.4016               973.7246               975.2417
 Red. masses --      1.2812                 1.4067                 1.4129
 Frc consts  --      0.6605                 0.7858                 0.7918
 IR Inten    --     13.8985                44.6624                35.5611
  Atom  AN      X      Y      Z        X      Y      Z        X      Y      Z
     1  45     0.00  -0.00   0.00    -0.00   0.00  -0.00     0.00  -0.00   0.00
     2  15    -0.00  -0.00  -0.00     0.03   0.01   0.05     0.05  -0.01  -0.03
     3   6     0.00   0.00   0.00    -0.06   0.03   0.00    -0.11  -0.01   0.01
     4   6    -0.00  -0.00   0.00    -0.07   0.00  -0.10     0.01   0.05   0.00
     5   6    -0.00   0.00   0.00     0.03  -0.05  -0.06    -0.05  -0.02   0.10
     6   1    -0.01  -0.00  -0.00     0.26   0.17   0.18    -0.30  -0.08  -0.28
     7   1     0.01   0.00   0.00    -0.30  -0.06  -0.02    -0.00  -0.02  -0.23
     8   1    -0.00  -0.00  -0.00     0.06  -0.13   0.22     0.13  -0.17   0.38
     9   1    -0.00  -0.01   0.01     0.05   0.07  -0.21     0.07   0.18  -0.40
    10   1    -0.00   0.00  -0.00     0.10   0.04  -0.13     0.20  -0.03   0.04
    11   1     0.00  -0.00  -0.00    -0.34   0.15   0.37     0.03  -0.09  -0.01
    12   1    -0.00   0.00   0.00     0.44  -0.13  -0.15     0.03  -0.09  -0.06
    13   1     0.00   0.00  -0.00     0.16  -0.05   0.15    -0.21   0.06   0.16
    14   6    -0.00  -0.00  -0.00     0.00   0.00   0.00     0.00  -0.00  -0.00
    15   8    -0.00   0.00   0.00    -0.00  -0.00  -0.00    -0.00   0.00   0.00
    16   6    -0.00   0.00   0.00     0.00  -0.00  -0.00    -0.00   0.00   0.00
    17   8     0.00  -0.00  -0.00    -0.00   0.00  -0.00     0.00  -0.00   0.00
    18   1     0.01  -0.00   0.00    -0.21   0.03  -0.01     0.43   0.14   0.12
    19   1    -0.00   0.00   0.00     0.01  -0.01   0.00    -0.00   0.01  -0.00
    20   8     0.01  -0.02  -0.02     0.00  -0.00   0.00     0.00   0.00   0.00
    21   6    -0.07   0.09   0.04     0.00   0.00   0.00    -0.00   0.00  -0.00
    22   1     0.11  -0.32  -0.41     0.00  -0.01  -0.01    -0.00  -0.00  -0.00
    23   6     0.01  -0.01   0.04    -0.00   0.00   0.00    -0.00  -0.00   0.00
    24   1     0.04  -0.03  -0.12    -0.00  -0.00   0.00     0.00  -0.00   0.00
    25   1     0.01   0.10  -0.35     0.00   0.00  -0.01    -0.01   0.00   0.00
    26   6     0.04  -0.07   0.03     0.00  -0.00  -0.00     0.00   0.00  -0.00
    27   1    -0.31   0.24   0.41     0.00   0.01   0.01    -0.00  -0.00  -0.00
    28   1     0.07   0.13  -0.26    -0.00   0.00   0.00     0.00  -0.00  -0.01
    29   1     0.04   0.07  -0.36     0.00  -0.00  -0.01    -0.00  -0.00   0.00
                     43                     44                     45
                      A                      A                      A
 Frequencies --    982.9813              1029.7920              1144.9244
 Red. masses --      1.4609                 2.5816                 1.8824
 Frc consts  --      0.8317                 1.6130                 1.4539
 IR Inten    --    196.6812                 3.9933                 1.2544
  Atom  AN      X      Y      Z        X      Y      Z        X      Y      Z
     1  45    -0.00   0.00  -0.00     0.00   0.00  -0.00     0.00   0.00   0.00
     2  15     0.00   0.07  -0.00    -0.00   0.00   0.00     0.00   0.00   0.00
     3   6    -0.01  -0.09  -0.04     0.00  -0.00  -0.00     0.00  -0.00   0.00
     4   6    -0.02  -0.08   0.03     0.00  -0.00  -0.00     0.00  -0.00  -0.00
     5   6     0.02  -0.09   0.03     0.00  -0.00  -0.00     0.00  -0.00  -0.00
     6   1     0.09   0.19  -0.02     0.00   0.00   0.00     0.00   0.00   0.00
     7   1    -0.36  -0.08  -0.22    -0.01  -0.00  -0.00    -0.00  -0.00  -0.00
     8   1     0.05   0.23  -0.11    -0.00   0.01  -0.01    -0.00   0.00  -0.00
     9   1    -0.06   0.23  -0.10    -0.00   0.00   0.00     0.00   0.00  -0.00
    10   1     0.04  -0.17   0.46    -0.00  -0.00   0.01     0.00  -0.00   0.00
    11   1    -0.04   0.16  -0.03    -0.00   0.00  -0.00    -0.00   0.00   0.00
    12   1    -0.14   0.21   0.16    -0.00   0.00   0.00    -0.00   0.00   0.00
    13   1     0.29  -0.08  -0.25     0.00  -0.00  -0.00    -0.00  -0.00  -0.00
    14   6     0.00   0.00   0.00     0.00   0.00   0.00     0.00  -0.00   0.00
    15   8     0.00  -0.00   0.00     0.00  -0.00   0.00    -0.00   0.00  -0.00
    16   6     0.00  -0.00   0.00     0.00   0.00  -0.00     0.00   0.00  -0.00
    17   8    -0.00   0.00  -0.00    -0.00  -0.00  -0.00    -0.00  -0.00  -0.00
    18   1     0.15   0.22   0.12    -0.00   0.00   0.00    -0.00   0.00   0.00
    19   1     0.00  -0.03   0.01     0.00   0.00   0.00     0.00   0.00  -0.00
    20   8     0.00  -0.00  -0.00     0.01   0.03  -0.03    -0.01   0.02   0.04
    21   6    -0.00   0.00  -0.00    -0.05   0.06  -0.03     0.06  -0.13  -0.12
    22   1    -0.00   0.00  -0.00     0.00   0.10  -0.21    -0.17   0.38   0.47
    23   6     0.00  -0.00  -0.00    -0.13  -0.03   0.24    -0.04   0.15   0.05
    24   1     0.00  -0.00  -0.01    -0.16   0.04   0.36    -0.02  -0.12   0.05
    25   1     0.00  -0.00  -0.00    -0.05  -0.15   0.61    -0.18   0.23  -0.15
    26   6    -0.00  -0.00   0.00     0.15  -0.04  -0.18     0.03  -0.11   0.00
    27   1    -0.00   0.00   0.01     0.06  -0.10  -0.20    -0.13   0.18   0.31
    28   1    -0.00   0.00   0.00     0.19  -0.14  -0.35     0.03   0.18  -0.13
    29   1    -0.00   0.00  -0.00     0.04  -0.05  -0.11     0.14   0.02  -0.42
                     46                     47                     48
                      A                      A                      A
 Frequencies --   1167.3724              1273.6967              1328.2413
 Red. masses --      2.0224                 1.1853                 1.2367
 Frc consts  --      1.6238                 1.1329                 1.2855
 IR Inten    --     17.2982                 9.3672                18.4790
  Atom  AN      X      Y      Z        X      Y      Z        X      Y      Z
     1  45    -0.00   0.00  -0.00    -0.00  -0.00   0.00    -0.00   0.00   0.00
     2  15    -0.00  -0.00  -0.00     0.00  -0.00  -0.00     0.00  -0.00  -0.00
     3   6     0.00  -0.00   0.00    -0.00   0.00  -0.00    -0.00  -0.02   0.04
     4   6    -0.00   0.00   0.00     0.00  -0.00  -0.00    -0.10   0.05   0.07
     5   6    -0.00   0.00   0.00    -0.00   0.00   0.00    -0.03  -0.01  -0.01
     6   1    -0.00  -0.00  -0.00    -0.00  -0.00  -0.00     0.07   0.07   0.09
     7   1     0.00   0.00   0.00     0.00   0.00   0.00     0.13  -0.01   0.05
     8   1    -0.00  -0.00  -0.00     0.00  -0.00   0.00    -0.07   0.10  -0.11
     9   1     0.00  -0.00   0.00    -0.00  -0.00   0.00     0.06   0.10  -0.13
    10   1    -0.00   0.00  -0.00     0.00   0.00   0.00     0.00   0.02  -0.16
    11   1     0.00  -0.00  -0.00    -0.00   0.00   0.00     0.23  -0.25  -0.41
    12   1    -0.00   0.00   0.00    -0.00   0.00   0.00     0.43  -0.29  -0.09
    13   1     0.00  -0.00   0.00    -0.01   0.00  -0.00     0.44   0.00  -0.26
    14   6    -0.00  -0.00   0.00     0.00  -0.00  -0.00     0.00   0.00  -0.00
    15   8    -0.00   0.00  -0.00    -0.00   0.00  -0.00    -0.00   0.00   0.00
    16   6     0.00  -0.00  -0.00    -0.00  -0.00  -0.00    -0.00  -0.00  -0.00
    17   8    -0.00  -0.00   0.00     0.00   0.00   0.00    -0.00  -0.00  -0.00
    18   1     0.00  -0.00  -0.00    -0.00  -0.00  -0.00     0.13   0.06   0.01
    19   1     0.00  -0.00  -0.00    -0.00  -0.00  -0.00    -0.00  -0.00   0.00
    20   8     0.03  -0.02   0.03     0.00   0.01  -0.02    -0.00   0.00  -0.00
    21   6    -0.15   0.06  -0.11     0.03   0.01   0.05     0.00  -0.00  -0.00
    22   1    -0.15   0.01  -0.13     0.08  -0.04  -0.07     0.00   0.04  -0.01
    23   6     0.19   0.01   0.06     0.02   0.03   0.00     0.00  -0.00   0.02
    24   1     0.18  -0.51   0.45     0.11   0.12  -0.59     0.02  -0.01  -0.08
    25   1    -0.21   0.09   0.06    -0.20  -0.09   0.60     0.02   0.01  -0.06
    26   6    -0.09  -0.02  -0.04    -0.07  -0.07  -0.02    -0.01   0.01  -0.00
    27   1     0.22   0.08  -0.05     0.12   0.10   0.06     0.02  -0.01  -0.03
    28   1    -0.16   0.11   0.39    -0.11   0.16   0.16    -0.00  -0.02   0.00
    29   1     0.25  -0.08  -0.06     0.22  -0.06  -0.22     0.03  -0.01   0.01
                     49                     50                     51
                      A                      A                      A
 Frequencies --   1334.5187              1335.7941              1351.3250
 Red. masses --      1.4634                 1.2557                 1.2172
 Frc consts  --      1.5355                 1.3201                 1.3096
 IR Inten    --      4.0978                22.9071                 8.9812
  Atom  AN      X      Y      Z        X      Y      Z        X      Y      Z
     1  45    -0.00  -0.00   0.00    -0.00   0.00  -0.00    -0.00  -0.00  -0.00
     2  15     0.00  -0.00   0.00     0.00  -0.00   0.00     0.00   0.00  -0.00
     3   6    -0.00   0.02  -0.04    -0.01   0.05  -0.08     0.00  -0.04   0.07
     4   6     0.01  -0.00  -0.01    -0.01   0.01   0.00     0.04  -0.02  -0.03
     5   6    -0.02  -0.01  -0.01    -0.08  -0.03  -0.04    -0.08  -0.04  -0.04
     6   1     0.05   0.04   0.07     0.21   0.17   0.27     0.22   0.20   0.27
     7   1     0.08  -0.01   0.05     0.33  -0.02   0.18     0.34  -0.03   0.18
     8   1     0.08  -0.11   0.13     0.17  -0.23   0.28    -0.15   0.21  -0.24
     9   1    -0.06  -0.11   0.14    -0.13  -0.24   0.29     0.11   0.21  -0.26
    10   1     0.02  -0.02   0.17     0.05  -0.04   0.37    -0.03   0.03  -0.33
    11   1    -0.02   0.02   0.04     0.02  -0.03  -0.03    -0.10   0.11   0.17
    12   1    -0.04   0.03   0.01     0.05  -0.02  -0.01    -0.18   0.13   0.04
    13   1    -0.04  -0.00   0.03     0.05  -0.00  -0.01    -0.19  -0.00   0.11
    14   6     0.00  -0.00  -0.00     0.00   0.00   0.00     0.00  -0.00  -0.00
    15   8    -0.00   0.00  -0.00    -0.00  -0.00  -0.00     0.00  -0.00   0.00
    16   6    -0.00  -0.00   0.00     0.00   0.00   0.00     0.00   0.00  -0.00
    17   8     0.00   0.00   0.00    -0.00   0.00  -0.00     0.00  -0.00   0.00
    18   1     0.08   0.05   0.01     0.33   0.19   0.02     0.34   0.21   0.03
    19   1    -0.00   0.00  -0.00    -0.00   0.00  -0.00    -0.00   0.00  -0.01
    20   8    -0.01   0.01  -0.00     0.00  -0.00   0.00    -0.00   0.00   0.00
    21   6     0.00  -0.03  -0.03    -0.00   0.01   0.01     0.00   0.00  -0.00
    22   1     0.00   0.25  -0.12     0.00  -0.07   0.03    -0.00   0.00   0.00
    23   6     0.00  -0.04   0.17    -0.00   0.01  -0.05    -0.00  -0.00   0.01
    24   1     0.13  -0.01  -0.58    -0.04   0.00   0.19     0.00   0.00  -0.03
    25   1     0.13   0.12  -0.51    -0.04  -0.04   0.16     0.01   0.00  -0.02
    26   6    -0.04   0.04  -0.05     0.01  -0.01   0.02    -0.00   0.00  -0.00
    27   1     0.14  -0.03  -0.16    -0.04   0.01   0.05     0.00   0.00  -0.00
    28   1    -0.04  -0.11   0.10     0.01   0.04  -0.04    -0.00  -0.00   0.01
    29   1     0.13  -0.05   0.11    -0.04   0.02  -0.04    -0.00  -0.00   0.01
                     52                     53                     54
                      A                      A                      A
 Frequencies --   1415.1592              1436.8305              1452.6741
 Red. masses --      1.2179                 1.2114                 1.0514
 Frc consts  --      1.4370                 1.4735                 1.3072
 IR Inten    --      2.9622                10.2380                 0.4127
  Atom  AN      X      Y      Z        X      Y      Z        X      Y      Z
     1  45    -0.00  -0.00   0.00    -0.00   0.00  -0.00     0.00  -0.00  -0.00
     2  15     0.00   0.00  -0.00    -0.00  -0.00   0.00    -0.00   0.00   0.00
     3   6    -0.00   0.00  -0.00    -0.00  -0.00   0.00     0.03   0.01   0.00
     4   6    -0.00   0.01   0.00     0.00   0.00   0.00    -0.02  -0.00  -0.04
     5   6    -0.00  -0.00   0.00     0.00   0.00  -0.00    -0.02   0.00   0.03
     6   1    -0.00   0.00  -0.00    -0.00  -0.00   0.00     0.08   0.23   0.03
     7   1     0.00  -0.00  -0.00    -0.00   0.00   0.00     0.17   0.01  -0.36
     8   1     0.00  -0.00   0.00     0.01   0.02   0.00    -0.10  -0.28  -0.03
     9   1    -0.00  -0.00   0.00    -0.00  -0.00   0.00     0.03   0.15  -0.08
    10   1    -0.00  -0.00   0.00     0.02   0.00  -0.02    -0.33   0.00   0.10
    11   1    -0.00  -0.03   0.02     0.00   0.00  -0.00     0.07  -0.24  -0.11
    12   1    -0.03  -0.04  -0.02     0.00  -0.00   0.00     0.06   0.36   0.14
    13   1     0.03   0.00  -0.03    -0.00   0.00   0.00     0.20  -0.08   0.44
    14   6     0.00  -0.00  -0.00     0.00  -0.00   0.00    -0.00   0.00   0.00
    15   8    -0.00   0.00  -0.00    -0.00   0.00  -0.00     0.00  -0.00  -0.00
    16   6    -0.00   0.00   0.00     0.00  -0.00  -0.00     0.00   0.00   0.00
    17   8    -0.00  -0.00  -0.00    -0.00   0.00   0.00    -0.00  -0.00  -0.00
    18   1    -0.00   0.00   0.00     0.00  -0.00  -0.00    -0.02  -0.27  -0.08
    19   1    -0.00  -0.00  -0.00     0.00  -0.00  -0.00    -0.00  -0.00   0.00
    20   8     0.01   0.01  -0.00    -0.07  -0.04   0.01    -0.00  -0.00  -0.00
    21   6    -0.00   0.00  -0.01     0.06  -0.03   0.05     0.00  -0.00   0.00
    22   1    -0.04  -0.16   0.16     0.21   0.67  -0.61     0.00   0.01  -0.01
    23   6    -0.02   0.00   0.02     0.02   0.02  -0.04     0.00   0.00  -0.00
    24   1     0.00   0.01  -0.09    -0.00  -0.04   0.17    -0.00   0.00   0.00
    25   1     0.02  -0.00   0.00    -0.05   0.02   0.03    -0.01   0.00   0.00
    26   6     0.07  -0.02  -0.12     0.02  -0.02  -0.02     0.00  -0.00  -0.00
    27   1    -0.39   0.26   0.30    -0.05   0.10   0.10    -0.01   0.01   0.01
    28   1    -0.06   0.09   0.57    -0.01   0.11   0.10    -0.00  -0.00   0.00
    29   1    -0.31  -0.11   0.40    -0.13  -0.02   0.11     0.00  -0.01   0.01
                     55                     56                     57
                      A                      A                      A
 Frequencies --   1459.8642              1461.6166              1466.6975
 Red. masses --      1.0502                 1.0483                 1.0645
 Frc consts  --      1.3188                 1.3195                 1.3492
 IR Inten    --      3.3894                 2.1937                12.4083
  Atom  AN      X      Y      Z        X      Y      Z        X      Y      Z
     1  45     0.00  -0.00   0.00    -0.00   0.00   0.00    -0.00  -0.00  -0.00
     2  15    -0.00  -0.00  -0.00     0.00  -0.00  -0.00     0.00  -0.00   0.01
     3   6     0.01   0.02   0.01     0.00   0.03   0.01     0.01   0.01   0.00
     4   6    -0.02  -0.04   0.00    -0.01   0.01  -0.01     0.01  -0.00   0.02
     5   6     0.01   0.02  -0.02     0.02  -0.04  -0.02    -0.01  -0.02   0.02
     6   1    -0.04  -0.32   0.12    -0.15   0.12  -0.36     0.03   0.34  -0.15
     7   1    -0.24   0.00   0.24     0.11  -0.03   0.38     0.26  -0.01  -0.22
     8   1    -0.12  -0.14  -0.09    -0.20  -0.20  -0.16    -0.09  -0.13  -0.06
     9   1     0.09  -0.06  -0.12     0.16  -0.14  -0.20     0.07  -0.05  -0.09
    10   1    -0.06  -0.01   0.11    -0.04  -0.01   0.18    -0.06  -0.00   0.10
    11   1     0.09   0.30  -0.33     0.01  -0.17   0.04    -0.04   0.22   0.03
    12   1     0.37   0.26   0.15    -0.07   0.06   0.02     0.02  -0.21  -0.08
    13   1    -0.20  -0.02   0.17     0.13  -0.02   0.12    -0.17   0.05  -0.28
    14   6    -0.00  -0.00   0.00     0.00  -0.00  -0.00     0.00  -0.00   0.00
    15   8     0.00   0.00  -0.00    -0.00   0.00   0.00    -0.00   0.00  -0.00
    16   6     0.00   0.00   0.00     0.00   0.00   0.00     0.00   0.00   0.00
    17   8    -0.00  -0.00  -0.00    -0.00  -0.00  -0.00    -0.00  -0.00  -0.00
    18   1     0.17   0.09   0.00    -0.31   0.48   0.20    -0.19  -0.06   0.01
    19   1    -0.00   0.00  -0.00    -0.00   0.00  -0.01     0.00   0.00   0.01
    20   8     0.00   0.00  -0.00    -0.00  -0.00   0.00     0.00   0.00  -0.00
    21   6    -0.00  -0.00  -0.00     0.00   0.00   0.00    -0.00  -0.01  -0.01
    22   1    -0.01   0.01   0.01     0.00   0.00  -0.01    -0.01   0.03   0.00
    23   6     0.02  -0.02   0.00    -0.01   0.01  -0.00     0.04  -0.04   0.01
    24   1    -0.02   0.22   0.05     0.01  -0.07  -0.02    -0.03   0.44   0.10
    25   1    -0.21   0.04  -0.03     0.07  -0.01   0.01    -0.42   0.09  -0.08
    26   6     0.00   0.01  -0.01     0.00  -0.00   0.00    -0.00   0.01  -0.00
    27   1    -0.07   0.03   0.05     0.02  -0.00  -0.01    -0.06   0.02   0.03
    28   1     0.00  -0.11   0.03    -0.00   0.03  -0.01     0.01  -0.14   0.01
    29   1     0.08  -0.03   0.04    -0.02   0.01  -0.01     0.11  -0.03   0.02
                     58                     59                     60
                      A                      A                      A
 Frequencies --   1468.4177              1472.3175              1482.4399
 Red. masses --      1.0604                 1.0507                 1.0449
 Frc consts  --      1.3472                 1.3419                 1.3529
 IR Inten    --      5.7064                17.4252                 6.3835
  Atom  AN      X      Y      Z        X      Y      Z        X      Y      Z
     1  45    -0.00  -0.00   0.00     0.00   0.00  -0.00    -0.00   0.00  -0.00
     2  15    -0.00  -0.00  -0.00    -0.01  -0.00   0.00     0.00  -0.01  -0.00
     3   6    -0.03  -0.02  -0.00    -0.04   0.01   0.01     0.01  -0.03  -0.02
     4   6    -0.01   0.01  -0.03    -0.01  -0.03  -0.00    -0.01  -0.02   0.01
     5   6     0.01  -0.00  -0.00    -0.01  -0.01   0.02     0.01  -0.03   0.00
     6   1    -0.03  -0.02  -0.05     0.03   0.25  -0.08    -0.06   0.19  -0.24
     7   1    -0.01  -0.00   0.09     0.19   0.00  -0.21     0.17  -0.02   0.10
     8   1     0.18   0.35   0.09    -0.03   0.27  -0.11     0.26   0.10   0.25
     9   1    -0.10  -0.07   0.17     0.10  -0.42  -0.03    -0.25   0.38   0.27
    10   1     0.31   0.00  -0.18     0.51  -0.01   0.02    -0.22   0.02  -0.25
    11   1     0.03  -0.33   0.04     0.06   0.19  -0.20     0.05   0.24  -0.20
    12   1    -0.11   0.19   0.06     0.23   0.18   0.10     0.24   0.11   0.07
    13   1     0.25  -0.05   0.29    -0.14  -0.02   0.12    -0.18   0.00   0.04
    14   6    -0.00  -0.00  -0.00    -0.00  -0.00   0.00     0.00  -0.00  -0.00
    15   8     0.00   0.00   0.00     0.00   0.00  -0.00    -0.00   0.00  -0.00
    16   6     0.00   0.00  -0.00    -0.00   0.00   0.00    -0.00  -0.00  -0.00
    17   8     0.00  -0.00   0.00    -0.00   0.00  -0.00     0.00  -0.00   0.00
    18   1    -0.04   0.09   0.03    -0.13  -0.10  -0.01    -0.23   0.20   0.10
    19   1    -0.00   0.00  -0.00    -0.00   0.00   0.00     0.00   0.00  -0.00
    20   8     0.00   0.00  -0.00     0.00  -0.00   0.00    -0.00  -0.00  -0.00
    21   6    -0.00  -0.01  -0.01    -0.00   0.00   0.00     0.00   0.00   0.00
    22   1    -0.01   0.01   0.02     0.00  -0.02   0.01     0.00  -0.00   0.00
    23   6     0.03  -0.04   0.01    -0.02   0.02  -0.00    -0.01   0.01  -0.00
    24   1    -0.03   0.38   0.08     0.01  -0.19  -0.04     0.00  -0.08  -0.01
    25   1    -0.37   0.07  -0.07     0.18  -0.04   0.04     0.08  -0.02   0.02
    26   6    -0.00   0.01  -0.00     0.00  -0.00  -0.00     0.00   0.00  -0.00
    27   1    -0.04   0.02   0.03    -0.01   0.00   0.00    -0.04   0.01   0.02
    28   1     0.01  -0.10   0.00    -0.00   0.02   0.01     0.00  -0.05   0.02
    29   1     0.09  -0.03   0.02    -0.02   0.00   0.00     0.03  -0.01   0.01
                     61                     62                     63
                      A                      A                      A
 Frequencies --   1498.2708              1503.0484              1825.6771
 Red. masses --      1.0435                 1.0618                 9.9573
 Frc consts  --      1.3801                 1.4133                19.5541
 IR Inten    --     10.1146                11.7350               228.6608
  Atom  AN      X      Y      Z        X      Y      Z        X      Y      Z
     1  45    -0.00  -0.00  -0.00     0.00   0.00  -0.00     0.00  -0.00   0.00
     2  15    -0.00  -0.00   0.00     0.00   0.00   0.00    -0.00   0.00  -0.00
     3   6     0.00  -0.00  -0.00    -0.00   0.00   0.00    -0.00  -0.00  -0.00
     4   6    -0.00  -0.00   0.00     0.00   0.01  -0.00    -0.00  -0.00   0.00
     5   6     0.00  -0.00   0.00    -0.00   0.00  -0.00     0.00  -0.00   0.00
     6   1    -0.00   0.01  -0.01     0.00  -0.01   0.01     0.00   0.00   0.00
     7   1     0.01  -0.00   0.00    -0.01   0.00  -0.00    -0.00  -0.00  -0.00
     8   1     0.01   0.01   0.01    -0.01  -0.01  -0.01     0.01   0.01   0.01
     9   1    -0.01   0.01   0.01     0.01  -0.01  -0.01    -0.01  -0.01   0.02
    10   1    -0.00   0.00  -0.01     0.00  -0.00   0.01     0.01  -0.00   0.00
    11   1     0.01   0.04  -0.04    -0.01  -0.05   0.05     0.02  -0.00  -0.03
    12   1     0.04   0.01   0.01    -0.06  -0.03  -0.02     0.02   0.01   0.01
    13   1    -0.03   0.00  -0.00     0.03   0.00  -0.02     0.01  -0.00   0.01
    14   6     0.00  -0.00   0.00    -0.00   0.00   0.00    -0.00  -0.01   0.00
    15   8    -0.00   0.00  -0.00    -0.00  -0.00   0.00    -0.00   0.00  -0.00
    16   6     0.00   0.00  -0.00    -0.00  -0.00  -0.00    -0.00   0.00   0.01
    17   8     0.00  -0.00  -0.00    -0.00   0.00  -0.00    -0.00  -0.00  -0.01
    18   1    -0.01   0.01   0.00     0.01  -0.01  -0.00     0.00   0.00   0.00
    19   1     0.00   0.00   0.00     0.00  -0.00   0.00    -0.00   0.00   0.02
    20   8     0.01   0.00  -0.00    -0.01  -0.00   0.00    -0.28  -0.32   0.22
    21   6    -0.01   0.00  -0.01     0.01   0.00   0.01     0.38   0.49  -0.35
    22   1    -0.03  -0.06   0.06     0.02   0.00  -0.00     0.17  -0.24   0.30
    23   6    -0.01  -0.03   0.01    -0.03   0.03  -0.03    -0.02  -0.05   0.04
    24   1    -0.02   0.10   0.03    -0.02  -0.15   0.03     0.02   0.15  -0.19
    25   1    -0.05   0.01  -0.08     0.14  -0.04   0.08    -0.01  -0.06   0.13
    26   6    -0.02  -0.04  -0.01    -0.04   0.02  -0.02    -0.01  -0.00   0.01
    27   1     0.55   0.34   0.13    -0.04   0.34   0.28     0.04  -0.04  -0.03
    28   1     0.01   0.45  -0.36     0.04  -0.48  -0.21    -0.02   0.01  -0.01
    29   1    -0.17  -0.13   0.39     0.55  -0.23   0.32     0.02   0.02  -0.05
                     64                     65                     66
                      A                      A                      A
 Frequencies --   1870.0238              2105.3225              2159.9660
 Red. masses --      1.0495                10.0125                12.3203
 Frc consts  --      2.1624                26.1475                33.8660
 IR Inten    --     45.4550              1441.9408               983.0114
  Atom  AN      X      Y      Z        X      Y      Z        X      Y      Z
     1  45    -0.00  -0.00  -0.01    -0.00  -0.00  -0.00     0.00  -0.00  -0.00
     2  15     0.00  -0.00   0.00    -0.00  -0.00  -0.00    -0.00  -0.01  -0.00
     3   6    -0.00   0.00  -0.00    -0.00  -0.00   0.00     0.00   0.00   0.00
     4   6     0.00   0.00  -0.00     0.00  -0.00   0.00     0.00   0.00  -0.00
     5   6    -0.00   0.00  -0.00    -0.00  -0.00   0.00    -0.00   0.00  -0.00
     6   1    -0.00  -0.00  -0.00    -0.00   0.00  -0.00    -0.00  -0.00  -0.00
     7   1     0.01   0.00   0.01     0.00  -0.00   0.00     0.01  -0.00   0.01
     8   1     0.00   0.00   0.00    -0.00  -0.01  -0.00     0.00   0.00   0.01
     9   1    -0.00   0.00   0.00     0.00  -0.01  -0.00    -0.00   0.01   0.01
    10   1    -0.00  -0.00  -0.00     0.00  -0.00   0.01    -0.00   0.00  -0.02
    11   1     0.00  -0.00   0.00     0.00  -0.00  -0.00     0.00  -0.00  -0.00
    12   1    -0.00   0.00  -0.00    -0.00   0.00   0.00     0.00  -0.00  -0.00
    13   1    -0.00   0.00   0.01    -0.00  -0.00   0.00    -0.01   0.00   0.01
    14   6     0.00  -0.01   0.01    -0.04   0.48  -0.11    -0.05   0.54  -0.12
    15   8    -0.00   0.01  -0.00     0.03  -0.35   0.08     0.03  -0.38   0.09
    16   6     0.00   0.00   0.03    -0.08  -0.03  -0.48     0.09   0.03   0.55
    17   8    -0.01  -0.00  -0.04     0.06   0.02   0.34    -0.07  -0.02  -0.38
    18   1     0.00   0.00  -0.00     0.00   0.00   0.00    -0.00  -0.00  -0.00
    19   1     0.15   0.12   0.98     0.08   0.06   0.51    -0.04  -0.03  -0.28
    20   8     0.00   0.00  -0.00    -0.00  -0.00   0.00     0.00   0.00  -0.00
    21   6    -0.00  -0.00   0.00     0.00   0.01  -0.01    -0.00  -0.00   0.00
    22   1     0.00   0.00  -0.00     0.00  -0.01   0.00     0.01   0.00  -0.00
    23   6     0.00   0.00  -0.00    -0.00  -0.00   0.00     0.00   0.00   0.00
    24   1    -0.00  -0.00  -0.00     0.00   0.01  -0.01    -0.01  -0.00  -0.01
    25   1     0.00   0.00   0.00    -0.00   0.00  -0.00    -0.00   0.01   0.00
    26   6     0.00   0.00  -0.00     0.00  -0.00  -0.00    -0.00  -0.00  -0.00
    27   1    -0.00  -0.00  -0.00    -0.00   0.00   0.00     0.00   0.00  -0.00
    28   1    -0.00   0.00   0.00    -0.00   0.00   0.00     0.00   0.00   0.00
    29   1    -0.00   0.00  -0.00    -0.00  -0.00   0.00     0.00  -0.00   0.00
                     67                     68                     69
                      A                      A                      A
 Frequencies --   2904.9419              3038.7899              3053.9380
 Red. masses --      1.0827                 1.0590                 1.0363
 Frc consts  --      5.3833                 5.7616                 5.6945
 IR Inten    --    165.1957                 1.7312                31.6504
  Atom  AN      X      Y      Z        X      Y      Z        X      Y      Z
     1  45     0.00   0.00   0.00     0.00  -0.00  -0.00     0.00  -0.00  -0.00
     2  15     0.00   0.00   0.00    -0.00  -0.00  -0.00    -0.00   0.00   0.00
     3   6     0.00  -0.00   0.00     0.00   0.00  -0.00     0.00  -0.00   0.00
     4   6     0.00  -0.00   0.00     0.00  -0.00  -0.00     0.00  -0.00  -0.00
     5   6    -0.00  -0.00  -0.00     0.00   0.00   0.00    -0.00  -0.00  -0.00
     6   1     0.00  -0.00  -0.00    -0.00   0.00   0.00     0.01  -0.00  -0.00
     7   1    -0.00   0.00  -0.00    -0.00  -0.00  -0.00    -0.00   0.01   0.00
     8   1     0.00  -0.00  -0.00    -0.00   0.00   0.00     0.02  -0.01  -0.01
     9   1    -0.00   0.00  -0.00     0.00   0.00   0.00    -0.02  -0.01  -0.01
    10   1    -0.00   0.00   0.00    -0.00  -0.00  -0.00     0.00   0.03   0.01
    11   1    -0.01  -0.00  -0.00    -0.02  -0.00  -0.01    -0.03  -0.01  -0.02
    12   1    -0.00  -0.00   0.00     0.00  -0.01   0.01     0.00  -0.02   0.03
    13   1    -0.00   0.00   0.00     0.00   0.01   0.00     0.01   0.05   0.00
    14   6    -0.00  -0.00   0.00    -0.00   0.00  -0.00    -0.00  -0.00   0.00
    15   8    -0.00   0.00  -0.00     0.00  -0.00   0.00     0.00   0.00  -0.00
    16   6    -0.00  -0.00  -0.00    -0.00   0.00   0.00    -0.00   0.00   0.00
    17   8     0.00   0.00   0.00    -0.00  -0.00  -0.00     0.00   0.00  -0.00
    18   1    -0.00  -0.00   0.00    -0.00   0.00  -0.00     0.00  -0.00   0.01
    19   1    -0.00  -0.00  -0.00    -0.00   0.00   0.00    -0.00   0.00  -0.00
    20   8    -0.00  -0.00   0.00     0.00   0.00  -0.00    -0.00  -0.00   0.00
    21   6    -0.08  -0.00  -0.03     0.00  -0.00   0.00    -0.00   0.00  -0.00
    22   1     0.95   0.07   0.30    -0.00   0.00  -0.00     0.01  -0.00   0.00
    23   6     0.00   0.00   0.00    -0.05   0.05   0.01    -0.00   0.01   0.00
    24   1    -0.03  -0.00  -0.00     0.69   0.08   0.12     0.06   0.01   0.01
    25   1    -0.01  -0.03  -0.02    -0.14  -0.65  -0.18    -0.02  -0.10  -0.03
    26   6     0.00   0.00  -0.00     0.01  -0.01  -0.00    -0.03   0.02   0.03
    27   1     0.00  -0.01   0.00     0.00  -0.00   0.01    -0.12   0.30  -0.33
    28   1    -0.01  -0.00  -0.01    -0.10  -0.01  -0.02     0.64   0.05   0.11
    29   1     0.00   0.01   0.00     0.02   0.08   0.03    -0.13  -0.54  -0.18
                     70                     71                     72
                      A                      A                      A
 Frequencies --   3055.5782              3055.6388              3058.2544
 Red. masses --      1.0343                 1.0342                 1.0346
 Frc consts  --      5.6896                 5.6895                 5.7010
 IR Inten    --     22.7711                 6.3251                 7.4129
  Atom  AN      X      Y      Z        X      Y      Z        X      Y      Z
     1  45     0.00  -0.00  -0.00    -0.00  -0.00   0.00    -0.00  -0.00  -0.00
     2  15    -0.00   0.00   0.00     0.00   0.00  -0.00     0.00   0.00   0.00
     3   6    -0.00  -0.01   0.02     0.00  -0.03   0.03     0.00   0.00  -0.00
     4   6     0.03  -0.03  -0.02    -0.01   0.01   0.01    -0.01   0.00   0.00
     5   6    -0.01  -0.00  -0.00     0.00   0.00   0.00    -0.04  -0.03  -0.02
     6   1     0.06  -0.03  -0.04    -0.03   0.01   0.02     0.41  -0.17  -0.27
     7   1    -0.00   0.10   0.00     0.00  -0.05  -0.00    -0.02   0.68   0.01
     8   1     0.19  -0.07  -0.14     0.37  -0.13  -0.28    -0.01   0.00   0.00
     9   1    -0.20  -0.05  -0.10    -0.39  -0.11  -0.21    -0.00   0.00  -0.00
    10   1     0.01   0.29   0.05     0.02   0.58   0.11    -0.00  -0.01  -0.00
    11   1    -0.40  -0.09  -0.22     0.21   0.05   0.11     0.07   0.02   0.04
    12   1    -0.00  -0.19   0.39     0.00   0.10  -0.20     0.00   0.04  -0.08
    13   1     0.08   0.59   0.06    -0.04  -0.30  -0.03    -0.02  -0.11  -0.01
    14   6    -0.00   0.00  -0.00     0.00   0.00  -0.00     0.00   0.00  -0.00
    15   8     0.00  -0.00   0.00    -0.00  -0.00   0.00     0.00  -0.00   0.00
    16   6     0.00   0.00   0.00     0.00   0.00   0.00     0.00   0.00   0.00
    17   8    -0.00   0.00  -0.00    -0.00   0.00  -0.00    -0.00  -0.00  -0.00
    18   1     0.00  -0.03   0.07    -0.00   0.01  -0.03     0.02  -0.18   0.45
    19   1    -0.00   0.00   0.00     0.00  -0.00  -0.00     0.00   0.00   0.00
    20   8    -0.00  -0.00   0.00     0.00   0.00   0.00     0.00   0.00  -0.00
    21   6     0.00   0.00   0.00    -0.00  -0.00   0.00    -0.00  -0.00   0.00
    22   1    -0.01  -0.00  -0.00    -0.00  -0.00  -0.00     0.00   0.00  -0.00
    23   6     0.00  -0.00  -0.00    -0.00   0.00   0.00    -0.00   0.00   0.00
    24   1    -0.01  -0.00  -0.00     0.00   0.00   0.00     0.00   0.00   0.00
    25   1     0.01   0.03   0.01    -0.00  -0.01  -0.00    -0.00  -0.00  -0.00
    26   6     0.00  -0.00  -0.00     0.00  -0.00  -0.00     0.00  -0.00  -0.00
    27   1     0.01  -0.02   0.03     0.00  -0.00   0.00     0.00  -0.00   0.00
    28   1    -0.05  -0.00  -0.01    -0.01  -0.00  -0.00    -0.00  -0.00  -0.00
    29   1     0.01   0.04   0.01     0.00   0.01   0.00     0.00   0.00   0.00
                     73                     74                     75
                      A                      A                      A
 Frequencies --   3090.9585              3126.3384              3141.8097
 Red. masses --      1.1044                 1.1031                 1.1023
 Frc consts  --      6.2169                 6.3522                 6.4106
 IR Inten    --      2.3314                35.7671                16.8314
  Atom  AN      X      Y      Z        X      Y      Z        X      Y      Z
     1  45     0.00  -0.00  -0.00     0.00  -0.00  -0.00     0.00  -0.00   0.00
     2  15    -0.00  -0.00  -0.00    -0.00  -0.00  -0.00    -0.00   0.00  -0.00
     3   6     0.00   0.00   0.00    -0.00   0.00   0.00     0.00  -0.00  -0.00
     4   6     0.00   0.00   0.00     0.00  -0.00   0.00    -0.00   0.00  -0.00
     5   6     0.00  -0.00  -0.00    -0.00   0.00   0.00     0.00  -0.00   0.00
     6   1    -0.00   0.00   0.00     0.00  -0.00  -0.00    -0.00   0.00   0.00
     7   1    -0.00   0.00  -0.00    -0.00  -0.00  -0.00    -0.00   0.00   0.00
     8   1    -0.00  -0.00  -0.00     0.00  -0.00  -0.00    -0.00   0.00   0.00
     9   1    -0.00  -0.00  -0.00     0.00   0.00   0.00     0.00   0.00   0.00
    10   1     0.00  -0.00  -0.00     0.00  -0.00  -0.00     0.00   0.01   0.00
    11   1    -0.00   0.00  -0.00    -0.00   0.00  -0.00     0.00   0.00   0.00
    12   1     0.00   0.00  -0.01     0.00   0.00  -0.01    -0.00  -0.00   0.00
    13   1    -0.00  -0.02  -0.00    -0.00   0.00   0.00     0.00   0.00   0.00
    14   6    -0.00   0.00  -0.00    -0.00   0.00  -0.00    -0.00   0.00  -0.00
    15   8     0.00  -0.00   0.00     0.00   0.00  -0.00     0.00  -0.00   0.00
    16   6    -0.00   0.00   0.00    -0.00  -0.00   0.00    -0.00   0.00  -0.00
    17   8     0.00   0.00  -0.00     0.00   0.00  -0.00     0.00  -0.00   0.00
    18   1     0.00  -0.00   0.00     0.00   0.00  -0.00    -0.00   0.00  -0.00
    19   1    -0.00  -0.00   0.00    -0.00  -0.00   0.00    -0.00   0.00   0.00
    20   8     0.00   0.00  -0.00     0.00   0.00  -0.00    -0.00  -0.00   0.00
    21   6    -0.01  -0.00  -0.00    -0.00  -0.00  -0.00     0.00   0.00   0.00
    22   1     0.04   0.00   0.02     0.01  -0.00   0.01    -0.00  -0.00   0.00
    23   6    -0.07  -0.06  -0.02    -0.02  -0.02  -0.01    -0.00   0.01   0.00
    24   1     0.65   0.06   0.11     0.20   0.02   0.03     0.01   0.00   0.00
    25   1     0.13   0.64   0.18     0.04   0.19   0.05    -0.01  -0.06  -0.02
    26   6     0.02   0.02   0.01    -0.07  -0.05  -0.03    -0.03   0.08  -0.04
    27   1    -0.00   0.02  -0.01     0.02  -0.10   0.09     0.21  -0.56   0.63
    28   1    -0.17  -0.01  -0.03     0.67   0.04   0.11     0.23   0.03   0.03
    29   1    -0.05  -0.22  -0.07     0.12   0.61   0.20    -0.09  -0.37  -0.14
                     76                     77                     78
                      A                      A                      A
 Frequencies --   3144.1526              3144.8907              3148.1624
 Red. masses --      1.1033                 1.1026                 1.1028
 Frc consts  --      6.4263                 6.4253                 6.4398
 IR Inten    --      2.0823                 9.4866                 9.8355
  Atom  AN      X      Y      Z        X      Y      Z        X      Y      Z
     1  45    -0.00   0.00   0.00     0.00  -0.00  -0.00     0.00  -0.00  -0.00
     2  15     0.00  -0.00  -0.00    -0.00  -0.00  -0.00     0.00  -0.00  -0.00
     3   6     0.01  -0.07  -0.05     0.01  -0.03  -0.02     0.00  -0.01  -0.01
     4   6     0.02   0.03   0.00    -0.05  -0.07  -0.00    -0.00  -0.00  -0.00
     5   6    -0.00   0.01   0.00    -0.00   0.01   0.00     0.04  -0.08  -0.00
     6   1     0.06  -0.02  -0.04     0.04  -0.01  -0.03    -0.52   0.19   0.33
     7   1     0.00  -0.07  -0.00     0.00  -0.05  -0.00    -0.00   0.69   0.01
     8   1    -0.42   0.13   0.32    -0.22   0.07   0.17    -0.06   0.02   0.04
     9   1     0.24   0.05   0.12     0.10   0.02   0.05     0.04   0.01   0.02
    10   1     0.03   0.64   0.11     0.01   0.31   0.05     0.00   0.09   0.01
    11   1    -0.24  -0.04  -0.13     0.47   0.09   0.25     0.02   0.00   0.01
    12   1     0.00  -0.06   0.14    -0.00   0.12  -0.28    -0.00  -0.00   0.01
    13   1    -0.04  -0.31  -0.03     0.07   0.63   0.06    -0.00   0.01   0.00
    14   6    -0.00   0.00  -0.00    -0.00   0.00  -0.00    -0.00   0.00  -0.00
    15   8     0.00  -0.00   0.00    -0.00  -0.00   0.00     0.00  -0.00   0.00
    16   6    -0.00   0.00  -0.00     0.00   0.00   0.00     0.00   0.00   0.00
    17   8     0.00  -0.00   0.00    -0.00  -0.00  -0.00    -0.00  -0.00  -0.00
    18   1     0.00  -0.01   0.02     0.00  -0.01   0.02    -0.01   0.09  -0.28
    19   1    -0.00   0.00   0.00     0.00  -0.00  -0.00    -0.00  -0.00  -0.00
    20   8    -0.00  -0.00   0.00     0.00   0.00  -0.00     0.00   0.00  -0.00
    21   6     0.00   0.00  -0.00    -0.00  -0.00   0.00    -0.00  -0.00   0.00
    22   1    -0.00  -0.00  -0.00     0.00   0.00   0.00    -0.00   0.00  -0.00
    23   6     0.00   0.00   0.00    -0.00  -0.00  -0.00    -0.00  -0.00  -0.00
    24   1    -0.00  -0.00  -0.00     0.01   0.00   0.00     0.00  -0.00  -0.00
    25   1     0.00  -0.00  -0.00     0.00   0.00   0.00     0.00   0.00   0.00
    26   6     0.00  -0.00   0.00     0.00  -0.00   0.00     0.00  -0.00   0.00
    27   1    -0.00   0.00  -0.00    -0.00   0.00  -0.00    -0.00   0.00  -0.00
    28   1    -0.00  -0.00   0.00    -0.00  -0.00  -0.00    -0.00  -0.00  -0.00
    29   1     0.00   0.00   0.00     0.00  -0.00  -0.00     0.00   0.00   0.00
                     79                     80                     81
                      A                      A                      A
 Frequencies --   3157.3385              3161.9223              3162.8999
 Red. masses --      1.1030                 1.1028                 1.1038
 Frc consts  --      6.4786                 6.4959                 6.5057
 IR Inten    --      0.2326                 1.7490                 1.8258
  Atom  AN      X      Y      Z        X      Y      Z        X      Y      Z
     1  45     0.00  -0.00   0.00     0.00   0.00   0.00     0.00  -0.00   0.00
     2  15    -0.00  -0.00  -0.00     0.00   0.00  -0.00    -0.00   0.00  -0.00
     3   6    -0.09  -0.02  -0.01     0.00  -0.00  -0.00    -0.00  -0.00  -0.00
     4   6    -0.00  -0.00   0.00     0.00  -0.00   0.01    -0.04   0.03  -0.08
     5   6    -0.00   0.00   0.00     0.03   0.02  -0.08     0.00   0.00  -0.01
     6   1     0.01  -0.00  -0.00    -0.44   0.18   0.27    -0.02   0.01   0.01
     7   1     0.00   0.00   0.00     0.01  -0.16  -0.01     0.00  -0.02  -0.00
     8   1     0.42  -0.15  -0.34    -0.00   0.00   0.00     0.01  -0.00  -0.01
     9   1     0.68   0.18   0.38     0.00   0.00   0.00     0.03   0.01   0.02
    10   1    -0.01   0.16   0.03     0.00   0.00   0.00    -0.00   0.01   0.00
    11   1    -0.00  -0.00  -0.00    -0.04  -0.01  -0.02     0.51   0.11   0.26
    12   1     0.00   0.02  -0.04     0.00   0.02  -0.05    -0.02  -0.34   0.72
    13   1     0.00   0.02   0.00     0.00   0.01   0.00    -0.02  -0.12  -0.02
    14   6    -0.00   0.00  -0.00     0.00  -0.00  -0.00    -0.00  -0.00  -0.00
    15   8     0.00  -0.00   0.00    -0.00   0.00   0.00     0.00   0.00  -0.00
    16   6     0.00   0.00   0.00    -0.00   0.00  -0.00    -0.00   0.00  -0.00
    17   8    -0.00  -0.00  -0.00     0.00  -0.00   0.00    -0.00  -0.00   0.00
    18   1     0.00   0.00   0.00     0.06  -0.29   0.76     0.01  -0.02   0.06
    19   1     0.00   0.00  -0.00     0.00   0.00   0.00    -0.00   0.00   0.00
    20   8    -0.00   0.00  -0.00    -0.00  -0.00   0.00     0.00   0.00  -0.00
    21   6    -0.00  -0.00   0.00     0.00   0.00  -0.00    -0.00  -0.00   0.00
    22   1     0.00   0.00   0.00    -0.00  -0.00  -0.00     0.00   0.00   0.00
    23   6    -0.00   0.00  -0.00     0.00   0.00   0.00    -0.00  -0.00  -0.00
    24   1     0.00   0.00   0.00    -0.00  -0.00  -0.00     0.01   0.00   0.00
    25   1    -0.00   0.00  -0.00    -0.00  -0.00  -0.00     0.00   0.00   0.00
    26   6     0.00   0.00   0.00    -0.00   0.00  -0.00    -0.00  -0.00  -0.00
    27   1     0.00   0.00  -0.00     0.00  -0.00   0.00    -0.00   0.00  -0.00
    28   1    -0.00  -0.00  -0.00    -0.00   0.00   0.00     0.00   0.00   0.00
    29   1    -0.00  -0.00  -0.00    -0.00  -0.00  -0.00     0.00   0.01   0.00

 -------------------
 - Thermochemistry -
 -------------------
 Temperature   298.150 Kelvin.  Pressure   1.00000 Atm.
 Atom     1 has atomic number 45 and mass 102.90480
 Atom     2 has atomic number 15 and mass  30.97376
 Atom     3 has atomic number  6 and mass  12.00000
 Atom     4 has atomic number  6 and mass  12.00000
 Atom     5 has atomic number  6 and mass  12.00000
 Atom     6 has atomic number  1 and mass   1.00783
 Atom     7 has atomic number  1 and mass   1.00783
 Atom     8 has atomic number  1 and mass   1.00783
 Atom     9 has atomic number  1 and mass   1.00783
 Atom    10 has atomic number  1 and mass   1.00783
 Atom    11 has atomic number  1 and mass   1.00783
 Atom    12 has atomic number  1 and mass   1.00783
 Atom    13 has atomic number  1 and mass   1.00783
 Atom    14 has atomic number  6 and mass  12.00000
 Atom    15 has atomic number  8 and mass  15.99491
 Atom    16 has atomic number  6 and mass  12.00000
 Atom    17 has atomic number  8 and mass  15.99491
 Atom    18 has atomic number  1 and mass   1.00783
 Atom    19 has atomic number  1 and mass   1.00783
 Atom    20 has atomic number  8 and mass  15.99491
 Atom    21 has atomic number  6 and mass  12.00000
 Atom    22 has atomic number  1 and mass   1.00783
 Atom    23 has atomic number  6 and mass  12.00000
 Atom    24 has atomic number  1 and mass   1.00783
 Atom    25 has atomic number  1 and mass   1.00783
 Atom    26 has atomic number  6 and mass  12.00000
 Atom    27 has atomic number  1 and mass   1.00783
 Atom    28 has atomic number  1 and mass   1.00783
 Atom    29 has atomic number  1 and mass   1.00783
 Molecular mass:   293.98851 amu.
 Principal axes and moments of inertia in atomic units:
                           1         2         3
     Eigenvalues --  3815.516734096.902335483.60461
           X            0.88490   0.46464  -0.03274
           Y           -0.46457   0.88548   0.01024
           Z            0.03375   0.00615   0.99941
 This molecule is an asymmetric top.
 Rotational symmetry number  1.
 Warning -- assumption of classical behavior for rotation
           may cause significant error
 Rotational temperatures (Kelvin)      0.02270     0.02114     0.01580
 Rotational constants (GHZ):           0.47300     0.44051     0.32912
    1 imaginary frequencies ignored.
 Zero-point vibrational energy     589673.8 (Joules/Mol)
                                  140.93541 (Kcal/Mol)
 Warning -- explicit consideration of  28 degrees of freedom as
           vibrations may cause significant error
 Vibrational temperatures:     39.28    50.57    58.49    67.56    82.21
          (Kelvin)             90.93   101.31   105.10   124.12   150.58
                              221.57   255.81   281.34   294.18   312.76
                              326.44   354.67   377.42   382.49   400.41
                              483.15   502.06   567.25   635.35   663.96
                              673.04   744.94   806.28   943.92  1002.63
                             1082.91  1094.38  1098.28  1135.18  1160.72
                             1249.62  1267.63  1283.54  1345.83  1400.97
                             1403.16  1414.29  1481.64  1647.29  1679.59
                             1832.57  1911.04  1920.07  1921.91  1944.26
                             2036.10  2067.28  2090.07  2100.42  2102.94
                             2110.25  2112.73  2118.34  2132.90  2155.68
                             2162.55  2626.74  2690.55  3029.09  3107.71
                             4179.56  4372.14  4393.94  4396.30  4396.38
                             4400.15  4447.20  4498.10  4520.36  4523.73
                             4524.80  4529.50  4542.71  4549.30  4550.71
 
 Zero-point correction=                           0.224595 (Hartree/Particle)
 Thermal correction to Energy=                    0.244282
 Thermal correction to Enthalpy=                  0.245226
 Thermal correction to Gibbs Free Energy=         0.173295
 Sum of electronic and zero-point Energies=           -992.012325
 Sum of electronic and thermal Energies=              -991.992639
 Sum of electronic and thermal Enthalpies=            -991.991694
 Sum of electronic and thermal Free Energies=         -992.063625
 
                     E (Thermal)             CV                S
                      KCal/Mol        Cal/Mol-Kelvin    Cal/Mol-Kelvin
 Total                  153.289             65.683            151.390
 Electronic               0.000              0.000              0.000
 Translational            0.889              2.981             42.932
 Rotational               0.889              2.981             32.816
 Vibrational            151.512             59.721             75.642
 Vibration     1          0.593              1.984              6.016
 Vibration     2          0.594              1.982              5.515
 Vibration     3          0.594              1.981              5.227
 Vibration     4          0.595              1.979              4.942
 Vibration     5          0.596              1.975              4.554
 Vibration     6          0.597              1.972              4.355
 Vibration     7          0.598              1.968              4.142
 Vibration     8          0.599              1.967              4.069
 Vibration     9          0.601              1.959              3.743
 Vibration    10          0.605              1.945              3.366
 Vibration    11          0.620              1.898              2.622
 Vibration    12          0.628              1.870              2.351
 Vibration    13          0.636              1.846              2.175
 Vibration    14          0.640              1.834              2.093
 Vibration    15          0.646              1.815              1.981
 Vibration    16          0.651              1.800              1.903
 Vibration    17          0.661              1.769              1.755
 Vibration    18          0.670              1.742              1.646
 Vibration    19          0.672              1.736              1.623
 Vibration    20          0.679              1.714              1.544
 Vibration    21          0.717              1.604              1.232
 Vibration    22          0.726              1.577              1.171
 Vibration    23          0.761              1.482              0.984
 Vibration    24          0.801              1.379              0.822
 Vibration    25          0.819              1.335              0.762
 Vibration    26          0.825              1.322              0.744
 Vibration    27          0.873              1.211              0.615
 Vibration    28          0.916              1.117              0.523
                       Q            Log10(Q)             Ln(Q)
 Total Bot       0.194865D-79        -79.710265       -183.539669
 Total V=0       0.394561D+24         23.596115         54.332062
 Vib (Bot)       0.296758D-94        -94.527598       -217.657838
 Vib (Bot)    1  0.758425D+01          0.879913          2.026074
 Vib (Bot)    2  0.588843D+01          0.769999          1.772989
 Vib (Bot)    3  0.508954D+01          0.706679          1.627188
 Vib (Bot)    4  0.440385D+01          0.643832          1.482478
 Vib (Bot)    5  0.361504D+01          0.558113          1.285102
 Vib (Bot)    6  0.326607D+01          0.514025          1.183587
 Vib (Bot)    7  0.292875D+01          0.466682          1.074575
 Vib (Bot)    8  0.282212D+01          0.450576          1.037489
 Vib (Bot)    9  0.238489D+01          0.377468          0.869152
 Vib (Bot)   10  0.195917D+01          0.292073          0.672523
 Vib (Bot)   11  0.131514D+01          0.118972          0.273943
 Vib (Bot)   12  0.113052D+01          0.053277          0.122674
 Vib (Bot)   13  0.102145D+01          0.009216          0.021221
 Vib (Bot)   14  0.973516D+00         -0.011657         -0.026841
 Vib (Bot)   15  0.910948D+00         -0.040506         -0.093269
 Vib (Bot)   16  0.869276D+00         -0.060842         -0.140095
 Vib (Bot)   17  0.793053D+00         -0.100698         -0.231865
 Vib (Bot)   18  0.739597D+00         -0.131005         -0.301650
 Vib (Bot)   19  0.728512D+00         -0.137563         -0.316751
 Vib (Bot)   20  0.691472D+00         -0.160226         -0.368933
 Vib (Bot)   21  0.554417D+00         -0.256164         -0.589839
 Vib (Bot)   22  0.529083D+00         -0.276477         -0.636611
 Vib (Bot)   23  0.453967D+00         -0.342976         -0.789732
 Vib (Bot)   24  0.390980D+00         -0.407846         -0.939100
 Vib (Bot)   25  0.368122D+00         -0.434008         -0.999341
 Vib (Bot)   26  0.361248D+00         -0.442194         -1.018190
 Vib (Bot)   27  0.312394D+00         -0.505297         -1.163490
 Vib (Bot)   28  0.277241D+00         -0.557143         -1.282869
 Vib (V=0)       0.600872D+09          8.778782         20.213893
 Vib (V=0)    1  0.810071D+01          0.908523          2.091952
 Vib (V=0)    2  0.640962D+01          0.806832          1.857799
 Vib (V=0)    3  0.561404D+01          0.749276          1.725271
 Vib (V=0)    4  0.493214D+01          0.693035          1.595773
 Vib (V=0)    5  0.414945D+01          0.617991          1.422976
 Vib (V=0)    6  0.380412D+01          0.580254          1.336085
 Vib (V=0)    7  0.347112D+01          0.540470          1.244478
 Vib (V=0)    8  0.336607D+01          0.527123          1.213747
 Vib (V=0)    9  0.293674D+01          0.467865          1.077299
 Vib (V=0)   10  0.252197D+01          0.401740          0.925040
 Vib (V=0)   11  0.190698D+01          0.280346          0.645521
 Vib (V=0)   12  0.173615D+01          0.239587          0.551670
 Vib (V=0)   13  0.163726D+01          0.214117          0.493023
 Vib (V=0)   14  0.159441D+01          0.202600          0.466504
 Vib (V=0)   15  0.153915D+01          0.187280          0.431228
 Vib (V=0)   16  0.150282D+01          0.176906          0.407341
 Vib (V=0)   17  0.143751D+01          0.157612          0.362915
 Vib (V=0)   18  0.139275D+01          0.143873          0.331281
 Vib (V=0)   19  0.138359D+01          0.141007          0.324681
 Vib (V=0)   20  0.135331D+01          0.131396          0.302551
 Vib (V=0)   21  0.124658D+01          0.095719          0.220402
 Vib (V=0)   22  0.122796D+01          0.089185          0.205356
 Vib (V=0)   23  0.117534D+01          0.070164          0.161558
 Vib (V=0)   24  0.113472D+01          0.054887          0.126383
 Vib (V=0)   25  0.112090D+01          0.049566          0.114130
 Vib (V=0)   26  0.111685D+01          0.047994          0.110510
 Vib (V=0)   27  0.108957D+01          0.037254          0.085781
 Vib (V=0)   28  0.107172D+01          0.030081          0.069264
 Electronic      0.100000D+01          0.000000          0.000000
 Translational   0.198130D+09          8.296949         19.104432
 Rotational      0.331423D+07          6.520383         15.013737
 ***** Axes restored to original set *****
 -------------------------------------------------------------------
 Center     Atomic                   Forces (Hartrees/Bohr)
 Number     Number              X              Y              Z
 -------------------------------------------------------------------
      1       45          -0.000003391    0.000034986   -0.000033121
      2       15          -0.000044547   -0.000018426   -0.000047812
      3        6           0.000008463   -0.000007789    0.000011698
      4        6          -0.000005146   -0.000007245   -0.000000596
      5        6           0.000013010    0.000012378    0.000005640
      6        1           0.000003196    0.000008512    0.000004399
      7        1           0.000000774    0.000003224   -0.000004639
      8        1           0.000006628    0.000014506   -0.000002393
      9        1           0.000014878    0.000003046   -0.000004471
     10        1           0.000009337    0.000011744   -0.000005777
     11        1           0.000008942   -0.000000028   -0.000002156
     12        1           0.000000317   -0.000006922   -0.000002812
     13        1           0.000005222   -0.000002421   -0.000010490
     14        6          -0.000034929   -0.000042070   -0.000038455
     15        8           0.000010556    0.000040948    0.000042038
     16        6           0.000035020   -0.000015980    0.000106764
     17        8          -0.000009872    0.000021750   -0.000053566
     18        1           0.000000171    0.000000780    0.000002883
     19        1          -0.000007676   -0.000000937    0.000047516
     20        8          -0.000023722    0.000001523   -0.000023163
     21        6           0.000017479   -0.000009741    0.000006337
     22        1          -0.000001634   -0.000002195   -0.000003943
     23        6          -0.000009932    0.000003156    0.000011851
     24        1           0.000030191    0.000015271    0.000004422
     25        1          -0.000004018   -0.000007786    0.000003992
     26        6           0.000000998   -0.000009980   -0.000005875
     27        1          -0.000007386   -0.000012633    0.000000219
     28        1          -0.000005897   -0.000014115   -0.000004449
     29        1          -0.000007032   -0.000013557   -0.000004037
 -------------------------------------------------------------------
 Cartesian Forces:  Max     0.000106764 RMS     0.000021288
 FormGI is forming the generalized inverse of G from B-inverse, IUseBI=4.
 Leave Link  716 at Tue Oct  4 21:18:44 2022, MaxMem=  2952790016 cpu:               1.2 elap:               0.1
 (Enter /mnt/data/applications/G16/g16/l103.exe)

 GradGradGradGradGradGradGradGradGradGradGradGradGradGradGradGradGradGrad
 Berny optimization.
 Red2BG is reusing G-inverse.
 Internal  Forces:  Max     0.000061420 RMS     0.000009428
 Search for a local minimum.
 Step number   1 out of a maximum of    2
 All quantities printed in internal units (Hartrees-Bohrs-Radians)
 Second derivative matrix not updated -- analytic derivatives used.
 ITU=  0
     Eigenvalues ---   -0.00006   0.00014   0.00019   0.00028   0.00039
     Eigenvalues ---    0.00053   0.00083   0.00109   0.00146   0.00224
     Eigenvalues ---    0.00363   0.00606   0.00843   0.01037   0.01130
     Eigenvalues ---    0.01510   0.01834   0.02158   0.02184   0.02291
     Eigenvalues ---    0.02605   0.02817   0.02898   0.02950   0.03179
     Eigenvalues ---    0.03348   0.03434   0.03726   0.03818   0.04011
     Eigenvalues ---    0.04196   0.04569   0.04632   0.04806   0.05138
     Eigenvalues ---    0.05422   0.06287   0.06719   0.06959   0.07473
     Eigenvalues ---    0.07631   0.08175   0.09189   0.09339   0.09469
     Eigenvalues ---    0.09878   0.10140   0.10275   0.10943   0.11310
     Eigenvalues ---    0.11781   0.12345   0.12852   0.13176   0.13576
     Eigenvalues ---    0.14786   0.18847   0.19085   0.20682   0.21201
     Eigenvalues ---    0.22971   0.23472   0.25617   0.26255   0.29304
     Eigenvalues ---    0.29933   0.30615   0.33296   0.33488   0.33965
     Eigenvalues ---    0.34116   0.34158   0.34233   0.34635   0.34683
     Eigenvalues ---    0.34708   0.34873   0.35024   0.73723   1.16601
     Eigenvalues ---    1.19331
 Eigenvalue     1 is  -5.52D-05 should be greater than     0.000000 Eigenvector:
                          R18       R21       D59       D51       D54
   1                   -0.35679  -0.29641  -0.20813   0.19769   0.19667
                          D48       R19       D60       D88       D86
   1                    0.19509   0.19229  -0.18593   0.18377   0.18260
 Quadratic step=9.118D-02 exceeds max=5.000D-02 adjusted using Lamda=-7.030D-05.
 Angle between NR and scaled steps=  16.02 degrees.
 Angle between quadratic step and forces=  81.46 degrees.
 Linear search not attempted -- first point.
 Iteration  1 RMS(Cart)=  0.00579372 RMS(Int)=  0.00001480
 Iteration  2 RMS(Cart)=  0.00001611 RMS(Int)=  0.00000484
 Iteration  3 RMS(Cart)=  0.00000000 RMS(Int)=  0.00000484
 ITry= 1 IFail=0 DXMaxC= 1.92D-02 DCOld= 1.00D+10 DXMaxT= 5.00D-02 DXLimC= 3.00D+00 Rises=F
 Variable       Old X    -DE/DX   Delta X   Delta X   Delta X     New X
                                 (Linear)    (Quad)   (Total)
    R1        4.42434   0.00001   0.00000   0.00010   0.00011   4.42446
    R2        3.56220  -0.00001   0.00000  -0.00004  -0.00004   3.56216
    R3        3.60358  -0.00004   0.00000  -0.00024  -0.00024   3.60334
    R4        3.09376   0.00004   0.00000   0.00035   0.00035   3.09410
    R5        4.91683  -0.00001   0.00000  -0.00503  -0.00503   4.91180
    R6        3.43353  -0.00001   0.00000  -0.00000   0.00000   3.43354
    R7        3.43264  -0.00000   0.00000  -0.00000  -0.00000   3.43264
    R8        3.43303   0.00001   0.00000   0.00005   0.00005   3.43308
    R9        2.06194   0.00000   0.00000   0.00001   0.00001   2.06195
   R10        2.06065   0.00000   0.00000  -0.00001  -0.00001   2.06064
   R11        2.06355  -0.00001   0.00000  -0.00003  -0.00003   2.06352
   R12        2.05969  -0.00002   0.00000   0.00002   0.00002   2.05971
   R13        2.05967  -0.00000   0.00000   0.00002   0.00002   2.05969
   R14        2.06390  -0.00000   0.00000  -0.00001  -0.00001   2.06390
   R15        2.06100   0.00000   0.00000  -0.00000  -0.00000   2.06100
   R16        2.06385  -0.00000   0.00000   0.00000   0.00000   2.06386
   R17        2.05970   0.00000   0.00000   0.00000   0.00000   2.05970
   R18        5.12033   0.00001   0.00000   0.02921   0.02920   5.14953
   R19        4.92078   0.00000   0.00000  -0.00368  -0.00368   4.91710
   R20        5.10461   0.00001   0.00000   0.00159   0.00158   5.10619
   R21        5.14174  -0.00000   0.00000  -0.00812  -0.00812   5.13362
   R22        2.14972   0.00005   0.00000   0.00004   0.00004   2.14976
   R23        2.15070   0.00006   0.00000   0.00004   0.00004   2.15075
   R24        2.27641  -0.00000   0.00000  -0.00002  -0.00002   2.27639
   R25        2.09908   0.00000   0.00000   0.00004   0.00004   2.09912
   R26        2.82633   0.00001   0.00000   0.00008   0.00009   2.82642
   R27        2.06748   0.00001   0.00000   0.00011   0.00011   2.06759
   R28        2.06955  -0.00000   0.00000  -0.00003  -0.00003   2.06952
   R29        2.88814   0.00000   0.00000   0.00002   0.00002   2.88816
   R30        2.05983  -0.00000   0.00000  -0.00001  -0.00001   2.05982
   R31        2.06450   0.00000   0.00000   0.00001   0.00001   2.06452
   R32        2.06303  -0.00000   0.00000   0.00000   0.00001   2.06304
    A1        1.67715  -0.00001   0.00000  -0.00016  -0.00017   1.67698
    A2        1.40928   0.00001   0.00000   0.00030   0.00030   1.40959
    A3        1.51468  -0.00001   0.00000   0.00116   0.00115   1.51583
    A4        1.71593  -0.00000   0.00000  -0.00006  -0.00006   1.71587
    A5        1.48095   0.00001   0.00000  -0.00007  -0.00008   1.48087
    A6        1.68387   0.00001   0.00000  -0.00162  -0.00162   1.68226
    A7        1.54755   0.00001   0.00000   0.00502   0.00502   1.55257
    A8        1.58698  -0.00001   0.00000  -0.00482  -0.00482   1.58216
    A9        2.05538   0.00001   0.00000   0.00011   0.00011   2.05549
   A10        1.98730   0.00001   0.00000   0.00018   0.00017   1.98747
   A11        1.98300  -0.00002   0.00000  -0.00025  -0.00025   1.98275
   A12        1.79668  -0.00000   0.00000   0.00011   0.00011   1.79679
   A13        1.80163   0.00000   0.00000  -0.00012  -0.00013   1.80150
   A14        1.81130   0.00000   0.00000  -0.00003  -0.00002   1.81128
   A15        1.91078  -0.00000   0.00000  -0.00011  -0.00011   1.91067
   A16        1.90194   0.00000   0.00000   0.00037   0.00038   1.90232
   A17        1.94241  -0.00000   0.00000  -0.00000  -0.00001   1.94241
   A18        1.89706  -0.00000   0.00000  -0.00023  -0.00023   1.89684
   A19        1.90433   0.00000   0.00000   0.00001   0.00001   1.90434
   A20        1.90677   0.00000   0.00000  -0.00005  -0.00006   1.90671
   A21        1.89746  -0.00000   0.00000   0.00004   0.00002   1.89749
   A22        1.91263  -0.00000   0.00000  -0.00019  -0.00018   1.91245
   A23        1.93406  -0.00000   0.00000  -0.00002  -0.00001   1.93405
   A24        1.90445  -0.00000   0.00000   0.00003   0.00003   1.90448
   A25        1.90275   0.00000   0.00000   0.00018   0.00019   1.90295
   A26        1.91216   0.00000   0.00000  -0.00005  -0.00005   1.91211
   A27        1.91058   0.00000   0.00000   0.00001   0.00001   1.91060
   A28        1.93668  -0.00000   0.00000   0.00004   0.00004   1.93672
   A29        1.90643   0.00000   0.00000  -0.00008  -0.00008   1.90634
   A30        1.90684   0.00000   0.00000   0.00005   0.00005   1.90689
   A31        1.88870  -0.00000   0.00000  -0.00003  -0.00003   1.88867
   A32        1.91396   0.00000   0.00000   0.00000   0.00000   1.91397
   A33        2.46065  -0.00000   0.00000  -0.00559  -0.00559   2.45505
   A34        2.52639   0.00000   0.00000   0.00261   0.00260   2.52899
   A35        1.90557  -0.00001   0.00000  -0.00295  -0.00295   1.90263
   A36        2.12289  -0.00000   0.00000  -0.00625  -0.00624   2.11665
   A37        1.00740   0.00001   0.00000   0.00041   0.00041   1.00780
   A38        1.39830   0.00000   0.00000   0.00138   0.00138   1.39968
   A39        0.96884   0.00000   0.00000   0.00086   0.00086   0.96970
   A40        1.12973  -0.00000   0.00000  -0.00265  -0.00265   1.12708
   A41        2.67871  -0.00001   0.00000  -0.00038  -0.00040   2.67832
   A42        1.72748  -0.00001   0.00000  -0.00046  -0.00046   1.72702
   A43        2.08718  -0.00000   0.00000  -0.00004  -0.00004   2.08714
   A44        2.18876   0.00001   0.00000   0.00020   0.00020   2.18896
   A45        2.00707  -0.00001   0.00000  -0.00016  -0.00016   2.00691
   A46        1.91084   0.00000   0.00000   0.00016   0.00015   1.91100
   A47        1.87341   0.00000   0.00000   0.00005   0.00005   1.87346
   A48        1.93518  -0.00001   0.00000  -0.00031  -0.00031   1.93488
   A49        1.88619  -0.00000   0.00000   0.00001   0.00001   1.88620
   A50        1.94652   0.00001   0.00000   0.00013   0.00014   1.94666
   A51        1.90959   0.00000   0.00000  -0.00003  -0.00003   1.90956
   A52        1.53292   0.00001   0.00000   0.00026   0.00025   1.53317
   A53        2.81258   0.00000   0.00000   0.00014   0.00014   2.81271
   A54        1.79238  -0.00001   0.00000  -0.00242  -0.00241   1.78997
   A55        1.92206  -0.00000   0.00000   0.00005   0.00005   1.92212
   A56        1.94722   0.00000   0.00000  -0.00007  -0.00007   1.94715
   A57        1.93777   0.00000   0.00000   0.00006   0.00005   1.93783
   A58        1.88355   0.00000   0.00000   0.00001   0.00001   1.88356
   A59        1.88422   0.00000   0.00000   0.00005   0.00005   1.88428
   A60        1.88692  -0.00000   0.00000  -0.00010  -0.00010   1.88682
   A61        2.08286  -0.00000   0.00000   0.00097   0.00097   2.08383
   A62        3.39308  -0.00002   0.00000  -0.00023  -0.00023   3.39285
   A63        3.08643  -0.00000   0.00000   0.00014   0.00014   3.08657
   A64        3.16117   0.00003   0.00000   0.00035   0.00035   3.16152
   A65        3.14474   0.00002   0.00000   0.00025   0.00025   3.14499
   A66        3.19355   0.00000   0.00000   0.00080   0.00080   3.19435
   A67        3.14542  -0.00000   0.00000  -0.00009  -0.00009   3.14533
   A68        3.10712  -0.00003   0.00000  -0.00039  -0.00039   3.10673
   A69        3.13813  -0.00000   0.00000   0.00011   0.00011   3.13824
    D1        0.08908  -0.00001   0.00000   0.00189   0.00189   0.09097
    D2       -2.01651  -0.00002   0.00000   0.00150   0.00150  -2.01502
    D3        2.19784  -0.00001   0.00000   0.00159   0.00158   2.19942
    D4       -3.05635  -0.00000   0.00000   0.00198   0.00198  -3.05437
    D5        1.12125  -0.00001   0.00000   0.00159   0.00159   1.12283
    D6       -0.94759  -0.00001   0.00000   0.00167   0.00167  -0.94591
    D7        1.63046   0.00001   0.00000   0.00708   0.00708   1.63754
    D8       -0.47513  -0.00000   0.00000   0.00669   0.00669  -0.46844
    D9       -2.54397   0.00000   0.00000   0.00678   0.00678  -2.53719
   D10        0.05444   0.00000   0.00000  -0.00546  -0.00546   0.04898
   D11       -2.12248   0.00001   0.00000   0.00221   0.00222  -2.12026
   D12       -2.83585  -0.00001   0.00000  -0.00545  -0.00545  -2.84130
   D13        1.27043  -0.00001   0.00000   0.00223   0.00223   1.27265
   D14        1.73310  -0.00001   0.00000  -0.00595  -0.00595   1.72715
   D15       -0.44382  -0.00000   0.00000   0.00172   0.00173  -0.44209
   D16       -1.35365  -0.00001   0.00000  -0.00608  -0.00607  -1.35972
   D17        2.75263  -0.00000   0.00000   0.00160   0.00160   2.75423
   D18        1.03475  -0.00001   0.00000  -0.00052  -0.00052   1.03423
   D19       -1.03796  -0.00001   0.00000  -0.00040  -0.00041  -1.03837
   D20        3.14138  -0.00001   0.00000  -0.00058  -0.00059   3.14080
   D21       -3.04645   0.00000   0.00000  -0.00014  -0.00014  -3.04659
   D22        1.16402   0.00000   0.00000  -0.00001  -0.00003   1.16400
   D23       -0.93982   0.00000   0.00000  -0.00020  -0.00020  -0.94002
   D24       -1.16564   0.00000   0.00000  -0.00017  -0.00017  -1.16581
   D25        3.04483   0.00001   0.00000  -0.00005  -0.00006   3.04477
   D26        0.94099   0.00000   0.00000  -0.00023  -0.00023   0.94076
   D27        1.14913   0.00001   0.00000  -0.00188  -0.00189   1.14724
   D28       -0.93097   0.00001   0.00000  -0.00183  -0.00183  -0.93280
   D29       -3.04323   0.00001   0.00000  -0.00164  -0.00164  -3.04487
   D30       -1.09594  -0.00001   0.00000  -0.00221  -0.00222  -1.09816
   D31        3.10715  -0.00001   0.00000  -0.00216  -0.00216   3.10499
   D32        0.99489  -0.00000   0.00000  -0.00197  -0.00197   0.99291
   D33       -2.96941  -0.00001   0.00000  -0.00210  -0.00211  -2.97152
   D34        1.23368  -0.00001   0.00000  -0.00205  -0.00205   1.23163
   D35       -0.87858  -0.00001   0.00000  -0.00186  -0.00186  -0.88044
   D36       -1.01567  -0.00000   0.00000   0.00057   0.00056  -1.01511
   D37       -3.12163  -0.00000   0.00000   0.00047   0.00046  -3.12117
   D38        1.04944  -0.00000   0.00000   0.00049   0.00049   1.04993
   D39        1.23031   0.00000   0.00000   0.00045   0.00045   1.23075
   D40       -0.87565   0.00000   0.00000   0.00035   0.00035  -0.87530
   D41       -2.98776   0.00000   0.00000   0.00037   0.00037  -2.98739
   D42        3.10007   0.00000   0.00000   0.00051   0.00052   3.10058
   D43        0.99411   0.00000   0.00000   0.00041   0.00041   0.99452
   D44       -1.11800   0.00000   0.00000   0.00044   0.00044  -1.11756
   D45       -0.22404  -0.00000   0.00000   0.00350   0.00350  -0.22055
   D46       -2.30532   0.00000   0.00000   0.00355   0.00354  -2.30178
   D47        1.90156  -0.00000   0.00000   0.00370   0.00369   1.90526
   D48        0.02318   0.00000   0.00000  -0.00803  -0.00803   0.01515
   D49       -1.03836   0.00000   0.00000  -0.00351  -0.00350  -1.04186
   D50       -2.09721   0.00000   0.00000  -0.00268  -0.00268  -2.09989
   D51        2.10839   0.00000   0.00000  -0.00821  -0.00822   2.10017
   D52        1.04685   0.00000   0.00000  -0.00370  -0.00369   1.04317
   D53       -0.01200  -0.00000   0.00000  -0.00287  -0.00287  -0.01487
   D54       -2.08702   0.00000   0.00000  -0.00814  -0.00815  -2.09517
   D55        3.13463   0.00000   0.00000  -0.00363  -0.00361   3.13101
   D56        2.07577  -0.00000   0.00000  -0.00280  -0.00280   2.07298
   D57       -0.49552   0.00000   0.00000  -0.00482  -0.00482  -0.50033
   D58        0.48145  -0.00000   0.00000  -0.01270  -0.01270   0.46875
   D59        0.64567  -0.00000   0.00000   0.00891   0.00891   0.65459
   D60       -2.11187   0.00001   0.00000   0.00703   0.00704  -2.10483
   D61        1.99414  -0.00001   0.00000   0.00117   0.00117   1.99531
   D62       -0.76341   0.00000   0.00000  -0.00071  -0.00071  -0.76411
   D63        2.95868   0.00000   0.00000   0.00140   0.00140   2.96008
   D64        0.20113   0.00001   0.00000  -0.00047  -0.00047   0.20065
   D65        0.61767  -0.00000   0.00000   0.00699   0.00699   0.62466
   D66       -2.79961   0.00000   0.00000   0.00576   0.00576  -2.79385
   D67       -1.88540  -0.00001   0.00000   0.00219   0.00219  -1.88321
   D68        0.98051  -0.00000   0.00000   0.00096   0.00096   0.98147
   D69        2.63821   0.00000   0.00000   0.00121   0.00121   2.63941
   D70       -0.77908   0.00000   0.00000  -0.00002  -0.00002  -0.77910
   D71        1.88717  -0.00000   0.00000   0.00140   0.00140   1.88858
   D72       -0.73134  -0.00000   0.00000   0.00102   0.00102  -0.73032
   D73        0.27137   0.00000   0.00000   0.00075   0.00075   0.27212
   D74        3.08340   0.00001   0.00000   0.00863   0.00863   3.09204
   D75       -0.07890   0.00000   0.00000   0.00844   0.00844  -0.07045
   D76       -2.33834  -0.00000   0.00000   0.00089   0.00089  -2.33745
   D77        0.78254  -0.00000   0.00000   0.00070   0.00070   0.78324
   D78        0.12572   0.00000   0.00000   0.00146   0.00146   0.12718
   D79        2.16906   0.00000   0.00000   0.00158   0.00158   2.17064
   D80       -2.02927  -0.00000   0.00000   0.00139   0.00139  -2.02788
   D81       -3.03574   0.00000   0.00000   0.00128   0.00128  -3.03446
   D82       -0.99241   0.00000   0.00000   0.00140   0.00140  -0.99101
   D83        1.09245  -0.00000   0.00000   0.00121   0.00121   1.09367
   D84        1.22100  -0.00000   0.00000  -0.00812  -0.00812   1.21288
   D85       -0.91987   0.00000   0.00000  -0.00066  -0.00066  -0.92053
   D86       -0.81427  -0.00000   0.00000  -0.00827  -0.00827  -0.82254
   D87       -2.95514   0.00000   0.00000  -0.00080  -0.00080  -2.95594
   D88       -2.91389  -0.00001   0.00000  -0.00831  -0.00832  -2.92221
   D89        1.22842  -0.00000   0.00000  -0.00085  -0.00085   1.22757
   D90       -3.08192   0.00000   0.00000  -0.00041  -0.00041  -3.08233
   D91       -0.99074   0.00000   0.00000  -0.00041  -0.00041  -0.99115
   D92        1.11533  -0.00000   0.00000  -0.00055  -0.00055   1.11478
   D93        1.06691  -0.00000   0.00000  -0.00049  -0.00049   1.06643
   D94       -3.12509   0.00000   0.00000  -0.00049  -0.00048  -3.12558
   D95       -1.01902  -0.00000   0.00000  -0.00063  -0.00062  -1.01965
   D96       -1.01890  -0.00000   0.00000  -0.00056  -0.00056  -1.01946
   D97        1.07228  -0.00000   0.00000  -0.00056  -0.00056   1.07172
   D98       -3.10484  -0.00000   0.00000  -0.00070  -0.00070  -3.10554
   D99        0.13204  -0.00000   0.00000  -0.00087  -0.00087   0.13117
   D100      -1.97637  -0.00000   0.00000  -0.00100  -0.00100  -1.97738
   D101       2.27337  -0.00000   0.00000  -0.00099  -0.00099   2.27238
         Item               Value     Threshold  Converged?
 Maximum Force            0.000061     0.000450     YES
 RMS     Force            0.000009     0.000300     YES
 Maximum Displacement     0.019161     0.001800     NO 
 RMS     Displacement     0.005790     0.001200     NO 
 Predicted change in Energy=-6.542194D-07
                           ----------------------------
                           ! Non-Optimized Parameters !
                           ! (Angstroms and Degrees)  !
 --------------------------                            --------------------------
 ! Name  Definition              Value          Derivative Info.                !
 --------------------------------------------------------------------------------
 ! R1    R(1,2)                  2.3413         -DE/DX =    0.0                 !
 ! R2    R(1,14)                 1.885          -DE/DX =    0.0                 !
 ! R3    R(1,16)                 1.9068         -DE/DX =    0.0                 !
 ! R4    R(1,19)                 1.6373         -DE/DX =    0.0                 !
 ! R5    R(1,24)                 2.5992         -DE/DX =    0.0                 !
 ! R6    R(2,3)                  1.8169         -DE/DX =    0.0                 !
 ! R7    R(2,4)                  1.8165         -DE/DX =    0.0                 !
 ! R8    R(2,5)                  1.8167         -DE/DX =    0.0                 !
 ! R9    R(3,8)                  1.0911         -DE/DX =    0.0                 !
 ! R10   R(3,9)                  1.0904         -DE/DX =    0.0                 !
 ! R11   R(3,10)                 1.092          -DE/DX =    0.0                 !
 ! R12   R(4,11)                 1.09           -DE/DX =    0.0                 !
 ! R13   R(4,12)                 1.0899         -DE/DX =    0.0                 !
 ! R14   R(4,13)                 1.0922         -DE/DX =    0.0                 !
 ! R15   R(5,6)                  1.0906         -DE/DX =    0.0                 !
 ! R16   R(5,7)                  1.0921         -DE/DX =    0.0                 !
 ! R17   R(5,18)                 1.0899         -DE/DX =    0.0                 !
 ! R18   R(9,20)                 2.725          -DE/DX =    0.0                 !
 ! R19   R(11,20)                2.602          -DE/DX =    0.0                 !
 ! R20   R(11,24)                2.7021         -DE/DX =    0.0                 !
 ! R21   R(11,29)                2.7166         -DE/DX =    0.0                 !
 ! R22   R(14,15)                1.1376         -DE/DX =    0.0                 !
 ! R23   R(16,17)                1.1381         -DE/DX =    0.0001              !
 ! R24   R(20,21)                1.2046         -DE/DX =    0.0                 !
 ! R25   R(21,22)                1.1108         -DE/DX =    0.0                 !
 ! R26   R(21,23)                1.4957         -DE/DX =    0.0                 !
 ! R27   R(23,24)                1.0941         -DE/DX =    0.0                 !
 ! R28   R(23,25)                1.0951         -DE/DX =    0.0                 !
 ! R29   R(23,26)                1.5283         -DE/DX =    0.0                 !
 ! R30   R(26,27)                1.09           -DE/DX =    0.0                 !
 ! R31   R(26,28)                1.0925         -DE/DX =    0.0                 !
 ! R32   R(26,29)                1.0917         -DE/DX =    0.0                 !
 ! A1    A(2,1,16)              96.0839         -DE/DX =    0.0                 !
 ! A2    A(2,1,19)              80.7634         -DE/DX =    0.0                 !
 ! A3    A(2,1,24)              86.8506         -DE/DX =    0.0                 !
 ! A4    A(14,1,16)             98.312          -DE/DX =    0.0                 !
 ! A5    A(14,1,19)             84.8475         -DE/DX =    0.0                 !
 ! A6    A(14,1,24)             96.3862         -DE/DX =    0.0                 !
 ! A7    A(16,1,24)             88.9558         -DE/DX =    0.0                 !
 ! A8    A(19,1,24)             90.6511         -DE/DX =    0.0                 !
 ! A9    A(1,2,3)              117.7708         -DE/DX =    0.0                 !
 ! A10   A(1,2,4)              113.8737         -DE/DX =    0.0                 !
 ! A11   A(1,2,5)              113.6034         -DE/DX =    0.0                 !
 ! A12   A(3,2,4)              102.9484         -DE/DX =    0.0                 !
 ! A13   A(3,2,5)              103.2186         -DE/DX =    0.0                 !
 ! A14   A(4,2,5)              103.7785         -DE/DX =    0.0                 !
 ! A15   A(2,3,8)              109.4734         -DE/DX =    0.0                 !
 ! A16   A(2,3,9)              108.9947         -DE/DX =    0.0                 !
 ! A17   A(2,3,10)             111.2918         -DE/DX =    0.0                 !
 ! A18   A(8,3,9)              108.6808         -DE/DX =    0.0                 !
 ! A19   A(8,3,10)             109.1109         -DE/DX =    0.0                 !
 ! A20   A(9,3,10)             109.2467         -DE/DX =    0.0                 !
 ! A21   A(2,4,11)             108.7179         -DE/DX =    0.0                 !
 ! A22   A(2,4,12)             109.5754         -DE/DX =    0.0                 !
 ! A23   A(2,4,13)             110.8129         -DE/DX =    0.0                 !
 ! A24   A(11,4,12)            109.1185         -DE/DX =    0.0                 !
 ! A25   A(11,4,13)            109.0309         -DE/DX =    0.0                 !
 ! A26   A(12,4,13)            109.556          -DE/DX =    0.0                 !
 ! A27   A(2,5,6)              109.4691         -DE/DX =    0.0                 !
 ! A28   A(2,5,7)              110.9657         -DE/DX =    0.0                 !
 ! A29   A(2,5,18)             109.2255         -DE/DX =    0.0                 !
 ! A30   A(6,5,7)              109.257          -DE/DX =    0.0                 !
 ! A31   A(6,5,18)             108.2129         -DE/DX =    0.0                 !
 ! A32   A(7,5,18)             109.6623         -DE/DX =    0.0                 !
 ! A33   A(3,9,20)             140.6642         -DE/DX =    0.0                 !
 ! A34   A(4,11,20)            144.9003         -DE/DX =    0.0                 !
 ! A35   A(4,11,24)            109.0124         -DE/DX =    0.0                 !
 ! A36   A(4,11,29)            121.275          -DE/DX =    0.0                 !
 ! A37   A(20,11,24)            57.7429         -DE/DX =    0.0                 !
 ! A38   A(20,11,29)            80.1956         -DE/DX =    0.0                 !
 ! A39   A(24,11,29)            55.5598         -DE/DX =    0.0                 !
 ! A40   A(9,20,11)             64.5768         -DE/DX =    0.0                 !
 ! A41   A(9,20,21)            153.4562         -DE/DX =    0.0                 !
 ! A42   A(11,20,21)            98.9508         -DE/DX =    0.0                 !
 ! A43   A(20,21,22)           119.5843         -DE/DX =    0.0                 !
 ! A44   A(20,21,23)           125.4183         -DE/DX =    0.0                 !
 ! A45   A(22,21,23)           114.9877         -DE/DX =    0.0                 !
 ! A46   A(21,23,24)           109.4921         -DE/DX =    0.0                 !
 ! A47   A(21,23,25)           107.3411         -DE/DX =    0.0                 !
 ! A48   A(21,23,26)           110.8602         -DE/DX =    0.0                 !
 ! A49   A(24,23,25)           108.0712         -DE/DX =    0.0                 !
 ! A50   A(24,23,26)           111.5351         -DE/DX =    0.0                 !
 ! A51   A(25,23,26)           109.4098         -DE/DX =    0.0                 !
 ! A52   A(1,24,11)             87.8441         -DE/DX =    0.0                 !
 ! A53   A(1,24,23)            161.1566         -DE/DX =    0.0                 !
 ! A54   A(11,24,23)           102.558          -DE/DX =    0.0                 !
 ! A55   A(23,26,27)           110.1291         -DE/DX =    0.0                 !
 ! A56   A(23,26,28)           111.5633         -DE/DX =    0.0                 !
 ! A57   A(23,26,29)           111.0292         -DE/DX =    0.0                 !
 ! A58   A(27,26,28)           107.9201         -DE/DX =    0.0                 !
 ! A59   A(27,26,29)           107.9611         -DE/DX =    0.0                 !
 ! A60   A(28,26,29)           108.107          -DE/DX =    0.0                 !
 ! A61   A(11,29,26)           119.3945         -DE/DX =    0.0                 !
 ! A62   L(2,1,14,16,-1)       194.3959         -DE/DX =    0.0                 !
 ! A63   L(16,1,19,2,-1)       176.8472         -DE/DX =    0.0                 !
 ! A64   L(1,14,15,25,-1)      181.1417         -DE/DX =    0.0                 !
 ! A65   L(1,16,17,3,-1)       180.1946         -DE/DX =    0.0                 !
 ! A66   L(2,1,14,16,-2)       183.0225         -DE/DX =    0.0                 !
 ! A67   L(16,1,19,2,-2)       180.2144         -DE/DX =    0.0                 !
 ! A68   L(1,14,15,25,-2)      178.0026         -DE/DX =    0.0                 !
 ! A69   L(1,16,17,3,-2)       179.8081         -DE/DX =    0.0                 !
 ! D1    D(16,1,2,3)             5.212          -DE/DX =    0.0                 !
 ! D2    D(16,1,2,4)          -115.4519         -DE/DX =    0.0                 !
 ! D3    D(16,1,2,5)           126.0175         -DE/DX =    0.0                 !
 ! D4    D(19,1,2,3)          -175.0024         -DE/DX =    0.0                 !
 ! D5    D(19,1,2,4)            64.3337         -DE/DX =    0.0                 !
 ! D6    D(19,1,2,5)           -54.1969         -DE/DX =    0.0                 !
 ! D7    D(24,1,2,3)            93.8242         -DE/DX =    0.0                 !
 ! D8    D(24,1,2,4)           -26.8397         -DE/DX =    0.0                 !
 ! D9    D(24,1,2,5)          -145.3702         -DE/DX =    0.0                 !
 ! D10   D(2,1,24,11)            2.8062         -DE/DX =    0.0                 !
 ! D11   D(2,1,24,23)         -121.4819         -DE/DX =    0.0                 !
 ! D12   D(14,1,24,11)        -162.7942         -DE/DX =    0.0                 !
 ! D13   D(14,1,24,23)          72.9176         -DE/DX =    0.0                 !
 ! D14   D(16,1,24,11)          98.9582         -DE/DX =    0.0                 !
 ! D15   D(16,1,24,23)         -25.33           -DE/DX =    0.0                 !
 ! D16   D(19,1,24,11)         -77.9061         -DE/DX =    0.0                 !
 ! D17   D(19,1,24,23)         157.8057         -DE/DX =    0.0                 !
 ! D18   D(1,2,3,8)             59.2569         -DE/DX =    0.0                 !
 ! D19   D(1,2,3,9)            -59.4944         -DE/DX =    0.0                 !
 ! D20   D(1,2,3,10)           179.9544         -DE/DX =    0.0                 !
 ! D21   D(4,2,3,8)           -174.5566         -DE/DX =    0.0                 !
 ! D22   D(4,2,3,9)             66.692          -DE/DX =    0.0                 !
 ! D23   D(4,2,3,10)           -53.8591         -DE/DX =    0.0                 !
 ! D24   D(5,2,3,8)            -66.796          -DE/DX =    0.0                 !
 ! D25   D(5,2,3,9)            174.4526         -DE/DX =    0.0                 !
 ! D26   D(5,2,3,10)            53.9014         -DE/DX =    0.0                 !
 ! D27   D(1,2,4,11)            65.7321         -DE/DX =    0.0                 !
 ! D28   D(1,2,4,12)           -53.4453         -DE/DX =    0.0                 !
 ! D29   D(1,2,4,13)          -174.4584         -DE/DX =    0.0                 !
 ! D30   D(3,2,4,11)           -62.9197         -DE/DX =    0.0                 !
 ! D31   D(3,2,4,12)           177.9029         -DE/DX =    0.0                 !
 ! D32   D(3,2,4,13)            56.8898         -DE/DX =    0.0                 !
 ! D33   D(5,2,4,11)          -170.2553         -DE/DX =    0.0                 !
 ! D34   D(5,2,4,12)            70.5673         -DE/DX =    0.0                 !
 ! D35   D(5,2,4,13)           -50.4457         -DE/DX =    0.0                 !
 ! D36   D(1,2,5,6)            -58.1615         -DE/DX =    0.0                 !
 ! D37   D(1,2,5,7)           -178.8298         -DE/DX =    0.0                 !
 ! D38   D(1,2,5,18)            60.1566         -DE/DX =    0.0                 !
 ! D39   D(3,2,5,6)             70.5171         -DE/DX =    0.0                 !
 ! D40   D(3,2,5,7)            -50.1512         -DE/DX =    0.0                 !
 ! D41   D(3,2,5,18)          -171.1648         -DE/DX =    0.0                 !
 ! D42   D(4,2,5,6)            177.6502         -DE/DX =    0.0                 !
 ! D43   D(4,2,5,7)             56.982          -DE/DX =    0.0                 !
 ! D44   D(4,2,5,18)           -64.0317         -DE/DX =    0.0                 !
 ! D45   D(2,3,9,20)           -12.6364         -DE/DX =    0.0                 !
 ! D46   D(8,3,9,20)          -131.8823         -DE/DX =    0.0                 !
 ! D47   D(10,3,9,20)          109.1632         -DE/DX =    0.0                 !
 ! D48   D(2,4,11,20)            0.8678         -DE/DX =    0.0                 !
 ! D49   D(2,4,11,24)          -59.694          -DE/DX =    0.0                 !
 ! D50   D(2,4,11,29)         -120.315          -DE/DX =    0.0                 !
 ! D51   D(12,4,11,20)         120.3308         -DE/DX =    0.0                 !
 ! D52   D(12,4,11,24)          59.769          -DE/DX =    0.0                 !
 ! D53   D(12,4,11,29)          -0.852          -DE/DX =    0.0                 !
 ! D54   D(13,4,11,20)        -120.0443         -DE/DX =    0.0                 !
 ! D55   D(13,4,11,24)         179.3938         -DE/DX =    0.0                 !
 ! D56   D(13,4,11,29)         118.7729         -DE/DX =    0.0                 !
 ! D57   D(3,9,20,11)          -28.667          -DE/DX =    0.0                 !
 ! D58   D(3,9,20,21)           26.8573         -DE/DX =    0.0                 !
 ! D59   D(4,11,20,9)           37.5051         -DE/DX =    0.0                 !
 ! D60   D(4,11,20,21)        -120.5981         -DE/DX =    0.0                 !
 ! D61   D(24,11,20,9)         114.3228         -DE/DX =    0.0                 !
 ! D62   D(24,11,20,21)        -43.7804         -DE/DX =    0.0                 !
 ! D63   D(29,11,20,9)         169.5998         -DE/DX =    0.0                 !
 ! D64   D(29,11,20,21)         11.4966         -DE/DX =    0.0                 !
 ! D65   D(4,11,24,1)           35.7904         -DE/DX =    0.0                 !
 ! D66   D(4,11,24,23)        -160.0759         -DE/DX =    0.0                 !
 ! D67   D(20,11,24,1)        -107.8997         -DE/DX =    0.0                 !
 ! D68   D(20,11,24,23)         56.234          -DE/DX =    0.0                 !
 ! D69   D(29,11,24,1)         151.2273         -DE/DX =    0.0                 !
 ! D70   D(29,11,24,23)        -44.639          -DE/DX =    0.0                 !
 ! D71   D(4,11,29,26)         108.2074         -DE/DX =    0.0                 !
 ! D72   D(20,11,29,26)        -41.8444         -DE/DX =    0.0                 !
 ! D73   D(24,11,29,26)         15.5914         -DE/DX =    0.0                 !
 ! D74   D(9,20,21,22)         177.1607         -DE/DX =    0.0                 !
 ! D75   D(9,20,21,23)          -4.0366         -DE/DX =    0.0                 !
 ! D76   D(11,20,21,22)       -133.9261         -DE/DX =    0.0                 !
 ! D77   D(11,20,21,23)         44.8765         -DE/DX =    0.0                 !
 ! D78   D(20,21,23,24)          7.2871         -DE/DX =    0.0                 !
 ! D79   D(20,21,23,25)        124.3683         -DE/DX =    0.0                 !
 ! D80   D(20,21,23,26)       -116.1887         -DE/DX =    0.0                 !
 ! D81   D(22,21,23,24)       -173.8616         -DE/DX =    0.0                 !
 ! D82   D(22,21,23,25)        -56.7804         -DE/DX =    0.0                 !
 ! D83   D(22,21,23,26)         62.6625         -DE/DX =    0.0                 !
 ! D84   D(21,23,24,1)          69.4929         -DE/DX =    0.0                 !
 ! D85   D(21,23,24,11)        -52.7423         -DE/DX =    0.0                 !
 ! D86   D(25,23,24,1)         -47.1278         -DE/DX =    0.0                 !
 ! D87   D(25,23,24,11)       -169.363          -DE/DX =    0.0                 !
 ! D88   D(26,23,24,1)        -167.4301         -DE/DX =    0.0                 !
 ! D89   D(26,23,24,11)         70.3348         -DE/DX =    0.0                 !
 ! D90   D(21,23,26,27)       -176.6046         -DE/DX =    0.0                 !
 ! D91   D(21,23,26,28)        -56.7888         -DE/DX =    0.0                 !
 ! D92   D(21,23,26,29)         63.8721         -DE/DX =    0.0                 !
 ! D93   D(24,23,26,27)         61.1018         -DE/DX =    0.0                 !
 ! D94   D(24,23,26,28)       -179.0823         -DE/DX =    0.0                 !
 ! D95   D(24,23,26,29)        -58.4214         -DE/DX =    0.0                 !
 ! D96   D(25,23,26,27)        -58.4108         -DE/DX =    0.0                 !
 ! D97   D(25,23,26,28)         61.4051         -DE/DX =    0.0                 !
 ! D98   D(25,23,26,29)       -177.9341         -DE/DX =    0.0                 !
 ! D99   D(23,26,29,11)          7.5158         -DE/DX =    0.0                 !
 ! D100  D(27,26,29,11)       -113.2952         -DE/DX =    0.0                 !
 ! D101  D(28,26,29,11)        130.1979         -DE/DX =    0.0                 !
 --------------------------------------------------------------------------------
 GradGradGradGradGradGradGradGradGradGradGradGradGradGradGradGradGradGrad

 Leave Link  103 at Tue Oct  4 21:18:44 2022, MaxMem=  2952790016 cpu:               0.6 elap:               0.1
 (Enter /mnt/data/applications/G16/g16/l9999.exe)

 ----------------------------------------------------------------------

 Electric dipole moment (input orientation):
 (Debye = 10**-18 statcoulomb cm , SI units = C m)
                  (au)            (Debye)         (10**-30 SI)
   Tot        0.177330D+01      0.450727D+01      0.150346D+02
   x         -0.740333D+00     -0.188174D+01     -0.627681D+01
   y         -0.151241D+01     -0.384417D+01     -0.128228D+02
   z          0.555961D+00      0.141311D+01      0.471363D+01

 Dipole polarizability, Alpha (input orientation).
 (esu units = cm**3 , SI units = C**2 m**2 J**-1)
 Alpha(0;0):
               (au)            (10**-24 esu)      (10**-40 SI)
   iso        0.197923D+03      0.293291D+02      0.326330D+02
   aniso      0.300664D+02      0.445538D+01      0.495728D+01
   xx         0.187787D+03      0.278272D+02      0.309620D+02
   yx        -0.467313D+01     -0.692487D+00     -0.770495D+00
   yy         0.215576D+03      0.319451D+02      0.355437D+02
   zx         0.252462D+01      0.374110D+00      0.416254D+00
   zy         0.613770D+01      0.909513D+00      0.101197D+01
   zz         0.190404D+03      0.282150D+02      0.313935D+02

 ----------------------------------------------------------------------

 Dipole orientation:
    45          1.12683390          0.43900525         -1.76033064
    15          2.52079995         -1.36718367          2.03036404
     6          1.61418699         -4.61378690          2.68364683
     6          1.46547294          0.30517220          4.83616774
     6          5.93833622         -1.42639755          2.35067824
     1          6.75777017         -2.47391279          0.77620281
     1          6.49824093         -2.31770461          4.12594327
     1          2.32450754         -5.84062611          1.18634590
     1         -0.44222004         -4.74047330          2.72140966
     1          2.36852630         -5.25239942          4.49510470
     1         -0.58325461          0.14176324          4.97157191
     1          1.97499173          2.29519642          4.68637706
     1          2.31817461         -0.50045257          6.53427602
     6          0.65956465          2.50049351         -4.62759510
     8          0.44409425          3.78725702         -6.33613466
     6         -0.91452232         -2.34849238         -2.78430605
     8         -2.14043422         -4.00592173         -3.39716770
     1          6.65930106          0.50190804          2.28574394
     1          2.91127813          2.74901759         -0.73518125
     8         -4.60889820         -1.76891983          2.88409351
     6         -5.75248864          0.15901649          2.48747846
     1         -7.79009321          0.27506605          2.97824961
     6         -4.64975541          2.52263834          1.39869958
     1         -2.70669072          2.16112959          0.79183538
     1         -5.76507581          3.00937934         -0.27527127
     6         -4.77948499          4.69079291          3.30228224
     1         -4.07580107          6.42766791          2.44729880
     1         -6.71544956          5.03222428          3.93286846
     1         -3.62550326          4.28690135          4.96399807

 Electric dipole moment (dipole orientation):
 (Debye = 10**-18 statcoulomb cm , SI units = C m)
                  (au)            (Debye)         (10**-30 SI)
   Tot        0.177330D+01      0.450727D+01      0.150346D+02
   x          0.000000D+00      0.000000D+00      0.000000D+00
   y          0.000000D+00      0.000000D+00      0.000000D+00
   z          0.177330D+01      0.450727D+01      0.150346D+02

 Dipole polarizability, Alpha (dipole orientation).
 (esu units = cm**3 , SI units = C**2 m**2 J**-1)
 Alpha(0;0):
               (au)            (10**-24 esu)      (10**-40 SI)
   iso        0.197923D+03      0.293291D+02      0.326330D+02
   aniso      0.300664D+02      0.445538D+01      0.495728D+01
   xx         0.192922D+03      0.285881D+02      0.318085D+02
   yx        -0.327528D+01     -0.485346D+00     -0.540020D+00
   yy         0.199859D+03      0.296160D+02      0.329523D+02
   zx         0.723455D+01      0.107205D+01      0.119282D+01
   zy        -0.148051D+02     -0.219388D+01     -0.244102D+01
   zz         0.200987D+03      0.297832D+02      0.331383D+02

 ----------------------------------------------------------------------
 1\1\GINC-KIMIK2161\Freq\RwB97XD\Gen\C8H16O3P1Rh1\DGARAY\04-Oct-2022\0\
 \#P Geom=AllCheck Guess=TCheck SCRF=Check GenChk RwB97XD/ChkBas Freq\\
 Auto-generated job for I9c\\0,1\Rh,0.8430971298,0.7364992702,0.1550307
 179\P,0.9045025152,-1.6007922129,0.2767166098\C,0.8098029608,-2.532190
 2967,-1.2804699792\C,-0.4396228461,-2.320850468,1.2638466864\C,2.41073
 58876,-2.2495854009,1.0581574737\H,3.2849303006,-1.9038773859,0.505204
 9481\H,2.403363846,-3.3415877048,1.0741137122\H,1.6425930577,-2.248003
 918,-1.9256582913\H,-0.1241707472,-2.2841562888,-1.7856959213\H,0.8474
 232486,-3.6087511766,-1.1015058181\H,-1.3863756797,-2.126657309,0.7599
 428654\H,-0.4581512593,-1.8564395578,2.2497109009\H,-0.307858606,-3.39
 97997856,1.3703592495\C,0.966373881,2.5843711085,0.5065030016\O,1.0603
 571564,3.690227061,0.7561912758\C,0.532289944,0.8332768882,-1.72391271
 81\O,0.3428033386,0.8943715949,-2.8444674877\H,2.4793588229,-1.8683776
 667,2.0769586991\H,1.1042283985,0.5632989963,1.761908859\O,-2.49871030
 67,-1.058208572,-1.3380949267\C,-3.2125096301,-0.2599217037,-0.7864175
 803\H,-4.2727556533,-0.1617229701,-1.1027793716\C,-2.8049230763,0.6313
 985529,0.3433329832\H,-1.7272077807,0.5411980001,0.5087657222\H,-3.016
 80699,1.6618298262,0.0388851257\C,-3.5960362696,0.3028302544,1.6090339
 579\H,-3.3333412963,0.9978847818,2.4065452521\H,-4.6728536245,0.376565
 1353,1.4400440255\H,-3.3755857219,-0.7080530521,1.9573820282\\Version=
 AM64L-G16RevA.03\State=1-A\HF=-992.2369202\RMSD=1.789e-09\RMSF=2.129e-
 05\ZeroPoint=0.2245949\Thermal=0.2442816\Dipole=-0.7403331,-1.5124123,
 0.5559608\DipoleDeriv=0.0502565,-0.0470655,-0.2083447,-0.1060551,-2.22
 97558,-0.2678155,-0.2701755,-0.1751285,-1.4630154,0.8420645,-0.1001157
 ,0.0858503,-0.0736764,1.8991165,0.0092906,0.111358,-0.0730739,1.201895
 8,-0.2547707,0.0211199,-0.0357813,0.0268616,-0.4072061,-0.0854572,-0.0
 198822,0.0258751,-0.3342585,-0.2893787,0.0535768,0.0098799,-0.1267919,
 -0.3744586,0.0721945,0.0317937,-0.0032432,-0.2596347,-0.2984173,-0.020
 2127,-0.0465636,0.1737041,-0.3450013,0.0358941,-0.0525549,-0.0164339,-
 0.2484228,-0.0178689,-0.033652,0.0530397,-0.0298766,0.0856843,0.033127
 9,0.0492857,0.0225458,0.0555489,0.0340518,0.0761368,-0.0271913,0.05484
 06,-0.1545634,0.025075,-0.0469849,0.0561614,0.0917019,0.0038797,-0.026
 7391,0.0719021,-0.0386615,0.0831888,0.0043941,0.0772123,0.0169389,0.01
 03574,0.0492943,0.0024038,-0.0530878,-0.0013615,0.1061413,0.0085464,-0
 .0743749,0.0239718,0.0392451,0.1099595,0.0025243,0.0021528,0.0144718,-
 0.179019,-0.0120295,-0.0002469,-0.0625035,0.0621216,-0.0208125,0.00581
 69,-0.0239322,-0.0188198,0.1150918,0.0059984,0.0033668,-0.0158512,0.06
 98844,0.0875046,0.0036859,0.0360357,-0.0114029,0.0763455,-0.0569353,0.
 0198661,-0.0549045,-0.0355438,0.0413862,-0.0482993,0.0280918,-0.012377
 6,-0.1571183,0.0519686,0.0368074,0.0796346,0.0770991,0.0186914,0.27940
 51,0.1519365,0.3379907,3.2797332,0.6646581,0.179505,0.6596434,0.804031
 4,-0.1209978,-0.2108777,-0.0634118,-0.2274932,-2.3692465,-0.4302084,-0
 .0789476,-0.5210041,-0.3705595,0.1748798,-0.0137627,0.4373599,-0.00369
 4,0.672188,-0.1606943,0.4713235,-0.1478545,2.8614243,-0.1873917,0.0283
 067,-0.3241179,0.0124581,-0.2893614,0.1107872,-0.3275424,0.1659452,-2.
 1358594,0.0778152,-0.0028352,-0.0237688,0.007363,0.0823251,-0.043977,-
 0.0213917,-0.0428609,-0.0385191,-0.1847711,0.0055252,-0.0315171,0.0092
 259,0.1203272,0.0475074,-0.0314091,0.0582038,-0.3940166,-0.9261691,0.2
 890761,0.0784135,0.3549562,-0.7545856,-0.3584446,0.1200168,-0.3007533,
 -0.6260098,1.0547166,-0.235034,0.1880479,-0.3998606,0.7207147,0.544593
 5,-0.0144154,0.5469917,0.7169803,-0.3072827,0.0365056,-0.1110015,0.028
 9024,0.0370886,-0.0197465,-0.1227849,-0.0167851,0.0213628,-0.0402942,-
 0.0594523,-0.0619839,-0.061039,-0.0421204,-0.1874716,0.0594512,-0.2306
 781,-0.2039418,-0.0050735,0.0209654,-0.0241239,0.0622712,0.0446879,-0.
 0164231,-0.0234246,-0.0165113,-0.0091194,0.07496,0.0062843,-0.0320315,
 0.0282087,-0.0552179,0.0565169,-0.0093736,0.0595621,0.0193748,0.085451
 7,-0.0558092,-0.0534603,-0.0114222,0.0614989,-0.0465608,-0.0529266,-0.
 0159066,0.0878235,0.0698786,-0.0424679,-0.0306222,-0.0256902,0.0027846
 ,-0.0896499,0.0053478,-0.0843639,-0.0679221,-0.1910771,0.0096864,0.015
 9596,0.0110467,0.0805986,0.0175106,-0.0357607,0.0220831,0.050285,0.069
 5148,0.0553041,-0.00773,0.0259217,-0.1098607,0.0873505,0.0168616,0.040
 2996,0.0176869\Polar=187.7874012,-4.673132,215.576118,2.5246195,6.1377
 006,190.4044569\Quadrupole=6.481007,-0.2669615,-6.2140455,-8.4786665,-
 3.5859974,-3.7655088\PG=C01 [X(C8H16O3P1Rh1)]\NImag=1\\0.10659759,0.00
 025670,0.32958518,0.03943844,-0.00963466,0.33681741,-0.02141203,0.0038
 1315,-0.00344302,0.34394304,0.00612004,-0.05224079,0.00691658,-0.00277
 772,0.32701069,-0.00391775,0.00310115,-0.04056159,0.00266591,0.0003157
 1,0.35278696,0.00135494,0.00005682,0.00046190,-0.05035857,-0.00231653,
 -0.00382865,0.55219994,-0.00070766,-0.00526109,-0.01148586,-0.00376706
 ,-0.08553394,-0.06695357,-0.00528615,0.51557194,0.00018692,0.00146006,
 0.00414454,-0.00501927,-0.04596218,-0.13081220,-0.00704284,-0.06187764
 ,0.44398663,0.00126694,0.00013395,-0.00077423,-0.10771791,-0.02926904,
 0.04355068,0.00191500,-0.00023702,-0.00031545,0.46730619,-0.00733961,-
 0.00569208,0.00951768,-0.05251960,-0.07063352,0.03587575,0.01055240,0.
 00476370,-0.00850846,-0.04079172,0.52539731,0.00071297,0.00065864,0.00
 116665,0.04773211,0.02336955,-0.08385270,0.01946318,0.00920483,-0.0133
 9748,0.06004407,0.03291148,0.51459497,0.00076320,0.00028047,0.00064656
 ,-0.12643401,0.03086105,-0.03908959,0.00011444,0.00127806,-0.00100626,
 -0.01797813,0.00718101,-0.01001055,0.45174140,0.00830284,-0.00628634,0
 .00860160,0.05466880,-0.06608457,0.02549757,-0.01113566,0.00371935,-0.
 00647235,-0.01005311,0.00328983,-0.00406443,0.04203130,0.53318931,-0.0
 0053239,0.00065031,0.00158671,-0.04144066,0.01614559,-0.07089242,-0.02
 236559,0.00831580,-0.01044598,0.01330474,-0.00399098,0.00797606,-0.051
 44982,0.02441806,0.52616406,0.00013243,-0.00039009,-0.00001798,-0.0147
 7097,-0.00749191,0.01235084,0.00105377,-0.00021475,0.00012685,-0.00437
 134,0.00226873,-0.00324698,-0.22421531,-0.07370780,0.11779043,0.237801
 75,0.00013038,-0.00010390,-0.00025375,0.00673199,0.00201231,-0.0065549
 1,-0.00048302,-0.00010140,-0.00017681,0.00225041,-0.00072111,0.0017555
 1,-0.06954581,-0.07174100,0.04363104,0.07681499,0.07470777,0.00023499,
 -0.00015993,-0.00014686,-0.00949921,-0.00447877,0.00551698,0.00085490,
 -0.00021034,0.00049961,-0.00288592,0.00102702,-0.00156295,0.11204528,0
 .04329819,-0.11317407,-0.12310487,-0.04908805,0.12223266,-0.00202775,0
 .00128217,-0.00219100,-0.00377117,0.02260189,-0.00140275,0.00126060,-0
 .00023632,0.00117923,0.00177588,0.00025984,0.00034415,-0.04229469,0.00
 188455,0.00206044,0.00129554,-0.02582064,-0.00133940,0.04483657,0.0007
 6378,-0.00097521,0.00117214,-0.00002389,-0.00924895,-0.00024485,-0.000
 56861,0.00100890,-0.00033881,-0.00042946,0.00107866,-0.00025565,-0.005
 73208,-0.31875892,0.00234394,0.00106323,-0.00764653,-0.00061045,0.0042
 5635,0.34145841,-0.00104596,0.00056794,-0.00095643,-0.00168095,0.01179
 855,-0.00225616,0.00084605,0.00041735,0.00047656,0.00083328,-0.0006787
 0,0.00000717,0.00226636,0.00623215,-0.04569480,-0.00147362,0.01582224,
 -0.00047230,-0.00004229,-0.00350051,0.04434855,0.00006099,0.00001903,-
 0.00034965,0.00060774,0.00034980,-0.00272910,-0.20475483,-0.05459862,0
 .12477703,0.00023161,-0.00016194,-0.00092334,0.00023219,0.00018929,0.0
 0043272,-0.00006183,-0.00011301,-0.00027914,-0.00000792,0.00003455,-0.
 00001019,0.21964248,-0.00010751,0.00037211,0.00090299,0.01136746,0.002
 96003,-0.00648460,-0.05240125,-0.06237183,0.04187938,-0.00066340,-0.00
 172172,-0.00325852,0.00001290,0.00018410,0.00082826,-0.00018986,0.0001
 5938,-0.00006029,-0.00010869,-0.00003496,0.00001220,0.06008483,0.06542
 941,-0.00041867,0.00052289,0.00101096,0.01704680,0.00752410,-0.0120683
 2,0.13007245,0.04595189,-0.14082883,-0.00082274,-0.00369767,-0.0051387
 6,-0.00027356,0.00059228,0.00135232,-0.00061299,-0.00000517,-0.0005014
 9,-0.00000386,-0.00000273,-0.00008135,-0.13610018,-0.04638249,0.148710
 40,0.00026305,0.00015631,0.00046026,-0.00122735,-0.00015033,0.00010799
 ,-0.24867249,0.05399831,-0.11098504,0.00024673,-0.00008094,-0.00005307
 ,0.00049067,-0.00006282,0.00050045,0.00015685,0.00004839,0.00009672,-0
 .00002721,-0.00001691,0.00006568,-0.01808949,0.00522227,-0.01207582,0.
 26571269,0.00031319,0.00042370,0.00105668,-0.01260414,0.00257910,-0.00
 475660,0.05101170,-0.05847765,0.02950797,0.00009901,0.00015665,0.00077
 626,0.00041679,-0.00177259,-0.00355431,0.00030523,-0.00011167,0.000211
 70,0.00002576,0.00021487,-0.00007856,-0.00725167,0.00072932,-0.0048121
 7,-0.05781031,0.06133950,0.00066043,0.00050959,0.00084023,-0.01910627,
 0.00632531,-0.01015966,-0.11621787,0.03278452,-0.10369588,0.00020767,0
 .00069677,0.00127962,0.00034866,-0.00328152,-0.00530371,0.00001979,-0.
 00012360,0.00017003,0.00049690,-0.00020549,0.00029292,0.01758451,-0.00
 505816,0.01047938,0.12084025,-0.03251537,0.10972567,0.00062137,-0.0001
 0161,-0.00016427,-0.00112789,-0.00158839,-0.00019159,-0.04647329,0.009
 05551,-0.00123022,-0.00023115,0.00048622,-0.00002218,-0.00013183,-0.00
 055557,0.00034287,-0.00004294,-0.00004693,-0.00004006,0.00004472,0.000
 06626,-0.00029786,0.00189310,-0.02417505,0.00234344,0.00127809,0.02697
 050,-0.00283021,0.04451222,-0.00016231,-0.00093760,-0.00190862,0.00060
 970,-0.01303357,0.00242072,0.00956048,-0.31137844,0.04883043,-0.000109
 67,0.00111594,0.00061835,0.00015600,0.00097801,0.00063493,0.00006780,-
 0.00002054,0.00001534,-0.00056432,0.00032303,-0.00035614,0.00102152,-0
 .00583866,0.00018076,-0.00081647,-0.00487697,0.00012728,-0.01024285,0.
 33256067,-0.00016969,-0.00117721,-0.00244504,0.00071922,-0.02348576,0.
 00047598,-0.00114769,0.04022546,-0.04851679,-0.00036209,0.00026826,0.0
 0180318,0.00064654,0.00016709,0.00159422,0.00000916,0.00006597,-0.0000
 2248,-0.00038405,0.00055944,-0.00021474,-0.00253629,0.01852555,-0.0029
 8266,0.00147205,0.01459458,-0.00276947,0.00166826,-0.05017848,0.053132
 71,0.00060347,0.00046054,0.00033618,-0.01530171,0.00386198,-0.00926264
 ,0.00125948,0.00044780,-0.00053815,-0.25736695,0.04537729,-0.11620362,
 -0.00322923,-0.00245381,0.00319934,-0.00105778,0.00065550,-0.00082224,
 0.00042527,-0.00012687,0.00016028,0.00019295,-0.00032077,-0.00016886,0
 .00012061,0.00011359,0.00056065,-0.00004901,-0.00000423,0.00006923,0.2
 7235691,-0.00005627,-0.00003892,-0.00003960,-0.00784936,0.00094401,-0.
 00645296,0.00054481,0.00006383,-0.00031382,0.04121572,-0.05254225,0.02
 061361,-0.00181980,-0.00095233,0.00175549,-0.00068569,0.00071551,-0.00
 029847,-0.00016473,0.00019412,0.00005881,-0.00005110,-0.00018005,-0.00
 010581,0.00003085,0.00025187,0.00006331,0.00008459,-0.00004957,0.00006
 927,-0.04722526,0.05394415,-0.00035154,-0.00007968,-0.00017531,0.01260
 037,-0.00390362,0.00680683,-0.00079463,-0.00031588,0.00071505,-0.11093
 391,0.02106372,-0.10003429,0.00343408,0.00178367,-0.00269007,0.0012256
 9,-0.00046063,0.00078982,-0.00024994,0.00004974,-0.00016794,-0.0001156
 5,0.00020750,0.00025532,0.00007955,-0.00003422,-0.00050213,0.00000262,
 -0.00001102,-0.00002927,0.12099941,-0.02438806,0.10700863,0.00016262,0
 .00037161,-0.00070154,-0.00014954,0.00927209,0.01700916,-0.00427816,-0
 .00226444,0.00278112,-0.04198992,0.00577308,0.00679188,0.00094952,0.00
 032660,-0.00069683,0.00023155,-0.00028550,-0.00007533,-0.00001314,-0.0
 0006146,0.00005334,0.00038388,0.00079447,0.00152987,0.00006925,-0.0001
 3820,-0.00003520,-0.00005413,-0.00020790,-0.00043693,0.00293226,-0.012
 86913,-0.02522261,0.04435383,-0.00021142,-0.00014634,-0.00023958,0.001
 59918,0.00345588,0.00976110,-0.00261160,-0.00086652,0.00147601,0.00303
 035,-0.09404679,-0.10652147,0.00048667,-0.00010999,-0.00036136,0.00010
 963,-0.00009699,0.00011122,-0.00002820,-0.00003753,-0.00005186,-0.0000
 2951,0.00084123,0.00078637,-0.00003347,-0.00017023,-0.00029393,-0.0001
 2502,0.00022465,0.00009172,-0.00076016,0.00162212,0.00606952,-0.002125
 70,0.09994125,0.00007944,-0.00037566,0.00078429,-0.00243953,-0.0063988
 2,-0.01197909,0.00303846,0.00188190,-0.00137994,0.00231363,-0.10973722
 ,-0.27501209,-0.00017943,0.00003934,0.00050486,-0.00000180,0.00015455,
 0.00008348,-0.00001806,0.00006246,-0.00003291,-0.00017480,-0.00071639,
 -0.00081446,-0.00003598,0.00010107,0.00036465,-0.00003536,0.00010861,0
 .00028652,0.00216405,-0.00513290,-0.01097253,-0.00415024,0.11729659,0.
 29251547,-0.00157238,-0.00107513,0.00232323,-0.00181539,-0.02090506,0.
 00368314,0.00079689,0.00035682,-0.00122914,-0.04500496,0.02887894,-0.0
 0486659,0.00170236,-0.00011964,-0.00076388,0.00048401,0.00011469,0.000
 15101,-0.00042774,0.00056370,-0.00000292,-0.00006019,-0.00001894,-0.00
 043247,-0.00000893,0.00009357,-0.00001041,0.00015147,0.00049914,0.0002
 8275,-0.00128690,0.02792208,-0.00096766,-0.00135599,0.00045771,-0.0001
 8201,0.04833457,-0.00076587,-0.00095723,0.00133569,0.00073560,-0.01037
 611,0.00068690,0.00026356,0.00097669,-0.00032261,0.03613261,-0.3118592
 0,0.02407201,0.00049076,0.00120538,-0.00046483,0.00023994,0.00022295,0
 .00003256,-0.00062946,0.00016141,-0.00021795,-0.00000347,0.00019845,-0
 .00016997,-0.00001294,-0.00003304,-0.00004905,0.00004277,0.00029754,0.
 00050074,-0.00043565,-0.00351340,-0.00015142,0.00126460,-0.01050825,0.
 00277200,-0.03714384,0.33379093,0.00140686,0.00061889,-0.00120439,-0.0
 0037137,0.01447811,-0.00348929,-0.00079754,0.00024655,0.00064376,-0.00
 606058,0.02880316,-0.04740303,-0.00107612,-0.00070612,0.00033756,-0.00
 027486,-0.00000105,-0.00019009,0.00022890,-0.00028855,0.00029823,-0.00
 003456,-0.00020703,0.00035094,0.00000400,0.00002242,-0.00003835,0.0002
 5213,-0.00043487,-0.00038432,-0.00005682,0.01401131,-0.00169767,0.0037
 9897,-0.02829007,0.00548608,0.00347962,-0.02763459,0.04653148,-0.04574
 707,-0.00341984,-0.00360638,0.01402355,-0.00419010,0.00012972,-0.00044
 707,0.00028482,-0.00007245,-0.00117715,0.00416271,-0.00000990,-0.00061
 025,-0.00267069,-0.00001591,0.00000554,-0.00005426,-0.00011034,0.00074
 475,-0.00006271,0.00041936,0.00000403,0.00000807,0.00011693,-0.0000783
 7,-0.00008913,-0.00021882,-0.00021893,0.00013378,0.00008150,-0.0002107
 4,-0.00000850,0.00017242,-0.00009736,0.00002345,-0.00009831,0.00109932
 ,0.00041503,-0.00089462,0.07916256,-0.00489944,-0.09814553,0.00774518,
 0.00167695,-0.04749477,0.00055286,0.00011268,-0.00038567,-0.00002892,-
 0.00083720,0.00219374,0.00013604,0.00044228,0.00230998,-0.00006634,0.0
 0038867,-0.00017545,0.00018193,-0.00065115,0.00073106,-0.00043835,0.00
 015546,-0.00020780,-0.00021939,-0.00021111,-0.00028980,-0.00015618,0.0
 0001965,0.00038647,-0.00017135,-0.00032927,-0.00018380,0.00014894,-0.0
 0029509,-0.00017954,0.00033549,0.00062703,0.00075657,-0.00047061,0.095
 35664,1.19749491,-0.00391051,-0.00632958,-0.06835936,0.00002967,-0.009
 92369,0.01238116,-0.00016008,0.00330830,-0.00141580,-0.00006622,-0.000
 52231,-0.00023173,0.00009334,0.00038125,-0.00023574,0.00014056,-0.0000
 0493,0.00006525,-0.00016899,0.00014426,-0.00018619,0.00004646,-0.00023
 651,-0.00024676,-0.00011357,-0.00029803,-0.00023513,0.00004764,0.00074
 266,0.00086784,-0.00014538,-0.00009767,0.00001693,0.00017377,0.0001052
 3,-0.00009345,-0.00011400,0.00011907,0.00001572,0.02613481,0.25064342,
 0.15712569,0.01965745,-0.00584341,-0.00128142,-0.00560374,0.00115016,-
 0.00002857,0.00017383,-0.00031620,0.00008776,0.00050013,-0.00156776,-0
 .00001768,0.00023220,0.00072603,0.00001690,0.00002514,0.00000355,0.000
 03691,-0.00018534,-0.00000683,-0.00011866,0.00000188,-0.00001114,-0.00
 005491,0.00003231,0.00005762,0.00009604,0.00008204,-0.00008950,-0.0000
 9988,0.00009825,0.00002699,-0.00006867,0.00003416,0.00000619,0.0000267
 8,-0.00041523,-0.00016245,0.00034217,-0.04257937,-0.08759770,-0.021432
 08,0.02672333,-0.00534116,-0.06524543,-0.02689040,-0.00154971,0.014988
 87,-0.00190022,0.00007839,-0.00247357,0.00079825,0.00076825,-0.0026286
 0,-0.00003065,-0.00041608,-0.00227289,0.00002396,-0.00014701,0.0001124
 7,-0.00010642,0.00072162,-0.00048648,0.00044900,-0.00003984,0.00017326
 ,0.00012426,0.00012983,0.00022447,0.00014922,-0.00002467,-0.00068280,-
 0.00074955,0.00019786,0.00010813,-0.00008558,0.00011682,0.00013621,-0.
 00010080,-0.00076158,-0.00057841,0.00059713,-0.08875766,-1.06061659,-0
 .23310477,0.09302913,1.11417425,-0.00050377,-0.01583817,0.01910233,-0.
 00004510,0.00258409,-0.00438840,0.00007016,-0.00155969,0.00064143,0.00
 011336,-0.00032047,0.00009964,-0.00009375,-0.00056709,0.00009527,-0.00
 005376,0.00001803,-0.00004028,0.00019391,-0.00011453,0.00013280,-0.000
 01373,0.00010058,0.00008764,0.00004931,0.00012214,0.00008981,-0.000021
 06,-0.00033657,-0.00044960,0.00006227,0.00003689,-0.00001890,-0.000041
 07,-0.00001487,0.00002558,-0.00010424,-0.00012141,0.00009652,-0.021574
 67,-0.23187534,-0.09643795,0.02155572,0.24667629,0.07735206,-0.0621621
 5,0.00374121,-0.00354301,-0.00121589,0.00351780,-0.00028710,0.00013156
 ,-0.00072511,0.00008275,0.00032059,-0.00087428,-0.00002787,-0.00010419
 ,-0.00067227,-0.00012337,0.00011145,0.00000655,0.00000897,0.00028422,-
 0.00012891,0.00003277,0.00000978,0.00008149,-0.00003852,-0.00014128,-0
 .00035859,0.00007156,0.00001854,-0.00019069,-0.00038016,0.00010945,0.0
 0010271,0.00004793,-0.00003176,0.00006581,-0.00002026,-0.00017434,-0.0
 0016901,0.00024203,-0.00018637,-0.00817155,-0.00375064,0.00049868,0.00
 432575,0.00160561,0.11264559,0.00072177,-0.08419417,0.00234787,0.00166
 534,-0.00234033,0.01230667,0.00015570,0.00241873,-0.00075584,-0.000180
 90,0.00012080,-0.00040129,0.00003396,0.00005414,-0.00046070,0.00002715
 ,0.00007391,0.00005054,-0.00007612,0.00000971,-0.00018381,0.00023468,-
 0.00039565,-0.00010284,-0.00036164,-0.00055328,-0.00017288,0.00003219,
 0.00076257,0.00086873,-0.00013633,0.00003823,0.00007699,0.00013063,0.0
 0010210,-0.00019888,0.00007174,0.00001818,-0.00023833,-0.00282893,0.00
 295130,-0.01946426,0.00089184,0.00265993,0.00528513,-0.01078690,0.1090
 3410,-0.00592810,0.01734215,-0.09031227,-0.00005064,0.01833082,0.00222
 514,0.00017421,-0.00444649,0.00038964,0.00089345,-0.00456793,-0.000580
 08,-0.00070206,-0.00456139,-0.00069836,-0.00023430,0.00032594,0.000182
 72,0.00120290,-0.00094917,0.00095618,0.00097998,-0.00057103,0.00020796
 ,-0.00073718,-0.00097761,0.00047656,-0.00020853,-0.00107402,-0.0022605
 2,0.00010730,0.00010315,0.00022551,0.00022957,0.00031373,-0.00042199,-
 0.00118779,-0.00096960,0.00097622,-0.00441124,-0.04634025,-0.01609426,
 0.00259845,0.02499578,0.00866896,0.19169083,-0.05896913,1.21343472,0.0
 2373353,-0.00115431,-0.01453709,0.00031826,-0.00193032,0.00010328,-0.0
 0007260,0.00053679,-0.00015732,-0.00008289,0.00043616,0.00005274,0.000
 06139,0.00039935,0.00008321,-0.00001925,-0.00002291,-0.00001507,-0.000
 12641,0.00009065,-0.00003274,-0.00009520,0.00008618,0.00005977,0.00005
 081,0.00009147,-0.00003838,-0.00002452,0.00009599,0.00027012,-0.000037
 37,-0.00002478,-0.00002870,-0.00002195,-0.00004035,0.00002799,0.000096
 46,0.00008973,-0.00011159,0.00039105,0.00430210,0.00182411,-0.00033683
 ,-0.00237486,-0.00080748,-0.06760513,0.00958639,-0.17802883,0.05178748
 ,0.00049447,0.02788862,0.00457187,-0.00036952,0.00113464,-0.00338405,-
 0.00000290,-0.00085001,0.00054939,0.00001147,0.00000222,0.00008383,0.0
 0004639,0.00005335,0.00008766,-0.00001349,-0.00002225,-0.00000442,-0.0
 0000982,0.00000273,0.00004193,-0.00010405,-0.00006299,-0.00007055,0.00
 012698,-0.00042101,0.00011731,-0.00004808,-0.00009781,-0.00026067,0.00
 004583,-0.00001598,-0.00001158,-0.00002355,-0.00000591,0.00003579,-0.0
 0000166,0.00000105,0.00005615,0.00074355,-0.00013161,0.00477201,-0.000
 23546,-0.00052053,-0.00145683,0.00942205,-0.04628309,0.05655639,-0.009
 66548,0.02498050,-0.01437254,-0.00471233,-0.05855227,0.00016063,-0.012
 00644,0.00018758,-0.00011569,0.00306074,-0.00073052,-0.00039342,0.0024
 9449,0.00039318,0.00026047,0.00244146,0.00045282,0.00009913,-0.0001606
 0,-0.00010864,-0.00063279,0.00055755,-0.00043241,-0.00059546,0.0003495
 8,-0.00014903,0.00045707,0.00077584,-0.00035125,0.00018581,0.00062042,
 0.00159068,-0.00006674,-0.00002415,-0.00013072,-0.00024513,-0.00026676
 ,0.00034373,0.00063792,0.00055918,-0.00049931,0.00251194,0.02516966,0.
 00971871,-0.00139394,-0.01396704,-0.00463656,-0.17732250,0.05707971,-1
 .08633305,0.18964226,-0.06115100,1.13928232,0.00013859,-0.00040826,0.0
 0068799,-0.00107982,-0.00856679,-0.02026214,-0.00546606,0.00232441,-0.
 00229270,0.00141207,-0.00031525,0.00088504,-0.04181268,-0.00898761,-0.
 02025185,0.00301943,0.00987528,0.02474198,-0.00138242,0.00007078,0.000
 00424,0.00014393,0.00017706,0.00008965,0.00025132,-0.00097525,-0.00171
 738,0.00004056,0.00018356,0.00044347,0.00033708,0.00027830,-0.00009925
 ,-0.00075260,-0.00003060,0.00021378,-0.00008532,-0.00004259,0.00000089
 ,-0.00002658,0.00024484,-0.00014450,0.00000255,-0.00007871,0.00003589,
 -0.00008041,-0.00016444,-0.00016425,0.00005200,0.00002645,0.00023732,0
 .04521866,0.00017631,-0.00010855,-0.00035396,-0.00117883,0.00203914,0.
 00909031,0.00229741,-0.00060479,0.00073873,-0.00050781,-0.00005805,-0.
 00026501,-0.00641644,-0.07821825,-0.08997835,0.00144829,0.00274365,0.0
 1006805,-0.00230331,-0.00820443,-0.02933569,-0.00001398,-0.00016155,-0
 .00026928,0.00006912,0.00081743,0.00057195,0.00012957,0.00027467,0.000
 12225,-0.00008743,-0.00011739,0.00013738,0.00002101,0.00014832,-0.0001
 0244,0.00000985,-0.00006889,-0.00009194,-0.00002739,-0.00009051,0.0001
 6149,0.00001149,0.00006335,-0.00003897,0.00002069,0.00012924,0.0002540
 0,-0.00004264,-0.00001054,-0.00024901,0.00638159,0.08168103,0.00015233
 ,-0.00031462,0.00060369,0.00130966,-0.00416054,-0.01028048,-0.00243282
 ,0.00140706,-0.00050494,0.00033821,-0.00004695,0.00060794,-0.01503926,
 -0.09247124,-0.29090590,-0.00245740,-0.00508568,-0.01327396,0.00033490
 ,0.00170558,0.00343794,0.00009896,0.00007986,0.00030287,0.00012211,-0.
 00056072,-0.00053374,0.00008613,0.00007650,0.00020020,0.00005184,0.000
 15400,0.00002973,-0.00015543,-0.00011535,0.00022593,-0.00006111,0.0000
 1961,-0.00000817,0.00003092,0.00023140,-0.00017249,-0.00001265,-0.0000
 5627,0.00004658,-0.00010908,-0.00011398,-0.00027778,0.00007914,0.00001
 601,0.00029383,0.01735866,0.09953379,0.30982664,-0.02070408,0.00227358
 ,-0.01338516,-0.00355030,0.00044511,0.00089697,0.00021849,0.00003530,0
 .00003071,0.00057696,-0.00142947,-0.00004842,0.00031355,0.00148819,0.0
 0010888,0.00012357,-0.00021092,-0.00003489,-0.00027173,0.00021643,0.00
 010770,-0.00001239,0.00003180,-0.00002943,-0.00000317,-0.00000608,0.00
 001699,-0.00004980,-0.00000710,0.00000940,0.00002977,0.00010407,0.0000
 0238,0.00004366,-0.00004761,-0.00030075,-0.00039714,-0.00021807,-0.000
 00091,-0.00209736,-0.00050951,0.00131864,0.00061430,0.00052444,-0.0002
 8779,0.01953654,0.00047644,-0.00797985,-0.00797189,-0.00009295,0.00142
 506,0.00013182,0.00001131,0.00033563,0.01387916,0.00149865,-0.03699825
 ,0.00683501,-0.00022016,0.00197556,-0.00281056,0.00000012,-0.00043790,
 -0.00006090,-0.00024076,0.00143919,-0.00000172,0.00014600,0.00099193,-
 0.00009913,0.00009797,0.00000755,0.00002631,-0.00038359,0.00015969,-0.
 00051288,0.00002775,-0.00000853,0.00003942,-0.00003322,-0.00001730,0.0
 0003630,-0.00000505,-0.00003045,-0.00010666,-0.00003548,-0.00007719,-0
 .00000972,-0.00005040,-0.00023381,-0.00019914,0.00039464,0.00021324,-0
 .00043278,0.00144362,0.00061585,0.00939533,-0.00017911,0.00322720,-0.0
 0246414,0.00061256,0.01523458,0.00395264,0.00002565,-0.00536512,-0.000
 04032,-0.00002985,-0.00023311,-0.00032943,-0.00315777,0.01950044,-0.01
 301277,0.01351588,-0.10407560,0.00117454,0.00186935,0.00065150,-0.0000
 1939,0.00016112,0.00002856,0.00055857,-0.00087049,-0.00012780,-0.00068
 916,-0.00141658,-0.00024657,-0.00021797,0.00012445,-0.00001468,0.00042
 309,-0.00008920,0.00058418,-0.00004794,0.00004395,0.00001631,0.0000451
 2,0.00008235,0.00000242,0.00001933,-0.00005402,0.00007198,0.00008586,0
 .00013701,0.00001858,-0.00017544,0.00000921,0.00032592,-0.00026250,-0.
 00005741,0.00041202,0.00128287,-0.00597138,0.00331992,-0.00019249,0.00
 353705,-0.00036667,-0.00843742,0.00308703,-0.02893286,0.00125121,-0.00
 084663,-0.00100269,0.00018887,0.00000965,0.00036671,0.01797961,-0.0132
 4794,0.12913722,-0.00177494,-0.00276611,-0.00182902,0.00158360,0.00018
 229,0.00133751,-0.00001478,0.00000578,0.00062420,0.00039942,0.00008169
 ,-0.00072876,-0.00002983,0.00014215,-0.00013404,-0.00003906,0.00001985
 ,0.00000851,-0.00010031,0.00002253,-0.00005818,-0.00033908,0.00015161,
 -0.00014813,-0.00029327,-0.00041348,-0.00078154,-0.00026336,0.00010821
 ,-0.00016687,0.00052758,-0.00047179,0.00122336,-0.00032014,0.00018367,
 -0.00031491,-0.00031854,0.00008645,-0.00020424,0.00036933,0.00266375,0
 .00080357,-0.00022011,-0.00155976,-0.00043679,0.00086191,0.00091896,0.
 00154637,-0.00086174,-0.00046565,-0.00085147,-0.00007284,0.00002934,-0
 .00005648,0.00029429,0.00013132,-0.00018724,0.35577973,0.00056567,0.00
 080599,0.00008922,-0.00223222,-0.00202937,-0.00058849,0.00041351,0.000
 51011,-0.00066052,-0.00031136,0.00047842,0.00091865,0.00030143,0.00052
 780,0.00007689,0.00013386,-0.00007928,0.00002223,-0.00011168,0.0000877
 3,-0.00006666,0.00039978,-0.00013804,0.00009536,-0.00057784,0.00029173
 ,0.00082200,0.00006033,0.00006298,0.00019186,0.00021295,0.00021117,-0.
 00144770,0.00052314,-0.00018050,0.00043925,0.00029147,0.00000067,0.000
 05158,-0.00056679,-0.00044786,-0.00014241,0.00016895,0.00040362,0.0001
 1549,-0.00051674,-0.00060439,-0.00017165,-0.00013054,-0.00005771,0.000
 33943,0.00007088,-0.00005818,0.00007440,-0.00010506,-0.00009076,0.0000
 1898,-0.31874201,0.39708145,0.00060674,0.00038217,0.00137622,0.0004469
 6,-0.00032262,-0.00158118,0.00000002,-0.00013587,0.00014115,0.00020363
 ,0.00048778,-0.00002260,-0.00014082,0.00015788,0.00037721,-0.00006053,
 0.00000522,-0.00004434,-0.00002571,0.00002344,-0.00005206,0.00009507,0
 .00001707,0.00008251,-0.00059839,0.00074085,0.00016503,0.00018268,-0.0
 0003970,0.00012698,-0.00050304,-0.00033067,-0.00012717,-0.00008908,-0.
 00001462,0.00002014,-0.00039563,0.00008578,-0.00018501,-0.00025959,-0.
 00053304,-0.00033546,0.00007273,0.00030541,0.00014699,-0.00150016,-0.0
 0044308,-0.00340934,0.00108637,0.00039972,0.00207509,0.00010287,-0.000
 02299,0.00005155,-0.00022297,-0.00005733,0.00014278,-0.20169999,0.2667
 8525,0.22217962,0.00150900,0.00169386,0.00122939,-0.00164038,-0.000409
 03,-0.00028945,0.00002222,0.00011523,-0.00010984,-0.00018187,-0.000038
 05,0.00012253,0.00020442,0.00003271,-0.00005554,0.00009215,-0.00003919
 ,0.00002709,0.00002268,-0.00002049,0.00002697,0.00009590,-0.00003772,-
 0.00002762,-0.00036905,0.00030336,0.00023688,0.00004557,-0.00004560,0.
 00005220,-0.00046169,0.00120785,-0.00142622,0.00019910,-0.00007606,0.0
 0017648,0.00034760,-0.00009587,0.00013515,-0.00046183,-0.00197623,-0.0
 0061293,0.00021247,0.00113393,0.00031776,-0.00118516,-0.00052504,-0.00
 136739,0.00040274,0.00013971,0.00086191,0.00001908,-0.00002058,0.00002
 747,-0.00026732,-0.00009208,0.00013528,-0.34599865,0.27024874,0.172392
 22,0.70744156,-0.00159084,-0.00176671,-0.00131699,0.00211783,0.0017034
 6,0.00100216,-0.00019513,-0.00035860,0.00029204,0.00019998,-0.00029122
 ,-0.00049898,-0.00024882,-0.00041583,-0.00008267,-0.00012598,0.0000773
 8,-0.00002242,0.00006542,-0.00007311,0.00004174,-0.00024475,0.00009445
 ,-0.00002525,0.00069753,-0.00061853,-0.00057196,-0.00010122,-0.0000370
 8,-0.00018509,0.00069679,-0.00074345,0.00203221,-0.00042376,0.00018370
 ,-0.00040888,-0.00026788,-0.00000125,-0.00009617,0.00085804,0.00125530
 ,0.00040749,-0.00027861,-0.00076071,-0.00023557,0.00140178,0.00089307,
 0.00223768,-0.00066162,-0.00027990,-0.00143990,-0.00008221,0.00005755,
 -0.00007643,0.00037756,0.00013679,-0.00011600,0.27327547,-0.37763932,-
 0.21908308,-0.23966427,0.57071904,-0.00137015,-0.00131029,-0.00163073,
 0.00124174,0.00125834,0.00129420,-0.00010114,-0.00023287,0.00019532,0.
 00010056,-0.00029083,-0.00077569,-0.00005377,-0.00033922,-0.00021392,-
 0.00004746,0.00004594,0.00001394,0.00005169,-0.00007403,0.00005081,-0.
 00020151,0.00006455,-0.00006286,0.00056777,-0.00053740,-0.00050521,-0.
 00011092,-0.00003409,-0.00015750,-0.00003508,0.00032200,0.00121385,-0.
 00036246,0.00016217,-0.00035412,0.00000248,-0.00005305,-0.00002452,0.0
 0072561,0.00092849,0.00035543,-0.00022781,-0.00051959,-0.00019160,0.00
 140782,0.00066073,0.00315228,-0.00078846,-0.00016617,-0.00208796,-0.00
 009306,0.00005002,-0.00006818,0.00039789,0.00010698,-0.00009584,0.1746
 4831,-0.22003273,-0.22713515,-0.05847626,0.27252243,0.48974580,0.00017
 021,-0.00040112,0.00001371,0.00034929,0.00001696,0.00019451,-0.0000392
 8,0.00000696,0.00012316,0.00006962,0.00005289,-0.00012378,-0.00002995,
 0.00006961,-0.00000842,-0.00000757,0.00000038,-0.00000316,-0.00002682,
 0.00001851,-0.00002038,-0.00007588,0.00002939,-0.00002462,0.00016943,-
 0.00016370,-0.00020860,-0.00003784,0.00003009,-0.00002150,-0.00000247,
 -0.00022951,0.00035881,-0.00004710,0.00000578,-0.00004396,-0.00009785,
 0.00003689,-0.00003791,-0.00012574,0.00060124,0.00015606,0.00000741,-0
 .00039253,-0.00009341,-0.00008911,0.00016216,-0.00032107,0.00007569,-0
 .00005021,0.00023965,-0.00000669,0.00000035,-0.00000572,-0.00005509,0.
 00001755,-0.00002957,-0.03314670,0.02754934,0.00727795,-0.23607178,-0.
 00475743,-0.07439610,0.27499674,0.00031217,0.00015467,0.00034730,-0.00
 011972,-0.00005501,-0.00031552,-0.00001366,-0.00002327,-0.00003170,0.0
 0000371,0.00005135,0.00003392,-0.00001901,0.00001836,0.00004922,-0.000
 00154,-0.00000120,-0.00000526,0.00000335,0.00000382,-0.00000157,0.0000
 3715,-0.00001082,0.00001850,-0.00009558,0.00017756,0.00010003,0.000047
 54,-0.00001356,0.00002989,-0.00005987,-0.00001751,-0.00006740,0.000009
 50,-0.00002642,0.00002602,-0.00002938,0.00000749,-0.00000237,-0.000137
 77,-0.00010147,-0.00006427,0.00004486,0.00004105,0.00002566,-0.0002814
 0,-0.00011703,-0.00052674,0.00012867,0.00003107,0.00030981,0.00001772,
 -0.00000567,0.00001045,-0.00009816,-0.00001553,0.00001875,0.03992684,0
 .00139028,-0.00429715,0.00059530,-0.06100759,0.00324148,-0.02598813,0.
 04791136,0.00038756,0.00002257,0.00007208,-0.00038343,-0.00038732,0.00
 001030,0.00005280,0.00009482,-0.00008177,-0.00002502,0.00003279,0.0001
 1516,0.00005078,0.00013604,-0.00000823,0.00002848,-0.00001776,0.000005
 77,-0.00003072,0.00002810,-0.00001921,0.00003424,-0.00001973,-0.000003
 76,-0.00005868,-0.00000671,0.00008598,0.00000307,0.00002178,0.00002690
 ,0.00002055,0.00003206,-0.00021937,0.00006025,-0.00003448,0.00006112,0
 .00004716,0.00000745,0.00001570,-0.00026994,0.00024755,0.00008755,0.00
 006404,-0.00017277,-0.00004465,-0.00018963,-0.00001669,-0.00021214,0.0
 0006384,-0.00001213,0.00017446,0.00000576,-0.00001171,0.00001033,-0.00
 009238,-0.00000513,-0.00003153,0.02077574,-0.00933032,0.01939131,-0.06
 876207,0.00202662,-0.08995454,0.07340998,0.01610522,0.06863759,-0.0058
 3078,-0.00006110,0.00099877,-0.00017148,0.00025101,0.00038860,0.000045
 50,-0.00002012,-0.00001040,0.00008753,-0.00046096,0.00007873,0.0000208
 8,-0.00021600,-0.00007936,0.00000826,-0.00000237,0.00000303,0.00006538
 ,-0.00003236,0.00003977,-0.00001286,-0.00001775,-0.00001290,0.00010866
 ,-0.00003852,-0.00000703,-0.00002412,-0.00000977,-0.00001963,0.0001387
 0,0.00038301,0.00001544,-0.00002581,0.00011167,-0.00010143,0.00016500,
 -0.00008992,0.00004666,0.00054882,-0.00039533,0.00004953,-0.00015543,0
 .00030875,0.00005691,0.00038406,-0.00011442,0.00002485,-0.00020929,0.0
 0001157,-0.00018196,-0.00002490,0.00001050,-0.00001118,0.00009944,0.00
 002059,-0.00025937,0.01710585,0.02527005,0.02354415,-0.11649468,-0.032
 48501,-0.04613472,-0.00730422,-0.01469631,-0.02500507,0.58759032,0.001
 02761,0.00131710,0.00046605,-0.00071847,-0.00097801,-0.00012764,0.0000
 3636,0.00013177,-0.00005070,-0.00010258,-0.00006659,0.00006986,0.00007
 724,0.00017246,0.00002798,0.00004973,-0.00003766,0.00000805,-0.0000214
 3,0.00005881,-0.00002935,0.00004212,-0.00002987,-0.00001567,-0.0001407
 1,0.00007688,0.00007851,0.00001554,0.00002702,0.00003626,0.00013622,-0
 .00001511,-0.00026159,0.00000415,-0.00001351,0.00005148,0.00012024,0.0
 0004673,0.00000718,-0.00080002,-0.00025102,-0.00006642,0.00020634,-0.0
 0018689,-0.00003631,-0.00076410,-0.00003486,-0.00093078,0.00033015,-0.
 00000534,0.00074515,0.00002254,-0.00002678,0.00002659,-0.00024988,0.00
 000401,-0.00000316,0.00904585,-0.01547699,-0.04173671,-0.03213671,-0.1
 1894422,-0.04421157,0.00535766,0.01188712,-0.00523782,-0.03341742,0.52
 856566,-0.00019357,0.00074435,0.00141417,0.00009172,-0.00015613,-0.000
 35254,-0.00001737,0.00002031,-0.00001715,-0.00000383,0.00003336,0.0000
 1980,0.00000041,-0.00003056,0.00004019,-0.00000821,0.,-0.00000101,0.00
 001016,-0.00000602,0.00001509,0.00004463,-0.00000165,0.00003043,-0.000
 13326,0.00011516,0.00010625,0.00000860,-0.00000443,0.00001862,-0.00003
 515,0.00002355,-0.00013624,0.00003311,-0.00004627,0.00004807,0.0000157
 4,-0.00000217,-0.00000075,0.00036303,-0.00104097,-0.00038202,-0.000046
 18,0.00063085,0.00020281,0.00016350,-0.00009440,-0.00115897,-0.0000454
 4,0.00004157,0.00043195,0.00002436,-0.00000622,0.00001465,-0.00021116,
 -0.00002682,-0.00007327,0.00744087,-0.03514894,-0.00903070,-0.04622510
 ,-0.04146474,-0.14594691,-0.00303755,-0.01240303,0.00247771,0.04076214
 ,-0.00581195,0.44915996,0.00280847,0.00209921,-0.00063646,-0.00295562,
 0.00118618,-0.00103299,0.00000018,-0.00017964,0.00006734,-0.00019505,0
 .00010313,0.00005882,-0.00001548,0.00015175,0.00003819,0.00001401,-0.0
 0000378,-0.00000417,-0.00004103,0.00000354,-0.00003469,-0.00001142,0.0
 0002058,0.00000012,0.00003072,0.00000278,-0.00001086,0.00002342,-0.000
 04157,-0.00003843,0.00013691,-0.00038938,0.00005645,0.00006029,-0.0000
 5620,0.00001344,-0.00012975,-0.00004350,0.00001208,-0.00159074,-0.0019
 4609,-0.00049351,0.00043651,0.00076756,0.00017636,-0.00121850,0.000004
 30,0.00248789,0.00020138,0.00004424,-0.00104642,0.00001132,-0.00000394
 ,0.00000170,-0.00038787,0.00000713,0.00039797,0.00357276,0.00056197,0.
 00153776,-0.01136257,0.00162540,-0.00216864,0.00053529,-0.00077121,-0.
 00076858,-0.29760579,0.02304942,-0.04290809,0.32305522,0.00076139,-0.0
 0187005,0.00034551,0.00112539,-0.00045751,-0.00007921,-0.00008326,-0.0
 0010290,0.00007569,0.00007940,0.00016449,0.00009053,-0.00008627,-0.000
 11669,0.00008902,-0.00006668,0.00003365,-0.00001466,0.00001488,-0.0000
 2989,0.00001280,-0.00001304,0.00003264,0.00004180,0.00000834,0.0000127
 7,-0.00001458,-0.00000423,-0.00002312,-0.00002500,-0.00036924,0.000123
 45,-0.00020160,0.00006930,-0.00003777,0.00009428,-0.00019960,0.0000243
 7,0.00001089,-0.00000108,0.00023647,0.00003712,-0.00003887,-0.00001773
 ,0.00000216,0.00015931,0.00025002,0.00048777,-0.00011104,-0.00002921,-
 0.00033760,0.00000554,0.00001491,-0.00000900,0.00009856,0.00002492,0.0
 0009220,0.00142021,0.00142299,0.00292726,-0.02261170,0.00173352,-0.004
 09336,-0.00089872,-0.00091031,-0.00356367,0.02629961,-0.05307497,0.003
 74759,-0.02638115,0.05241369,0.00160896,0.00004600,-0.00057061,-0.0017
 2532,0.00033914,0.00061385,0.00004939,0.00009102,-0.00003956,0.0000599
 5,-0.00005081,0.00001572,0.00005452,0.00009572,-0.00003008,0.00002943,
 -0.00001605,0.00000415,-0.00002303,0.00002013,-0.00001996,-0.00000125,
 -0.00001647,-0.00002537,-0.00000927,-0.00001419,-0.00001233,-0.0000048
 1,0.00002552,0.00001807,0.00004191,-0.00005158,0.00012106,-0.00007444,
 0.00010880,-0.00012915,0.00006760,-0.00001734,-0.00005675,-0.00023456,
 0.00057601,0.00037914,0.00003719,-0.00033617,-0.00014796,0.00057784,-0
 .00010112,0.00003701,-0.00002081,0.00001750,-0.00013134,-0.00001383,-0
 .00000271,-0.00000301,0.00004081,0.00001687,-0.00012466,0.00306766,0.0
 0233049,0.00262370,-0.02917209,0.00362034,-0.00578840,-0.00128475,-0.0
 0381068,-0.00275635,-0.04108650,0.00278556,-0.05428256,0.04437163,-0.0
 0394051,0.06065734,0.00061458,-0.00091195,0.00015279,0.00001179,0.0002
 6732,-0.00018330,-0.00002411,-0.00001370,0.00001531,0.00002759,0.00004
 160,0.00003670,-0.00002029,0.00005038,0.00004015,-0.00001102,0.0000038
 1,-0.00000434,-0.00001544,0.00000200,-0.00000863,0.00000068,0.00000816
 ,0.00001116,-0.00001651,0.00001518,0.00000145,0.00000838,-0.00000335,0
 .00000245,-0.00004330,-0.00017580,-0.00004843,0.00003445,-0.00004244,0
 .00005399,-0.00009308,0.00000797,0.00001186,-0.00017188,0.00072658,0.0
 0005922,0.00003727,-0.00033832,-0.00004700,-0.00022063,0.00013058,-0.0
 0035616,0.00008553,-0.00004330,0.00022316,0.00000981,-0.00000120,0.000
 00329,-0.00008752,0.00000611,0.00004718,0.00145658,-0.00014488,-0.0014
 2030,0.00084244,-0.00762993,0.00604368,0.00005627,0.00115376,-0.000162
 71,-0.05885490,0.04871779,-0.01999874,-0.00367060,0.02879331,-0.007112
 87,0.05766866,-0.00025650,0.00022971,-0.00011692,-0.00007961,-0.000158
 23,0.00005949,0.00002003,0.00003680,-0.00003338,-0.00001756,0.00005211
 ,-0.00003044,0.00002852,0.00001498,-0.00001705,0.00000985,-0.00000390,
 0.00000412,-0.00000486,0.00000155,0.00000112,0.00001271,-0.00000802,-0
 .00000407,-0.00003392,0.00001202,0.00002411,0.00000051,0.00000479,0.00
 001141,-0.00001721,0.00008936,-0.00003596,-0.00001022,0.00000066,-0.00
 000520,0.00003941,-0.00000015,-0.00000406,0.00016027,-0.00011390,0.000
 02390,-0.00000575,0.00009378,0.00001147,0.00019625,-0.00011238,0.00018
 450,-0.00005438,0.00003278,-0.00015768,-0.00000274,-0.00000193,0.00000
 114,0.00003937,-0.00000944,-0.00002631,-0.00206972,-0.00100397,-0.0045
 1585,0.00819871,-0.02069148,0.00796445,-0.00039461,0.00180478,-0.00154
 004,0.04763345,-0.27923532,0.06564975,-0.00014691,-0.00100086,0.000058
 56,-0.05295698,0.30303445,0.00010359,-0.00020541,-0.00012776,-0.000044
 66,0.00002068,-0.00010720,-0.00001668,0.00001579,-0.00000207,-0.000044
 07,0.00000149,0.00005293,-0.00001288,0.00002159,0.00002545,-0.00000317
 ,0.,-0.00000223,-0.00000288,0.00000207,-0.00000515,0.00001277,-0.00000
 150,0.00001033,-0.00004278,0.00002396,0.00002076,0.00000844,-0.0000000
 4,0.00000616,-0.00001251,-0.00000261,-0.00016574,0.00006455,-0.0000188
 1,0.00004648,-0.00001331,0.00000305,0.00001193,-0.00007976,0.00032900,
 0.00012165,0.00001902,-0.00019602,-0.00006109,-0.00000166,-0.00003878,
 0.00012313,-0.00001444,0.00002162,-0.00006794,0.00000925,-0.00000180,0
 .00000390,-0.00001275,0.00000237,-0.00000292,-0.00037034,-0.00052265,-
 0.00682104,0.00808271,-0.02570431,0.00956205,0.00014146,0.00255362,-0.
 00076831,-0.01971133,0.06003319,-0.05851962,-0.00062686,0.00473320,-0.
 00190285,0.01422335,-0.07054493,0.07033716,0.00069394,-0.00005298,-0.0
 0004224,-0.00037663,-0.00029356,-0.00014678,0.00000130,0.00007759,-0.0
 0003491,-0.00001955,-0.00004685,0.00008512,0.00003123,0.00011729,0.000
 03500,0.00002112,-0.00001690,0.00000115,-0.00002142,0.00002947,-0.0000
 2041,0.00002969,-0.00001127,0.00000291,-0.00008160,0.00005637,0.000060
 44,0.00001371,0.00001849,0.00002970,-0.00014169,0.00004664,-0.00023660
 ,0.00012281,-0.00003917,0.00008597,-0.00000547,0.00002551,0.00002517,-
 0.00042689,0.00035209,0.00007418,0.00010447,-0.00023218,-0.00005594,-0
 .00050611,-0.00004182,-0.00045281,0.00021585,0.00000624,0.00040892,0.0
 0001685,-0.00001322,0.00001368,-0.00003321,-0.00001049,0.00003745,0.00
 200286,-0.00559784,-0.00195156,0.00554689,0.01191850,0.00137958,-0.000
 24544,-0.00097987,-0.00010950,-0.11101394,-0.01562165,0.04180354,-0.01
 308137,-0.00714022,0.02911908,0.00216108,0.00078876,-0.00418444,0.5424
 3031,-0.00013186,0.00009004,0.00006521,0.00019089,0.00025847,-0.000340
 17,-0.00008880,-0.00004888,0.00005049,-0.00035046,-0.00002676,0.000179
 57,-0.00010022,-0.00007620,0.00009115,-0.00004065,0.00001448,-0.000013
 89,0.00002547,-0.00001182,0.00000245,0.00001777,0.00001431,0.00004446,
 -0.00006488,0.00005784,0.00003585,0.00001885,-0.00001558,-0.00000890,0
 .00022954,-0.00016684,-0.00039523,0.00022388,-0.00001490,0.00011856,-0
 .00005347,0.00002910,0.00002775,0.00012049,-0.00013094,0.00000661,-0.0
 0002540,0.00005209,0.00000391,0.00000619,-0.00007317,-0.00010154,0.000
 01062,0.00002262,0.00004687,0.00002342,0.00000480,0.00000421,0.0000199
 4,0.00000184,-0.00000127,-0.00128858,-0.00762254,-0.00198951,0.0148255
 6,0.00791702,-0.01558149,-0.00096886,-0.00111371,0.00153324,-0.0134682
 7,-0.07497915,0.01620008,0.00101359,0.00040286,-0.00276129,-0.01715855
 ,-0.00529530,0.02940871,-0.01159206,0.57052090,0.00048233,-0.00020944,
 -0.00007382,-0.00028326,-0.00041247,0.00019625,0.00003662,0.00010265,-
 0.00003785,0.00017090,0.00014635,-0.00014306,0.00007195,0.00017535,-0.
 00004086,0.00004278,-0.00002262,0.00000780,-0.00004325,0.00003166,-0.0
 0002673,0.00000251,-0.00001058,-0.00002578,0.00000265,-0.00002705,-0.0
 0000418,-0.00000754,0.00003221,0.00002654,-0.00021370,-0.00004966,0.00
 018835,-0.00006047,0.00000707,-0.00002410,-0.00001575,0.00001297,-0.00
 003058,-0.00040802,0.00055850,0.00026664,0.00008783,-0.00037045,-0.000
 12291,-0.00027334,-0.00004093,-0.00012202,0.00009942,0.00000429,0.0001
 1187,-0.00000699,-0.00000991,0.00000477,-0.00009803,0.00000117,-0.0000
 9261,-0.00314433,-0.00083515,0.00140272,0.01626526,0.00007247,-0.03231
 945,-0.00108388,-0.00112085,0.00304514,0.05006139,0.02840807,-0.155375
 12,-0.00122324,-0.00078876,0.00419679,0.00703281,0.00220071,-0.0097330
 7,0.04651376,0.02170320,0.50572495,-0.00007194,-0.00009246,-0.00019268
 ,0.00004963,0.00013185,0.00008158,0.00000813,-0.00002453,0.00000335,0.
 00002224,-0.00002500,0.00002048,-0.00000519,-0.00004012,-0.00000489,-0
 .00000496,0.00000445,-0.00000169,0.00000805,-0.00000934,0.00000458,-0.
 00000686,0.00000213,-0.00000371,0.00002051,-0.00001530,-0.00001470,-0.
 00000450,-0.00000644,-0.00000983,0.00003837,-0.00003931,0.00002800,-0.
 00001884,0.00003163,-0.00003198,-0.00001033,-0.00001064,-0.00001718,0.
 00005047,-0.00002107,0.00007687,-0.00001264,0.00002750,-0.00001962,0.0
 0009931,0.00000856,0.00028750,-0.00004632,0.00000276,-0.00020774,-0.00
 001009,0.00000586,-0.00000627,0.00005977,0.00001046,-0.00005808,-0.000
 08901,0.00187542,0.00081332,-0.00248345,-0.00312136,0.00084428,0.00057
 183,0.00055365,0.00007201,0.00380839,0.01129671,0.01697729,0.00044796,
 0.00049046,-0.00054960,0.00053747,-0.00000904,-0.00120191,-0.06277859,
 -0.04348899,-0.05138957,0.06532158,0.00001249,-0.00005243,0.00003659,-
 0.00002933,-0.00005564,-0.00000623,0.00000229,0.00000641,0.00000189,0.
 00000370,0.00001386,-0.00011425,0.00002510,0.00001875,-0.00001732,0.00
 000859,-0.00000448,0.00000779,-0.00000528,0.00000266,-0.00000098,0.000
 00172,0.00000093,0.00000037,0.00000048,-0.00000466,0.00000495,-0.00000
 509,0.00000381,0.00000180,-0.00009101,0.00004228,0.00008591,0.00001138
 ,-0.00003224,0.00000683,0.00001307,0.00000686,0.00002025,-0.00000712,0
 .00010457,-0.00003894,0.00000785,-0.00005652,0.00000113,0.00000165,0.0
 0001431,-0.00006850,0.00000609,-0.00000650,0.00006648,0.00000659,-0.00
 000126,0.00000252,-0.00000505,-0.00001008,0.00006183,-0.00011513,0.001
 27058,0.00033688,-0.00120298,-0.00078642,0.00138361,0.00020987,0.00001
 889,-0.00013678,0.00230439,0.00539609,0.00865935,0.00022627,0.00003895
 ,-0.00049786,0.00049945,0.00089734,-0.00027434,-0.04344740,-0.16142783
 ,-0.12911976,0.04869959,0.17039024,-0.00002141,0.00024109,0.00017770,-
 0.00004525,-0.00010333,-0.00010980,-0.00000321,0.00002013,-0.00001244,
 -0.00003566,0.00002194,0.00002232,0.00000158,0.00000704,0.00001368,0.0
 0000074,-0.00000145,-0.00000092,0.00000014,0.00000188,0.00000055,0.000
 01393,-0.00000289,0.00000581,-0.00004154,0.00003290,0.00003148,0.00000
 636,0.00000100,0.00001049,0.00001125,0.00003167,-0.00009502,0.00002150
 ,-0.00002307,0.00002502,0.00001504,0.00000454,0.00000645,0.00004350,-0
 .00029259,-0.00014250,-0.00000365,0.00018579,0.00006307,-0.00007410,-0
 .00004822,-0.00026263,0.00004185,0.00001279,0.00017930,0.00000796,-0.0
 0000371,0.00000597,-0.00001044,-0.00001558,0.00004260,-0.00007869,-0.0
 0274499,-0.00115218,0.00514339,0.00444487,-0.00118014,-0.00065388,-0.0
 0028815,0.00050260,-0.00675751,-0.01611761,-0.02305936,0.00001058,-0.0
 0016069,0.00097255,-0.00092887,0.00005517,0.00130115,-0.05017608,-0.12
 756916,-0.18897028,0.05123038,0.13781362,0.20657274,0.00017145,-0.0001
 2503,0.00006145,-0.00002588,-0.00016135,-0.00006668,-0.00001722,0.0000
 4617,0.00000718,-0.00001193,0.00004020,0.00000882,-0.00000704,0.000080
 53,0.00002150,0.00000305,-0.00000607,-0.00000168,-0.00001999,0.0000207
 1,-0.00001605,-0.00000036,-0.00000006,0.00000165,0.00000288,-0.0000134
 7,-0.00000916,0.00000034,0.00001890,0.00001155,-0.00000083,-0.00009532
 ,-0.00003966,0.00004294,-0.00002754,0.00004944,-0.00003805,0.00002946,
 0.00000425,-0.00016607,0.00034863,0.00007970,0.00003191,-0.00023081,-0
 .00005153,-0.00014999,0.00000765,-0.00029314,0.00006891,-0.00001085,0.
 00022287,0.00000997,-0.00000735,0.00000641,-0.00006444,-0.00000183,0.0
 0000207,0.00018253,0.00031623,0.00053689,-0.00042789,-0.00089544,-0.00
 187448,0.00039956,0.00051931,0.00068061,-0.01604152,0.00133632,-0.0010
 3953,0.00031317,-0.00103266,0.00303077,0.00068015,-0.00026536,-0.00011
 605,-0.30405522,0.01903590,-0.04388858,-0.00671744,0.00099801,-0.00097
 360,0.33090638,0.00009485,-0.00000295,-0.00002735,-0.00012796,-0.00015
 336,0.00012728,0.00003389,0.00002942,-0.00002709,0.00008001,0.00001536
 ,-0.00008001,0.00003903,0.00004238,-0.00003625,0.00001965,-0.00000702,
 0.00000572,-0.00001021,0.00000448,-0.00000348,-0.00000170,-0.00000894,
 -0.00001657,0.00000367,-0.00000284,-0.00000078,0.00000004,0.00000452,0
 .00000845,-0.00003175,0.00010177,0.00015826,-0.00010499,0.00001434,-0.
 00006418,0.00005728,-0.00002133,-0.00001948,-0.00006638,0.00007263,0.0
 0002018,0.00001861,-0.00004135,-0.00001156,-0.00004545,-0.00000674,-0.
 00000271,0.00001525,-0.00000082,0.00001123,-0.00000758,-0.00000185,-0.
 00000034,-0.00000894,-0.00000390,-0.00000715,-0.00013389,0.00003471,0.
 00000686,0.00079239,0.00018313,-0.00006353,0.00005468,0.00003416,0.000
 01768,-0.00797363,-0.00037434,-0.00177122,-0.00063747,0.00056729,0.001
 43246,-0.00032411,0.00019471,-0.00051650,0.01945330,-0.04985363,0.0035
 1097,-0.02124240,0.00202730,-0.00241064,-0.02000148,0.04772497,-0.0002
 5555,0.00006836,0.00005085,0.00020172,0.00018600,-0.00008859,-0.000028
 12,-0.00005028,0.00002958,-0.00005548,-0.00003466,-0.00000583,-0.00003
 467,-0.00007322,0.00000892,-0.00001868,0.00001072,-0.00000248,0.000016
 83,-0.00001417,0.00001129,-0.00000399,0.00000981,0.00001425,0.00000954
 ,-0.00000103,-0.00000754,-0.00000071,-0.00001241,-0.00001381,0.0000102
 4,0.00000040,-0.00003990,0.00005582,-0.00002498,0.00002848,-0.00001869
 ,0.00000504,0.00002637,0.00020955,-0.00018950,-0.00012443,-0.00004721,
 0.00012597,0.00005001,0.00016114,0.00002472,0.00007493,-0.00006339,-0.
 00000455,-0.00006131,0.00000535,0.00000430,-0.00000269,0.00003572,-0.0
 0000281,0.00005978,-0.00086879,0.00030101,-0.00027768,0.00209640,-0.00
 066886,0.00152654,-0.00048716,0.00002292,-0.00046780,0.02921444,-0.002
 70631,0.00510756,0.00211857,0.00107790,-0.00489701,-0.00068536,-0.0000
 5412,0.00121686,-0.04437084,0.00388923,-0.05532944,-0.02285319,0.00347
 852,-0.00340595,0.04469758,-0.00488906,0.05893854,-0.00002070,0.000164
 78,-0.00011548,-0.00018064,-0.00016542,0.00021918,0.00006220,0.0000217
 8,-0.00004892,0.00017031,-0.00004442,-0.00015459,0.00006064,0.00001374
 ,-0.00005227,0.00002242,-0.00000888,0.00001098,-0.00000312,-0.00000260
 ,0.00000316,-0.00000253,-0.00001497,-0.00002575,0.00000415,0.00000172,
 0.00000422,-0.00000021,-0.00000189,0.00000543,-0.00011738,0.00020810,0
 .00033696,-0.00046387,0.00017333,-0.00011465,0.00011989,-0.00003758,-0
 .00005245,0.00002039,-0.00017786,0.00000427,0.00000239,0.00011506,0.00
 001345,0.00005936,-0.00004349,0.00020004,-0.00002971,0.00001526,-0.000
 14834,-0.00001463,0.00000142,-0.00000366,0.00003197,-0.00000034,-0.000
 03968,-0.00025407,0.00007324,-0.00003159,0.00040250,-0.00046003,-0.000
 96941,0.00000818,-0.00006193,0.00010088,0.00359295,-0.01689903,0.00616
 407,0.00061815,-0.00028794,-0.00084358,-0.00100345,-0.00080246,0.00384
 735,-0.06060498,0.05305895,-0.01873024,0.00121647,-0.00813019,0.003255
 69,-0.00506936,0.03005529,-0.00904110,0.06137268,0.00001813,0.00015645
 ,-0.00008548,-0.00013496,-0.00018848,0.00020189,0.00004643,0.00003883,
 -0.00003860,0.00009347,-0.00004574,0.00002977,0.00004958,0.00003550,-0
 .00004003,0.00002214,-0.00000665,0.00000258,-0.00001150,0.00000618,-0.
 00000178,-0.00000147,-0.00001018,-0.00002283,0.00001102,-0.00001616,-0
 .00000349,-0.00000632,0.00000910,0.00000993,0.00004845,0.00016378,0.00
 004708,-0.00005191,0.00003679,-0.00008370,0.00006479,-0.00004035,-0.00
 003336,-0.00002210,-0.00016259,0.00002547,0.00000857,0.00010982,0.0000
 0854,0.00002321,-0.00004985,0.00014400,-0.00001800,0.00001674,-0.00011
 477,-0.00001705,-0.00000234,-0.00000256,0.00000445,-0.00000142,-0.0000
 6127,-0.00036987,0.00084868,0.00086064,-0.00029574,-0.00053898,-0.0011
 7097,0.00002451,-0.00011289,0.00018712,0.00089467,-0.00395302,0.002149
 63,-0.00026621,0.00017404,0.00005265,-0.00067949,0.00113507,0.00085738
 ,0.05224724,-0.27852911,0.07604999,0.00500499,-0.01781576,0.00690765,0
 .00007661,-0.00057209,-0.00047895,-0.05676365,0.29931463,-0.00005720,-
 0.00010503,0.00004418,0.00015686,0.00023974,-0.00016712,-0.00003084,-0
 .00004177,0.00002737,0.00008591,-0.00006458,0.00013375,-0.00006881,-0.
 00006255,0.00005138,-0.00002930,0.00001343,-0.00001343,0.00001549,-0.0
 0000821,0.00000608,-0.00000604,0.00000656,0.00001202,0.00000406,0.0000
 1009,-0.00001221,0.00000793,-0.00001210,-0.00001088,0.00018358,-0.0001
 2456,-0.00018739,-0.00008073,0.00001872,0.00003802,-0.00007760,0.00001
 479,0.00000326,0.00004236,0.00000972,-0.00002838,-0.00001575,-0.000012
 24,0.00000509,-0.00001390,0.00005705,-0.00005473,0.00000445,-0.0000172
 5,0.00003947,0.00000262,0.00000180,-0.00000189,0.00000854,0.00001061,0
 .00000721,0.00058372,-0.00097987,-0.00012910,-0.00080459,0.00329723,0.
 00138253,-0.00002987,0.00004191,-0.00015204,-0.00590602,0.02459967,-0.
 01075102,-0.00035595,-0.00063706,0.00127856,0.00299816,0.00083613,-0.0
 0455295,-0.01789352,0.07535088,-0.07269995,0.00612300,-0.02169536,0.00
 845776,-0.00105261,0.00464880,-0.00241954,0.01620604,-0.08539654,0.079
 69393\\0.00000339,-0.00003499,0.00003312,0.00004455,0.00001843,0.00004
 781,-0.00000846,0.00000779,-0.00001170,0.00000515,0.00000725,0.0000006
 0,-0.00001301,-0.00001238,-0.00000564,-0.00000320,-0.00000851,-0.00000
 440,-0.00000077,-0.00000322,0.00000464,-0.00000663,-0.00001451,0.00000
 239,-0.00001488,-0.00000305,0.00000447,-0.00000934,-0.00001174,0.00000
 578,-0.00000894,0.00000003,0.00000216,-0.00000032,0.00000692,0.0000028
 1,-0.00000522,0.00000242,0.00001049,0.00003493,0.00004207,0.00003846,-
 0.00001056,-0.00004095,-0.00004204,-0.00003502,0.00001598,-0.00010676,
 0.00000987,-0.00002175,0.00005357,-0.00000017,-0.00000078,-0.00000288,
 0.00000768,0.00000094,-0.00004752,0.00002372,-0.00000152,0.00002316,-0
 .00001748,0.00000974,-0.00000634,0.00000163,0.00000219,0.00000394,0.00
 000993,-0.00000316,-0.00001185,-0.00003019,-0.00001527,-0.00000442,0.0
 0000402,0.00000779,-0.00000399,-0.00000100,0.00000998,0.00000587,0.000
 00739,0.00001263,-0.00000022,0.00000590,0.00001412,0.00000445,0.000007
 03,0.00001356,0.00000404\\\@


 A MAN BEGINS CUTTING HIS WISDOM TEETH THE 1ST
 TIME HE BITES OFF MORE THAN HE CAN CHEW.
 Job cpu time:       0 days 22 hours 42 minutes  7.1 seconds.
 Elapsed time:       0 days  1 hours 53 minutes 52.7 seconds.
 File lengths (MBytes):  RWF=    827 Int=      0 D2E=      0 Chk=     32 Scr=      1
 Normal termination of Gaussian 16 at Tue Oct  4 21:18:45 2022.
