 Entering Gaussian System, Link 0=g16
 Initial command:
 /mnt/data/applications/G16/g16/l1.exe "/scratch/Gau-31466.inp" -scrdir="/scratch/"
 Entering Link 1 = /mnt/data/applications/G16/g16/l1.exe PID=     31467.
  
 Copyright (c) 1988,1990,1992,1993,1995,1998,2003,2009,2016,
            Gaussian, Inc.  All Rights Reserved.
  
 This is part of the Gaussian(R) 16 program.  It is based on
 the Gaussian(R) 09 system (copyright 2009, Gaussian, Inc.),
 the Gaussian(R) 03 system (copyright 2003, Gaussian, Inc.),
 the Gaussian(R) 98 system (copyright 1998, Gaussian, Inc.),
 the Gaussian(R) 94 system (copyright 1995, Gaussian, Inc.),
 the Gaussian 92(TM) system (copyright 1992, Gaussian, Inc.),
 the Gaussian 90(TM) system (copyright 1990, Gaussian, Inc.),
 the Gaussian 88(TM) system (copyright 1988, Gaussian, Inc.),
 the Gaussian 86(TM) system (copyright 1986, Carnegie Mellon
 University), and the Gaussian 82(TM) system (copyright 1983,
 Carnegie Mellon University). Gaussian is a federally registered
 trademark of Gaussian, Inc.
  
 This software contains proprietary and confidential information,
 including trade secrets, belonging to Gaussian, Inc.
  
 This software is provided under written license and may be
 used, copied, transmitted, or stored only in accord with that
 written license.
  
 The following legend is applicable only to US Government
 contracts under FAR:
  
                    RESTRICTED RIGHTS LEGEND
  
 Use, reproduction and disclosure by the US Government is
 subject to restrictions as set forth in subparagraphs (a)
 and (c) of the Commercial Computer Software - Restricted
 Rights clause in FAR 52.227-19.
  
 Gaussian, Inc.
 340 Quinnipiac St., Bldg. 40, Wallingford CT 06492
  
  
 ---------------------------------------------------------------
 Warning -- This program may not be used in any manner that
 competes with the business of Gaussian, Inc. or will provide
 assistance to any competitor of Gaussian, Inc.  The licensee
 of this program is prohibited from giving any competitor of
 Gaussian, Inc. access to this program.  By using this program,
 the user acknowledges that Gaussian, Inc. is engaged in the
 business of creating and licensing software in the field of
 computational chemistry and represents and warrants to the
 licensee that it is not a competitor of Gaussian, Inc. and that
 it will not use this program in any manner prohibited above.
 ---------------------------------------------------------------
  

 Cite this work as:
 Gaussian 16, Revision A.03,
 M. J. Frisch, G. W. Trucks, H. B. Schlegel, G. E. Scuseria, 
 M. A. Robb, J. R. Cheeseman, G. Scalmani, V. Barone, 
 G. A. Petersson, H. Nakatsuji, X. Li, M. Caricato, A. V. Marenich, 
 J. Bloino, B. G. Janesko, R. Gomperts, B. Mennucci, H. P. Hratchian, 
 J. V. Ortiz, A. F. Izmaylov, J. L. Sonnenberg, D. Williams-Young, 
 F. Ding, F. Lipparini, F. Egidi, J. Goings, B. Peng, A. Petrone, 
 T. Henderson, D. Ranasinghe, V. G. Zakrzewski, J. Gao, N. Rega, 
 G. Zheng, W. Liang, M. Hada, M. Ehara, K. Toyota, R. Fukuda, 
 J. Hasegawa, M. Ishida, T. Nakajima, Y. Honda, O. Kitao, H. Nakai, 
 T. Vreven, K. Throssell, J. A. Montgomery, Jr., J. E. Peralta, 
 F. Ogliaro, M. J. Bearpark, J. J. Heyd, E. N. Brothers, K. N. Kudin, 
 V. N. Staroverov, T. A. Keith, R. Kobayashi, J. Normand, 
 K. Raghavachari, A. P. Rendell, J. C. Burant, S. S. Iyengar, 
 J. Tomasi, M. Cossi, J. M. Millam, M. Klene, C. Adamo, R. Cammi, 
 J. W. Ochterski, R. L. Martin, K. Morokuma, O. Farkas, 
 J. B. Foresman, and D. J. Fox, Gaussian, Inc., Wallingford CT, 2016.
 
 ******************************************
 Gaussian 16:  AM64L-G16RevA.03 25-Dec-2016
                20-Jul-2023 
 ******************************************
 %nprocshared=12
 Will use up to   12 processors via shared memory.
 %mem=22GB
 %chk=CO.chk
 ----------------------------------------------------------------------
 #p opt=(maxstep=5) freq pseudo=read WB97XD gen scrf(smd,solvent=toluen
 e)
 ----------------------------------------------------------------------
 1/8=5,18=20,19=15,26=3,38=1/1,3;
 2/9=110,12=2,17=6,18=5,40=1/2;
 3/5=7,11=2,16=1,17=8,25=1,30=1,70=32201,71=1,72=13,74=-58/1,2,3;
 4//1;
 5/5=2,38=5,53=13/2;
 6/7=2,8=2,9=2,10=2,28=1/1;
 7//1,2,3,16;
 1/8=5,18=20,19=15,26=3/3(2);
 2/9=110/2;
 99//99;
 2/9=110/2;
 3/5=7,6=1,11=2,16=1,17=8,25=1,30=1,70=32205,71=1,72=13,74=-58,82=7/1,2,3;
 4/5=5,16=3,69=1/1;
 5/5=2,38=5,53=13/2;
 7//1,2,3,16;
 1/8=5,18=20,19=15,26=3/3(-5);
 2/9=110/2;
 6/7=2,8=2,9=2,10=2,19=2,28=1/1;
 99/9=1/99;
 Leave Link    1 at Thu Jul 20 11:10:51 2023, MaxMem=  2952790016 cpu:               0.6 elap:               0.1
 (Enter /mnt/data/applications/G16/g16/l101.exe)
 -------------------------
 Auto-generated job for CO
 -------------------------
 Symbolic Z-matrix:
 Charge =  0 Multiplicity = 1
 C                     0.        0.       -0.64155 
 O                     0.        0.        0.48117 
 
 ITRead=  0  0
 MicOpt= -1 -1
 NAtoms=      2 NQM=        2 NQMF=       0 NMMI=      0 NMMIF=      0
                NMic=       0 NMicF=      0.
                    Isotopes and Nuclear Properties:
 (Nuclear quadrupole moments (NQMom) in fm**2, nuclear magnetic moments (NMagM)
  in nuclear magnetons)

  Atom         1           2
 IAtWgt=          12          16
 AtmWgt=  12.0000000  15.9949146
 NucSpn=           0           0
 AtZEff=  -0.0000000  -0.0000000
 NQMom=    0.0000000   0.0000000
 NMagM=    0.0000000   0.0000000
 AtZNuc=   6.0000000   8.0000000
 Leave Link  101 at Thu Jul 20 11:10:51 2023, MaxMem=  2952790016 cpu:               4.3 elap:               0.4
 (Enter /mnt/data/applications/G16/g16/l103.exe)

 GradGradGradGradGradGradGradGradGradGradGradGradGradGradGradGradGradGrad
 Berny optimization.
 Initialization pass.
                           ----------------------------
                           !    Initial Parameters    !
                           ! (Angstroms and Degrees)  !
 --------------------------                            --------------------------
 ! Name  Definition              Value          Derivative Info.                !
 --------------------------------------------------------------------------------
 ! R1    R(1,2)                  1.1227         estimate D2E/DX2                !
 --------------------------------------------------------------------------------
 Trust Radius=5.00D-02 FncErr=1.00D-07 GrdErr=1.00D-06 EigMax=2.50D+02 EigMin=1.00D-04
 Number of steps in this run=     20 maximum allowed number of steps=    100.
 GradGradGradGradGradGradGradGradGradGradGradGradGradGradGradGradGradGrad

 Leave Link  103 at Thu Jul 20 11:10:51 2023, MaxMem=  2952790016 cpu:               0.1 elap:               0.0
 (Enter /mnt/data/applications/G16/g16/l202.exe)
                          Input orientation:                          
 ---------------------------------------------------------------------
 Center     Atomic      Atomic             Coordinates (Angstroms)
 Number     Number       Type             X           Y           Z
 ---------------------------------------------------------------------
      1          6           0        0.000000    0.000000   -0.641554
      2          8           0        0.000000    0.000000    0.481166
 ---------------------------------------------------------------------
 Stoichiometry    CO
 Framework group  C*V[C*(CO)]
 Deg. of freedom     1
 Full point group                 C*V     NOp   4
 Largest Abelian subgroup         C2V     NOp   4
 Largest concise Abelian subgroup C1      NOp   1
                         Standard orientation:                         
 ---------------------------------------------------------------------
 Center     Atomic      Atomic             Coordinates (Angstroms)
 Number     Number       Type             X           Y           Z
 ---------------------------------------------------------------------
      1          6           0        0.000000    0.000000   -0.641554
      2          8           0        0.000000    0.000000    0.481166
 ---------------------------------------------------------------------
 Rotational constants (GHZ):           0.0000000          58.4776964          58.4776964
 Leave Link  202 at Thu Jul 20 11:10:51 2023, MaxMem=  2952790016 cpu:               0.1 elap:               0.0
 (Enter /mnt/data/applications/G16/g16/l301.exe)
 General basis read from cards:  (5D, 7F)
 Centers:       2      1
 def2tzvp
 ****
 ======================================================================================================
                                       Pseudopotential Parameters
 ======================================================================================================
  Center     Atomic      Valence      Angular      Power
  Number     Number     Electrons     Momentum     of R      Exponent        Coefficient   SO-Coeffient
 ======================================================================================================
    1          6
                                   No pseudopotential on this center.
    2          8
                                   No pseudopotential on this center.
 ======================================================================================================
 Ernie: Thresh=  0.10000D-02 Tol=  0.10000D-05 Strict=F.
 There are    34 symmetry adapted cartesian basis functions of A1  symmetry.
 There are     6 symmetry adapted cartesian basis functions of A2  symmetry.
 There are    16 symmetry adapted cartesian basis functions of B1  symmetry.
 There are    16 symmetry adapted cartesian basis functions of B2  symmetry.
 There are    28 symmetry adapted basis functions of A1  symmetry.
 There are     6 symmetry adapted basis functions of A2  symmetry.
 There are    14 symmetry adapted basis functions of B1  symmetry.
 There are    14 symmetry adapted basis functions of B2  symmetry.
    62 basis functions,   102 primitive gaussians,    72 cartesian basis functions
     7 alpha electrons        7 beta electrons
       nuclear repulsion energy        22.6240791330 Hartrees.
 IExCor= 4639 DFT=T Ex+Corr=wB97XD ExCW=0 ScaHFX=  1.000000
 ScaDFX=  1.000000  1.000000  1.000000  1.000000 ScalE2=  1.000000  1.000000
 IRadAn=      5 IRanWt=     -1 IRanGd=            0 ICorTp=0 IEmpDi=121
 HFx  wShort=  0.000000 wLong=  0.200000 cFull=  0.222036 cShort=  0.000000 cLong=  0.777964
 DFx  wShort=  0.000000 wLong=  0.200000 cFull=  0.000000 cShort=  0.000000 cLong=  1.000000
 NAtoms=    2 NActive=    2 NUniq=    2 SFac= 1.00D+00 NAtFMM=   60 NAOKFM=F Big=F
 Integral buffers will be    131072 words long.
 Raffenetti 2 integral format.
 Two-electron integral symmetry is turned on.
 R6Disp:  Grimme-D2 Dispersion energy=       -0.0000006217 Hartrees.
 Nuclear repulsion after empirical dispersion term =       22.6240785112 Hartrees.
 ------------------------------------------------------------------------------
 Polarizable Continuum Model (PCM)
 =================================
 Model                : PCM.
 Atomic radii         : SMD-Coulomb.
 Polarization charges : Total charges.
 Charge compensation  : None.
 Solution method      : On-the-fly selection.
 Cavity type          : VdW (van der Waals Surface) (Alpha=1.000).
 Cavity algorithm     : GePol (No added spheres)
                        Default sphere list used, NSphG=    2.
                        Lebedev-Laikov grids with approx.  5.0 points / Ang**2.
                        Smoothing algorithm: York/Karplus (Gamma=1.0000).
                        Polarization charges: spherical gaussians, with
                                              point-specific exponents (IZeta= 3).
                        Self-potential: point-specific (ISelfS= 7).
                        Self-field    : sphere-specific E.n sum rule (ISelfD= 2).
 1st derivatives      : Analytical E(r).r(x)/FMM algorithm (CHGder, D1EAlg=3).
                        Cavity 1st derivative terms included.
 Solvent              : Toluene, Eps=   2.374100 Eps(inf)=   2.238315
 ------------------------------------------------------------------------------
 Spheres list:
 ISph  on   Nord     Re0    Alpha      Xe            Ye            Ze
    1   C      1    1.8500  1.000      0.000000      0.000000     -0.641554
    2   O      2    2.2940  1.000      0.000000      0.000000      0.481166
 ------------------------------------------------------------------------------
 GePol: Number of generator spheres                  =       2
 GePol: Total number of spheres                      =       2
 GePol: Number of exposed spheres                    =       2 (100.00%)
 GePol: Number of points                             =     530
 GePol: Average weight of points                     =       0.13
 GePol: Minimum weight of points                     =   0.17D-05
 GePol: Maximum weight of points                     =    0.16851
 GePol: Number of points with low weight             =      28
 GePol: Fraction of low-weight points (<1% of avg)   =       5.28%
 GePol: Cavity surface area                          =     71.522 Ang**2
 GePol: Cavity volume                                =     55.881 Ang**3
 ------------------------------------------------------------------------------
 Atomic radii for non-electrostatic terms: SMD-CDS.
 ------------------------------------------------------------------------------
 PCM non-electrostatic energy =         0.0048377034 Hartrees.
 Nuclear repulsion after PCM non-electrostatic terms =       22.6289162146 Hartrees.
 Leave Link  301 at Thu Jul 20 11:10:52 2023, MaxMem=  2952790016 cpu:               1.2 elap:               0.1
 (Enter /mnt/data/applications/G16/g16/l302.exe)
 NPDir=0 NMtPBC=     1 NCelOv=     1 NCel=       1 NClECP=     1 NCelD=      1
         NCelK=      1 NCelE2=     1 NClLst=     1 CellRange=     0.0.
 One-electron integrals computed using PRISM.
 One-electron integral symmetry used in STVInt
   4 Symmetry operations used in ECPInt.
 ECPInt:  NShTT=     253 NPrTT=     864 LenC2=     254 LenP2D=     811.
 LDataN:  DoStor=T MaxTD1= 6 Len=  172
 NBasis=    62 RedAO= T EigKep=  1.17D-03  NBF=    28     6    14    14
 NBsUse=    62 1.00D-06 EigRej= -1.00D+00 NBFU=    28     6    14    14
 Precomputing XC quadrature grid using
 IXCGrd= 4 IRadAn=           5 IRanWt=          -1 IRanGd=           0 AccXCQ= 0.00D+00.
 Generated NRdTot=       0 NPtTot=           0 NUsed=           0 NTot=          32
 NSgBfM=    72    72    72    72    72 MxSgAt=     2 MxSgA2=     2.
 Leave Link  302 at Thu Jul 20 11:10:52 2023, MaxMem=  2952790016 cpu:               2.4 elap:               0.2
 (Enter /mnt/data/applications/G16/g16/l303.exe)
 DipDrv:  MaxL=1.
 Leave Link  303 at Thu Jul 20 11:10:52 2023, MaxMem=  2952790016 cpu:               0.3 elap:               0.0
 (Enter /mnt/data/applications/G16/g16/l401.exe)
 ExpMin= 9.52D-02 ExpMax= 2.70D+04 ExpMxC= 9.22D+02 IAcc=3 IRadAn=         5 AccDes= 0.00D+00
 Harris functional with IExCor= 4639 and IRadAn=       5 diagonalized for initial guess.
 HarFok:  IExCor= 4639 AccDes= 0.00D+00 IRadAn=         5 IDoV= 1 UseB2=F ITyADJ=14
 ICtDFT=  3500011 ScaDFX=  1.000000  1.000000  1.000000  1.000000
 FoFCou: FMM=F IPFlag=           0 FMFlag=      100000 FMFlg1=           0
         NFxFlg=           0 DoJE=T BraDBF=F KetDBF=T FulRan=T
         wScrn=  0.000000 ICntrl=       500 IOpCl=  0 I1Cent=   200000004 NGrid=           0
         NMat0=    1 NMatS0=      1 NMatT0=    0 NMatD0=    1 NMtDS0=    0 NMtDT0=    0
 Petite list used in FoFCou.
 Harris En= -109.192656225635    
 JPrj=0 DoOrth=F DoCkMO=F.
 Initial guess orbital symmetries:
       Occupied  (SG) (SG) (SG) (SG) (PI) (PI) (SG)
       Virtual   (PI) (PI) (SG) (SG) (PI) (PI) (SG) (PI) (PI) (SG)
                 (DLTA) (DLTA) (SG) (PI) (PI) (SG) (SG) (PI) (PI)
                 (SG) (DLTA) (DLTA) (PI) (PI) (SG) (PI) (PI) (PHI)
                 (PHI) (DLTA) (DLTA) (SG) (DLTA) (DLTA) (PI) (PI)
                 (SG) (PI) (PI) (SG) (SG) (PHI) (PHI) (DLTA) (DLTA)
                 (PI) (PI) (DLTA) (DLTA) (SG) (PI) (PI) (SG) (SG)
                 (SG)
 The electronic state of the initial guess is 1-SG.
 Leave Link  401 at Thu Jul 20 11:10:52 2023, MaxMem=  2952790016 cpu:               4.4 elap:               0.4
 (Enter /mnt/data/applications/G16/g16/l502.exe)
 Keep R1 ints in memory in symmetry-blocked form, NReq=14576156.
 FoFCou: FMM=F IPFlag=           0 FMFlag=           0 FMFlg1=           0
         NFxFlg=           0 DoJE=F BraDBF=F KetDBF=F FulRan=T
         wScrn=  0.000000 ICntrl=       600 IOpCl=  0 I1Cent=           0 NGrid=           0
         NMat0=    1 NMatS0=   1953 NMatT0=    0 NMatD0=    1 NMtDS0=    0 NMtDT0=    0
 Petite list used in FoFCou.
 Closed shell SCF:
 Using DIIS extrapolation, IDIIS=  1040.
 NGot=  2952790016 LenX=  2952274805 LenY=  2952269180
 Requested convergence on RMS density matrix=1.00D-08 within 128 cycles.
 Requested convergence on MAX density matrix=1.00D-06.
 Requested convergence on             energy=1.00D-06.
 No special actions if energy rises.

 Cycle   1  Pass 1  IDiag  1:
 Inv3:  Mode=1 IEnd=      842700.
 Iteration    1 A*A^-1 deviation from unit magnitude is 1.55D-15 for    480.
 Iteration    1 A*A^-1 deviation from orthogonality  is 6.21D-16 for    248    114.
 Iteration    1 A^-1*A deviation from unit magnitude is 1.55D-15 for    373.
 Iteration    1 A^-1*A deviation from orthogonality  is 1.09D-15 for    422     47.
 E= -113.267480559965    
 DIIS: error= 8.74D-02 at cycle   1 NSaved=   1.
 NSaved= 1 IEnMin= 1 EnMin= -113.267480559965     IErMin= 1 ErrMin= 8.74D-02
 ErrMax= 8.74D-02  0.00D+00 EMaxC= 1.00D-01 BMatC= 2.66D-01 BMatP= 2.66D-01
 IDIUse=3 WtCom= 1.26D-01 WtEn= 8.74D-01
 Coeff-Com:  0.100D+01
 Coeff-En:   0.100D+01
 Coeff:      0.100D+01
 Gap=     0.494 Goal=   None    Shift=    0.000
 GapD=    0.494 DampG=2.000 DampE=0.500 DampFc=1.0000 IDamp=-1.
 RMSDP=3.85D-03 MaxDP=7.44D-02              OVMax= 1.11D-01

 Cycle   2  Pass 1  IDiag  1:
 E= -113.275391358510     Delta-E=       -0.007910798545 Rises=F Damp=F
 DIIS: error= 3.80D-02 at cycle   2 NSaved=   2.
 NSaved= 2 IEnMin= 2 EnMin= -113.275391358510     IErMin= 2 ErrMin= 3.80D-02
 ErrMax= 3.80D-02  0.00D+00 EMaxC= 1.00D-01 BMatC= 7.30D-02 BMatP= 2.66D-01
 IDIUse=3 WtCom= 6.20D-01 WtEn= 3.80D-01
 Coeff-Com:  0.299D+00 0.701D+00
 Coeff-En:   0.446D+00 0.554D+00
 Coeff:      0.355D+00 0.645D+00
 Gap=     0.536 Goal=   None    Shift=    0.000
 RMSDP=2.35D-03 MaxDP=4.78D-02 DE=-7.91D-03 OVMax= 9.80D-02

 Cycle   3  Pass 1  IDiag  1:
 E= -113.300042460787     Delta-E=       -0.024651102277 Rises=F Damp=F
 DIIS: error= 2.40D-02 at cycle   3 NSaved=   3.
 NSaved= 3 IEnMin= 3 EnMin= -113.300042460787     IErMin= 3 ErrMin= 2.40D-02
 ErrMax= 2.40D-02  0.00D+00 EMaxC= 1.00D-01 BMatC= 2.59D-02 BMatP= 7.30D-02
 IDIUse=3 WtCom= 7.60D-01 WtEn= 2.40D-01
 Coeff-Com:  0.481D-01 0.377D+00 0.575D+00
 Coeff-En:   0.000D+00 0.313D+00 0.687D+00
 Coeff:      0.366D-01 0.362D+00 0.602D+00
 Gap=     0.516 Goal=   None    Shift=    0.000
 RMSDP=1.10D-03 MaxDP=1.80D-02 DE=-2.47D-02 OVMax= 4.77D-02

 Cycle   4  Pass 1  IDiag  1:
 E= -113.316767725632     Delta-E=       -0.016725264845 Rises=F Damp=F
 DIIS: error= 4.29D-03 at cycle   4 NSaved=   4.
 NSaved= 4 IEnMin= 4 EnMin= -113.316767725632     IErMin= 4 ErrMin= 4.29D-03
 ErrMax= 4.29D-03  0.00D+00 EMaxC= 1.00D-01 BMatC= 5.93D-04 BMatP= 2.59D-02
 IDIUse=3 WtCom= 9.57D-01 WtEn= 4.29D-02
 Coeff-Com:  0.137D-02 0.502D-01 0.187D+00 0.762D+00
 Coeff-En:   0.000D+00 0.000D+00 0.000D+00 0.100D+01
 Coeff:      0.131D-02 0.480D-01 0.179D+00 0.772D+00
 Gap=     0.518 Goal=   None    Shift=    0.000
 RMSDP=2.46D-04 MaxDP=4.82D-03 DE=-1.67D-02 OVMax= 6.62D-03

 Cycle   5  Pass 1  IDiag  1:
 E= -113.317209096735     Delta-E=       -0.000441371103 Rises=F Damp=F
 DIIS: error= 4.11D-04 at cycle   5 NSaved=   5.
 NSaved= 5 IEnMin= 5 EnMin= -113.317209096735     IErMin= 5 ErrMin= 4.11D-04
 ErrMax= 4.11D-04  0.00D+00 EMaxC= 1.00D-01 BMatC= 3.95D-06 BMatP= 5.93D-04
 IDIUse=3 WtCom= 9.96D-01 WtEn= 4.11D-03
 Coeff-Com: -0.966D-03-0.994D-02-0.159D-01 0.497D-01 0.977D+00
 Coeff-En:   0.000D+00 0.000D+00 0.000D+00 0.000D+00 0.100D+01
 Coeff:     -0.962D-03-0.990D-02-0.158D-01 0.495D-01 0.977D+00
 Gap=     0.518 Goal=   None    Shift=    0.000
 RMSDP=5.23D-05 MaxDP=1.66D-03 DE=-4.41D-04 OVMax= 7.33D-04

 Cycle   6  Pass 1  IDiag  1:
 E= -113.317213529124     Delta-E=       -0.000004432389 Rises=F Damp=F
 DIIS: error= 3.63D-05 at cycle   6 NSaved=   6.
 NSaved= 6 IEnMin= 6 EnMin= -113.317213529124     IErMin= 6 ErrMin= 3.63D-05
 ErrMax= 3.63D-05  0.00D+00 EMaxC= 1.00D-01 BMatC= 7.39D-08 BMatP= 3.95D-06
 IDIUse=1 WtCom= 1.00D+00 WtEn= 0.00D+00
 Coeff-Com: -0.740D-04-0.258D-02-0.901D-02-0.345D-01-0.181D-01 0.106D+01
 Coeff:     -0.740D-04-0.258D-02-0.901D-02-0.345D-01-0.181D-01 0.106D+01
 Gap=     0.518 Goal=   None    Shift=    0.000
 RMSDP=1.62D-05 MaxDP=4.97D-04 DE=-4.43D-06 OVMax= 2.56D-04

 Cycle   7  Pass 1  IDiag  1:
 E= -113.317213686525     Delta-E=       -0.000000157401 Rises=F Damp=F
 DIIS: error= 7.81D-06 at cycle   7 NSaved=   7.
 NSaved= 7 IEnMin= 7 EnMin= -113.317213686525     IErMin= 7 ErrMin= 7.81D-06
 ErrMax= 7.81D-06  0.00D+00 EMaxC= 1.00D-01 BMatC= 2.66D-09 BMatP= 7.39D-08
 IDIUse=1 WtCom= 1.00D+00 WtEn= 0.00D+00
 Coeff-Com:  0.190D-04 0.373D-03 0.822D-03-0.118D-02-0.207D-01-0.421D-01
 Coeff-Com:  0.106D+01
 Coeff:      0.190D-04 0.373D-03 0.822D-03-0.118D-02-0.207D-01-0.421D-01
 Coeff:      0.106D+01
 Gap=     0.518 Goal=   None    Shift=    0.000
 RMSDP=2.02D-06 MaxDP=5.01D-05 DE=-1.57D-07 OVMax= 3.84D-05

 Cycle   8  Pass 1  IDiag  1:
 E= -113.317213690258     Delta-E=       -0.000000003733 Rises=F Damp=F
 DIIS: error= 1.29D-06 at cycle   8 NSaved=   8.
 NSaved= 8 IEnMin= 8 EnMin= -113.317213690258     IErMin= 8 ErrMin= 1.29D-06
 ErrMax= 1.29D-06  0.00D+00 EMaxC= 1.00D-01 BMatC= 4.70D-11 BMatP= 2.66D-09
 IDIUse=1 WtCom= 1.00D+00 WtEn= 0.00D+00
 Coeff-Com:  0.254D-05 0.260D-05 0.413D-04 0.303D-03 0.109D-02-0.527D-02
 Coeff-Com: -0.134D+00 0.114D+01
 Coeff:      0.254D-05 0.260D-05 0.413D-04 0.303D-03 0.109D-02-0.527D-02
 Coeff:     -0.134D+00 0.114D+01
 Gap=     0.518 Goal=   None    Shift=    0.000
 RMSDP=2.70D-07 MaxDP=3.74D-06 DE=-3.73D-09 OVMax= 4.20D-06

 Cycle   9  Pass 1  IDiag  1:
 E= -113.317213690330     Delta-E=       -0.000000000072 Rises=F Damp=F
 DIIS: error= 1.53D-07 at cycle   9 NSaved=   9.
 NSaved= 9 IEnMin= 9 EnMin= -113.317213690330     IErMin= 9 ErrMin= 1.53D-07
 ErrMax= 1.53D-07  0.00D+00 EMaxC= 1.00D-01 BMatC= 1.16D-12 BMatP= 4.70D-11
 IDIUse=1 WtCom= 1.00D+00 WtEn= 0.00D+00
 Coeff-Com:  0.745D-07 0.300D-05-0.498D-05-0.326D-05 0.123D-05 0.963D-03
 Coeff-Com:  0.237D-02-0.118D+00 0.112D+01
 Coeff:      0.745D-07 0.300D-05-0.498D-05-0.326D-05 0.123D-05 0.963D-03
 Coeff:      0.237D-02-0.118D+00 0.112D+01
 Gap=     0.518 Goal=   None    Shift=    0.000
 RMSDP=4.26D-08 MaxDP=5.14D-07 DE=-7.17D-11 OVMax= 6.71D-07

 Cycle  10  Pass 1  IDiag  1:
 E= -113.317213690331     Delta-E=       -0.000000000002 Rises=F Damp=F
 DIIS: error= 2.50D-08 at cycle  10 NSaved=  10.
 NSaved=10 IEnMin=10 EnMin= -113.317213690331     IErMin=10 ErrMin= 2.50D-08
 ErrMax= 2.50D-08  0.00D+00 EMaxC= 1.00D-01 BMatC= 9.15D-15 BMatP= 1.16D-12
 IDIUse=1 WtCom= 1.00D+00 WtEn= 0.00D+00
 Coeff-Com: -0.559D-07-0.559D-06-0.146D-06-0.405D-05-0.257D-04 0.596D-04
 Coeff-Com:  0.143D-02-0.510D-02-0.122D+00 0.113D+01
 Coeff:     -0.559D-07-0.559D-06-0.146D-06-0.405D-05-0.257D-04 0.596D-04
 Coeff:      0.143D-02-0.510D-02-0.122D+00 0.113D+01
 Gap=     0.518 Goal=   None    Shift=    0.000
 RMSDP=7.44D-09 MaxDP=1.04D-07 DE=-1.53D-12 OVMax= 1.32D-07

 Error on total polarization charges =  0.00423
 SCF Done:  E(RwB97XD) =  -113.317213690     A.U. after   10 cycles
            NFock= 10  Conv=0.74D-08     -V/T= 2.0035
 KE= 1.129167596968D+02 PE=-3.115327754977D+02 EE= 6.266988589592D+01
 SMD-CDS (non-electrostatic) energy       (kcal/mol) =       3.04
 (included in total energy above)
 Leave Link  502 at Thu Jul 20 11:10:56 2023, MaxMem=  2952790016 cpu:              43.2 elap:               3.7
 (Enter /mnt/data/applications/G16/g16/l601.exe)
 Copying SCF densities to generalized density rwf, IOpCl= 0 IROHF=0.

 **********************************************************************

            Population analysis using the SCF density.

 **********************************************************************

 Orbital symmetries:
       Occupied  (SG) (SG) (SG) (SG) (PI) (PI) (SG)
       Virtual   (PI) (PI) (SG) (SG) (PI) (PI) (SG) (PI) (PI) (SG)
                 (DLTA) (DLTA) (SG) (PI) (PI) (SG) (SG) (PI) (PI)
                 (SG) (DLTA) (DLTA) (PI) (PI) (SG) (PI) (PI) (PHI)
                 (PHI) (DLTA) (DLTA) (SG) (DLTA) (DLTA) (PI) (PI)
                 (SG) (PI) (PI) (SG) (SG) (PHI) (PHI) (DLTA) (DLTA)
                 (PI) (PI) (DLTA) (DLTA) (SG) (PI) (PI) (SG) (SG)
                 (SG)
 The electronic state is 1-SG.
 Alpha  occ. eigenvalues --  -19.35577 -10.40163  -1.27051  -0.67073  -0.56828
 Alpha  occ. eigenvalues --   -0.56828  -0.46809
 Alpha virt. eigenvalues --    0.04985   0.04985   0.19870   0.26251   0.30087
 Alpha virt. eigenvalues --    0.30087   0.45628   0.57099   0.57099   0.66510
 Alpha virt. eigenvalues --    0.71537   0.71538   0.77800   0.93503   0.93503
 Alpha virt. eigenvalues --    1.26770   1.36214   1.45869   1.45869   1.47983
 Alpha virt. eigenvalues --    1.58696   1.58696   1.97424   1.97424   2.26526
 Alpha virt. eigenvalues --    2.67446   2.67446   2.71866   2.71866   2.89487
 Alpha virt. eigenvalues --    2.89487   2.94041   3.01429   3.01430   3.07107
 Alpha virt. eigenvalues --    3.07107   3.16312   3.72346   3.72346   3.90813
 Alpha virt. eigenvalues --    4.28222   5.16332   5.16332   5.56982   5.56982
 Alpha virt. eigenvalues --    6.28060   6.28060   6.31271   6.31271   6.57586
 Alpha virt. eigenvalues --    6.74840   6.74840   7.12634  21.93258  43.57907
          Condensed to atoms (all electrons):
               1          2
     1  C    5.385493   0.597544
     2  O    0.597544   7.419420
 Mulliken charges:
               1
     1  C    0.016964
     2  O   -0.016964
 Sum of Mulliken charges =  -0.00000
 Mulliken charges with hydrogens summed into heavy atoms:
               1
     1  C    0.016964
     2  O   -0.016964
 Electronic spatial extent (au):  <R**2>=             39.6409
 Charge=             -0.0000 electrons
 Dipole moment (field-independent basis, Debye):
    X=              0.0000    Y=              0.0000    Z=              0.1327  Tot=              0.1327
 Quadrupole moment (field-independent basis, Debye-Ang):
   XX=            -10.1572   YY=            -10.1572   ZZ=            -12.2458
   XY=              0.0000   XZ=              0.0000   YZ=              0.0000
 Traceless Quadrupole moment (field-independent basis, Debye-Ang):
   XX=              0.6962   YY=              0.6962   ZZ=             -1.3924
   XY=              0.0000   XZ=              0.0000   YZ=              0.0000
 Octapole moment (field-independent basis, Debye-Ang**2):
  XXX=              0.0000  YYY=              0.0000  ZZZ=              6.3716  XYY=              0.0000
  XXY=              0.0000  XXZ=              1.2613  XZZ=              0.0000  YZZ=              0.0000
  YYZ=              1.2613  XYZ=              0.0000
 Hexadecapole moment (field-independent basis, Debye-Ang**3):
 XXXX=             -9.0841 YYYY=             -9.0841 ZZZZ=            -36.6248 XXXY=              0.0000
 XXXZ=              0.0000 YYYX=              0.0000 YYYZ=              0.0000 ZZZX=              0.0000
 ZZZY=              0.0000 XXYY=             -3.0280 XXZZ=             -7.0389 YYZZ=             -7.0389
 XXYZ=              0.0000 YYXZ=              0.0000 ZZXY=              0.0000
 N-N= 2.262891621459D+01 E-N=-3.115327752587D+02  KE= 1.129167596968D+02
 Symmetry A1   KE= 1.046981747288D+02
 Symmetry A2   KE= 1.507039425510D-51
 Symmetry B1   KE= 4.109292484022D+00
 Symmetry B2   KE= 4.109292484022D+00
 No NMR shielding tensors so no spin-rotation constants.
 Leave Link  601 at Thu Jul 20 11:10:56 2023, MaxMem=  2952790016 cpu:               2.2 elap:               0.2
 (Enter /mnt/data/applications/G16/g16/l701.exe)
 ... and contract with generalized density number  0.
 Compute integral first derivatives.
 R6Disp: Adding Grimme-D2 dispersion energy 1st derivatives to the gradient.
   4 Symmetry operations used in ECPInt.
 ECPInt:  NShTT=     253 NPrTT=     864 LenC2=     254 LenP2D=     811.
 LDataN:  DoStor=T MaxTD1= 7 Len=  274
 D1PCM: PCM CHGder 1st derivatives, ID1Alg=3 FixD1E=F DoIter=F DoCFld=F I1PDM=0.
 GePol: Maximum number of non-zero 1st derivatives   =     429
 Leave Link  701 at Thu Jul 20 11:10:57 2023, MaxMem=  2952790016 cpu:              11.8 elap:               1.0
 (Enter /mnt/data/applications/G16/g16/l702.exe)
 L702 exits ... SP integral derivatives will be done elsewhere.
 Leave Link  702 at Thu Jul 20 11:10:57 2023, MaxMem=  2952790016 cpu:               0.2 elap:               0.0
 (Enter /mnt/data/applications/G16/g16/l703.exe)
 Integral derivatives from FoFJK, PRISM(SPDF).
 Compute integral first derivatives, UseDBF=F ICtDFT=           0.
 Calling FoFJK, ICntrl=      2127 FMM=F ISym2X=1 I1Cent= 0 IOpClX= 0 NMat=1 NMatS=1 NMatT=0.
 FoFJK:  IHMeth= 1 ICntrl=    2127 DoSepK=T KAlg= 0 I1Cent=           0 FoldK=F
 IRaf=         1 NMat=       1 IRICut=       1 DoRegI=T DoRafI=F ISym2E= 1 IDoP0=0 IntGTp=1.
 FoFCou: FMM=F IPFlag=           0 FMFlag=      100000 FMFlg1=         800
         NFxFlg=           0 DoJE=F BraDBF=F KetDBF=F FulRan=T
         wScrn=  0.000000 ICntrl=      2527 IOpCl=  0 I1Cent=           0 NGrid=           0
         NMat0=    1 NMatS0=      1 NMatT0=    0 NMatD0=    1 NMtDS0=    0 NMtDT0=    0
 Petite list used in FoFCou.
 Leave Link  703 at Thu Jul 20 11:10:59 2023, MaxMem=  2952790016 cpu:              16.3 elap:               1.4
 (Enter /mnt/data/applications/G16/g16/l716.exe)
 Dipole        = 0.00000000D+00 0.00000000D+00 5.22051428D-02
 ***** Axes restored to original set *****
 -------------------------------------------------------------------
 Center     Atomic                   Forces (Hartrees/Bohr)
 Number     Number              X              Y              Z
 -------------------------------------------------------------------
      1        6           0.000000000    0.000000000   -0.000000401
      2        8           0.000000000    0.000000000    0.000000401
 -------------------------------------------------------------------
 Cartesian Forces:  Max     0.000000401 RMS     0.000000231
 Leave Link  716 at Thu Jul 20 11:10:59 2023, MaxMem=  2952790016 cpu:               0.3 elap:               0.0
 (Enter /mnt/data/applications/G16/g16/l103.exe)

 GradGradGradGradGradGradGradGradGradGradGradGradGradGradGradGradGradGrad
 Berny optimization.
 FormGI is forming the generalized inverse of G from B-inverse, IUseBI=4.
 Internal  Forces:  Max     0.000000401 RMS     0.000000401
 Search for a local minimum.
 Step number   1 out of a maximum of   20
 All quantities printed in internal units (Hartrees-Bohrs-Radians)
 RMS Force = .40079D-06 SwitMx=.10000D-02 MixMth= 2
 Mixed Optimization -- En-DIIS/RFO-DIIS
 Second derivative matrix not updated -- first step.
 The second derivative matrix:
                          R1
           R1           1.55659
 ITU=  0
     Eigenvalues ---    1.55659
 RFO step:  Lambda=-1.03139719D-13 EMin= 1.55658775D+00
 Linear search not attempted -- first point.
 Iteration  1 RMS(Cart)=  0.00000018 RMS(Int)=  0.00000000
 ITry= 1 IFail=0 DXMaxC= 1.29D-07 DCOld= 1.00D+10 DXMaxT= 5.00D-02 DXLimC= 3.00D+00 Rises=F
 ClnCor:  largest displacement from symmetrization is 0.00D+00 for atom     0.
 Variable       Old X    -DE/DX   Delta X   Delta X   Delta X     New X
                                 (Linear)    (Quad)   (Total)
    R1        2.12163   0.00000   0.00000   0.00000   0.00000   2.12163
         Item               Value     Threshold  Converged?
 Maximum Force            0.000000     0.000450     YES
 RMS     Force            0.000000     0.000300     YES
 Maximum Displacement     0.000000     0.001800     YES
 RMS     Displacement     0.000000     0.001200     YES
 Predicted change in Energy=-5.159799D-14
 Optimization completed.
    -- Stationary point found.
                           ----------------------------
                           !   Optimized Parameters   !
                           ! (Angstroms and Degrees)  !
 --------------------------                            --------------------------
 ! Name  Definition              Value          Derivative Info.                !
 --------------------------------------------------------------------------------
 ! R1    R(1,2)                  1.1227         -DE/DX =    0.0                 !
 --------------------------------------------------------------------------------
 Lowest energy point so far.  Saving SCF results.
 Largest change from initial coordinates is atom    0       0.000 Angstoms.
 GradGradGradGradGradGradGradGradGradGradGradGradGradGradGradGradGradGrad

 Leave Link  103 at Thu Jul 20 11:10:59 2023, MaxMem=  2952790016 cpu:               0.1 elap:               0.0
 (Enter /mnt/data/applications/G16/g16/l202.exe)
                          Input orientation:                          
 ---------------------------------------------------------------------
 Center     Atomic      Atomic             Coordinates (Angstroms)
 Number     Number       Type             X           Y           Z
 ---------------------------------------------------------------------
      1          6           0        0.000000    0.000000   -0.641554
      2          8           0        0.000000    0.000000    0.481166
 ---------------------------------------------------------------------
 Stoichiometry    CO
 Framework group  C*V[C*(CO)]
 Deg. of freedom     1
 Full point group                 C*V     NOp   4
 RotChk:  IX=0 Diff= 0.00D+00
 Largest Abelian subgroup         C2V     NOp   4
 Largest concise Abelian subgroup C1      NOp   1
                         Standard orientation:                         
 ---------------------------------------------------------------------
 Center     Atomic      Atomic             Coordinates (Angstroms)
 Number     Number       Type             X           Y           Z
 ---------------------------------------------------------------------
      1          6           0        0.000000    0.000000   -0.641554
      2          8           0        0.000000    0.000000    0.481166
 ---------------------------------------------------------------------
 Rotational constants (GHZ):           0.0000000          58.4776964          58.4776964
 Leave Link  202 at Thu Jul 20 11:10:59 2023, MaxMem=  2952790016 cpu:               0.1 elap:               0.0
 (Enter /mnt/data/applications/G16/g16/l9999.exe)
 1\1\GINC-KIMIK2152\FOpt\RwB97XD\Gen\C1O1\DGARAY\20-Jul-2023\0\\#p opt=
 (maxstep=5) freq pseudo=read WB97XD gen scrf(smd,solvent=toluene)\\Aut
 o-generated job for CO\\0,1\C,0.,0.,-0.641554\O,0.,0.,0.481166\\Versio
 n=AM64L-G16RevA.03\State=1-SG\HF=-113.3172137\RMSD=7.436e-09\RMSF=2.31
 4e-07\Dipole=0.,0.,0.0522051\Quadrupole=0.5176047,0.5176047,-1.0352093
 ,0.,0.,0.\PG=C*V [C*(C1O1)]\\@


 THERE IS NOTHING NOBLE IN BEING SUPERIOR TO SOME OTHER MAN.
 TRUE NOBILITY IS BEING SUPERIOR TO YOUR FORMER SELF.

                                                   -- HINDU PROVERB
 Leave Link 9999 at Thu Jul 20 11:10:59 2023, MaxMem=  2952790016 cpu:               0.3 elap:               0.0
 Job cpu time:       0 days  0 hours  1 minutes 28.0 seconds.
 Elapsed time:       0 days  0 hours  0 minutes  7.7 seconds.
 File lengths (MBytes):  RWF=     11 Int=      0 D2E=      0 Chk=      2 Scr=      1
 Normal termination of Gaussian 16 at Thu Jul 20 11:10:59 2023.
 (Enter /mnt/data/applications/G16/g16/l1.exe)
 Link1:  Proceeding to internal job step number  2.
 -------------------------------------------------------------------
 #P Geom=AllCheck Guess=TCheck SCRF=Check GenChk RwB97XD/ChkBas Freq
 -------------------------------------------------------------------
 1/8=5,10=4,29=7,30=1,38=1,40=1/1,3;
 2/12=2,40=1/2;
 3/5=7,6=2,11=2,14=-4,16=1,17=8,25=1,30=1,67=1,70=2,71=2,74=-58,82=7,116=1,140=1/1,2,3;
 4/5=101/1;
 5/5=2,38=6,98=1/2;
 8/6=4,10=90,11=11/1;
 11/6=1,8=1,9=11,15=111,16=1/1,2,10;
 10/6=1/2;
 6/7=2,8=2,9=2,10=2,28=1/1;
 7/8=1,10=1,25=1/1,2,3,16;
 1/8=5,10=4,30=1/3;
 99//99;
 Leave Link    1 at Thu Jul 20 11:10:59 2023, MaxMem=  2952790016 cpu:               0.6 elap:               0.0
 (Enter /mnt/data/applications/G16/g16/l101.exe)
 Structure from the checkpoint file:  "CO.chk"
 -------------------------
 Auto-generated job for CO
 -------------------------
 Charge =  0 Multiplicity = 1
 Redundant internal coordinates found in file.  (old form).
 C,0,0.,0.,-0.641554
 O,0,0.,0.,0.481166
 Recover connectivity data from disk.
 ITRead=  0  0
 MicOpt= -1 -1
 NAtoms=      2 NQM=        2 NQMF=       0 NMMI=      0 NMMIF=      0
                NMic=       0 NMicF=      0.
                    Isotopes and Nuclear Properties:
 (Nuclear quadrupole moments (NQMom) in fm**2, nuclear magnetic moments (NMagM)
  in nuclear magnetons)

  Atom         1           2
 IAtWgt=          12          16
 AtmWgt=  12.0000000  15.9949146
 NucSpn=           0           0
 AtZEff=   3.6000000   5.6000000
 NQMom=    0.0000000   0.0000000
 NMagM=    0.0000000   0.0000000
 AtZNuc=   6.0000000   8.0000000
 Leave Link  101 at Thu Jul 20 11:10:59 2023, MaxMem=  2952790016 cpu:               4.4 elap:               0.4
 (Enter /mnt/data/applications/G16/g16/l103.exe)

 GradGradGradGradGradGradGradGradGradGradGradGradGradGradGradGradGradGrad
 Berny optimization.
 Initialization pass.
                           ----------------------------
                           !    Initial Parameters    !
                           ! (Angstroms and Degrees)  !
 --------------------------                            --------------------------
 ! Name  Definition              Value          Derivative Info.                !
 --------------------------------------------------------------------------------
 ! R1    R(1,2)                  1.1227         calculate D2E/DX2 analytically  !
 --------------------------------------------------------------------------------
 Trust Radius=5.00D-02 FncErr=1.00D-07 GrdErr=1.00D-07 EigMax=2.50D+02 EigMin=1.00D-04
 Number of steps in this run=      2 maximum allowed number of steps=      2.
 GradGradGradGradGradGradGradGradGradGradGradGradGradGradGradGradGradGrad

 Leave Link  103 at Thu Jul 20 11:10:59 2023, MaxMem=  2952790016 cpu:               0.1 elap:               0.0
 (Enter /mnt/data/applications/G16/g16/l202.exe)
                          Input orientation:                          
 ---------------------------------------------------------------------
 Center     Atomic      Atomic             Coordinates (Angstroms)
 Number     Number       Type             X           Y           Z
 ---------------------------------------------------------------------
      1          6           0        0.000000    0.000000   -0.641554
      2          8           0        0.000000    0.000000    0.481166
 ---------------------------------------------------------------------
 Stoichiometry    CO
 Framework group  C*V[C*(CO)]
 Deg. of freedom     1
 Full point group                 C*V     NOp   4
 RotChk:  IX=0 Diff= 0.00D+00
 Largest Abelian subgroup         C2V     NOp   4
 Largest concise Abelian subgroup C1      NOp   1
                         Standard orientation:                         
 ---------------------------------------------------------------------
 Center     Atomic      Atomic             Coordinates (Angstroms)
 Number     Number       Type             X           Y           Z
 ---------------------------------------------------------------------
      1          6           0        0.000000    0.000000   -0.641554
      2          8           0        0.000000    0.000000    0.481166
 ---------------------------------------------------------------------
 Rotational constants (GHZ):           0.0000000          58.4776964          58.4776964
 Leave Link  202 at Thu Jul 20 11:10:59 2023, MaxMem=  2952790016 cpu:               0.1 elap:               0.0
 (Enter /mnt/data/applications/G16/g16/l301.exe)
 Basis read from chk: "CO.chk" (5D, 7F)
 Pseudo-potential data read from chk file.
 There are    34 symmetry adapted cartesian basis functions of A1  symmetry.
 There are     6 symmetry adapted cartesian basis functions of A2  symmetry.
 There are    16 symmetry adapted cartesian basis functions of B1  symmetry.
 There are    16 symmetry adapted cartesian basis functions of B2  symmetry.
 There are    28 symmetry adapted basis functions of A1  symmetry.
 There are     6 symmetry adapted basis functions of A2  symmetry.
 There are    14 symmetry adapted basis functions of B1  symmetry.
 There are    14 symmetry adapted basis functions of B2  symmetry.
    62 basis functions,   102 primitive gaussians,    72 cartesian basis functions
     7 alpha electrons        7 beta electrons
       nuclear repulsion energy        22.6240791330 Hartrees.
 IExCor= 4639 DFT=T Ex+Corr=wB97XD ExCW=0 ScaHFX=  1.000000
 ScaDFX=  1.000000  1.000000  1.000000  1.000000 ScalE2=  1.000000  1.000000
 IRadAn=      5 IRanWt=     -1 IRanGd=            0 ICorTp=0 IEmpDi=121
 HFx  wShort=  0.000000 wLong=  0.200000 cFull=  0.222036 cShort=  0.000000 cLong=  0.777964
 DFx  wShort=  0.000000 wLong=  0.200000 cFull=  0.000000 cShort=  0.000000 cLong=  1.000000
 NAtoms=    2 NActive=    2 NUniq=    2 SFac= 1.00D+00 NAtFMM=   60 NAOKFM=F Big=F
 Integral buffers will be    131072 words long.
 Raffenetti 2 integral format.
 Two-electron integral symmetry is turned on.
 R6Disp:  Grimme-D2 Dispersion energy=       -0.0000006217 Hartrees.
 Nuclear repulsion after empirical dispersion term =       22.6240785112 Hartrees.
 No density basis found on file 20724.
 Force inversion solution in PCM.
 ------------------------------------------------------------------------------
 Polarizable Continuum Model (PCM)
 =================================
 Model                : PCM.
 Atomic radii         : SMD-Coulomb.
 Polarization charges : Total charges.
 Charge compensation  : None.
 Solution method      : Matrix inversion.
 Cavity type          : VdW (van der Waals Surface) (Alpha=1.000).
 Cavity algorithm     : GePol (No added spheres)
                        Default sphere list used, NSphG=    2.
                        Lebedev-Laikov grids with approx.  5.0 points / Ang**2.
                        Smoothing algorithm: York/Karplus (Gamma=1.0000).
                        Polarization charges: spherical gaussians, with
                                              point-specific exponents (IZeta= 3).
                        Self-potential: point-specific (ISelfS= 7).
                        Self-field    : sphere-specific E.n sum rule (ISelfD= 2).
 1st derivatives      : Analytical E(r).r(x)/FMM algorithm (CHGder, D1EAlg=3).
                        Cavity 1st derivative terms included.
 2nd derivatives      : Analytical E(r).r(xy)/FMM algorithm (CHGder, D2EAlg=3).
                        Cavity 2nd derivative terms included.
 Solvent              : Toluene, Eps=   2.374100 Eps(inf)=   2.238315
 ------------------------------------------------------------------------------
 Spheres list:
 ISph  on   Nord     Re0    Alpha      Xe            Ye            Ze
    1   C      1    1.8500  1.000      0.000000      0.000000     -0.641554
    2   O      2    2.2940  1.000      0.000000      0.000000      0.481166
 ------------------------------------------------------------------------------
 GePol: Number of generator spheres                  =       2
 GePol: Total number of spheres                      =       2
 GePol: Number of exposed spheres                    =       2 (100.00%)
 GePol: Number of points                             =     530
 GePol: Average weight of points                     =       0.13
 GePol: Minimum weight of points                     =   0.17D-05
 GePol: Maximum weight of points                     =    0.16851
 GePol: Number of points with low weight             =      28
 GePol: Fraction of low-weight points (<1% of avg)   =       5.28%
 GePol: Cavity surface area                          =     71.522 Ang**2
 GePol: Cavity volume                                =     55.881 Ang**3
 ------------------------------------------------------------------------------
 Atomic radii for non-electrostatic terms: SMD-CDS.
 ------------------------------------------------------------------------------
 PCM non-electrostatic energy =         0.0048377034 Hartrees.
 Nuclear repulsion after PCM non-electrostatic terms =       22.6289162146 Hartrees.
 Leave Link  301 at Thu Jul 20 11:11:00 2023, MaxMem=  2952790016 cpu:               1.3 elap:               0.1
 (Enter /mnt/data/applications/G16/g16/l302.exe)
 NPDir=0 NMtPBC=     1 NCelOv=     1 NCel=       1 NClECP=     1 NCelD=      1
         NCelK=      1 NCelE2=     1 NClLst=     1 CellRange=     0.0.
 One-electron integrals computed using PRISM.
 One-electron integral symmetry used in STVInt
   4 Symmetry operations used in ECPInt.
 ECPInt:  NShTT=     253 NPrTT=     864 LenC2=     254 LenP2D=     811.
 LDataN:  DoStor=T MaxTD1= 6 Len=  172
 NBasis=    62 RedAO= T EigKep=  1.17D-03  NBF=    28     6    14    14
 NBsUse=    62 1.00D-06 EigRej= -1.00D+00 NBFU=    28     6    14    14
 Precomputing XC quadrature grid using
 IXCGrd= 4 IRadAn=           5 IRanWt=          -1 IRanGd=           0 AccXCQ= 0.00D+00.
 Generated NRdTot=       0 NPtTot=           0 NUsed=           0 NTot=          32
 NSgBfM=    72    72    72    72    72 MxSgAt=     2 MxSgA2=     2.
 Leave Link  302 at Thu Jul 20 11:11:00 2023, MaxMem=  2952790016 cpu:               2.5 elap:               0.2
 (Enter /mnt/data/applications/G16/g16/l303.exe)
 DipDrv:  MaxL=1.
 Leave Link  303 at Thu Jul 20 11:11:00 2023, MaxMem=  2952790016 cpu:               0.3 elap:               0.0
 (Enter /mnt/data/applications/G16/g16/l401.exe)
 Initial guess from the checkpoint file:  "CO.chk"
 B after Tr=     0.000000    0.000000    0.000000
         Rot=    1.000000    0.000000    0.000000    0.000000 Ang=   0.00 deg.
 Guess basis will be translated and rotated to current coordinates.
 JPrj=2 DoOrth=T DoCkMO=T.
 Initial guess orbital symmetries:
       Occupied  (SG) (SG) (SG) (SG) (PI) (PI) (SG)
       Virtual   (PI) (PI) (SG) (SG) (PI) (PI) (SG) (PI) (PI) (SG)
                 (DLTA) (DLTA) (SG) (PI) (PI) (SG) (SG) (PI) (PI)
                 (SG) (DLTA) (DLTA) (PI) (PI) (SG) (PI) (PI) (PHI)
                 (PHI) (DLTA) (DLTA) (SG) (DLTA) (DLTA) (PI) (PI)
                 (SG) (PI) (PI) (SG) (SG) (PHI) (PHI) (DLTA) (DLTA)
                 (PI) (PI) (DLTA) (DLTA) (SG) (PI) (PI) (SG) (SG)
                 (SG)
 The electronic state of the initial guess is 1-SG.
 Leave Link  401 at Thu Jul 20 11:11:00 2023, MaxMem=  2952790016 cpu:               1.2 elap:               0.1
 (Enter /mnt/data/applications/G16/g16/l502.exe)
 Keep R1 ints in memory in symmetry-blocked form, NReq=14576156.
 FoFCou: FMM=F IPFlag=           0 FMFlag=           0 FMFlg1=           0
         NFxFlg=           0 DoJE=F BraDBF=F KetDBF=F FulRan=T
         wScrn=  0.000000 ICntrl=       600 IOpCl=  0 I1Cent=           0 NGrid=           0
         NMat0=    1 NMatS0=   1953 NMatT0=    0 NMatD0=    1 NMtDS0=    0 NMtDT0=    0
 Petite list used in FoFCou.
 Closed shell SCF:
 Using DIIS extrapolation, IDIIS=  1040.
 NGot=  2952790016 LenX=  2952274805 LenY=  2952269180
 Requested convergence on RMS density matrix=1.00D-08 within 128 cycles.
 Requested convergence on MAX density matrix=1.00D-06.
 Requested convergence on             energy=1.00D-06.
 No special actions if energy rises.

 Cycle   1  Pass 1  IDiag  1:
 Inv3:  Mode=1 IEnd=      842700.
 Iteration    1 A*A^-1 deviation from unit magnitude is 1.55D-15 for    480.
 Iteration    1 A*A^-1 deviation from orthogonality  is 6.31D-16 for    248    114.
 Iteration    1 A^-1*A deviation from unit magnitude is 1.55D-15 for    373.
 Iteration    1 A^-1*A deviation from orthogonality  is 1.08D-15 for    422     47.
 E= -113.317213690331    
 DIIS: error= 2.74D-09 at cycle   1 NSaved=   1.
 NSaved= 1 IEnMin= 1 EnMin= -113.317213690331     IErMin= 1 ErrMin= 2.74D-09
 ErrMax= 2.74D-09  0.00D+00 EMaxC= 1.00D-01 BMatC= 3.23D-16 BMatP= 3.23D-16
 IDIUse=1 WtCom= 1.00D+00 WtEn= 0.00D+00
 Coeff-Com:  0.100D+01
 Coeff:      0.100D+01
 Gap=     0.518 Goal=   None    Shift=    0.000
 RMSDP=1.06D-09 MaxDP=1.81D-08              OVMax= 1.76D-08

 Error on total polarization charges =  0.00423
 SCF Done:  E(RwB97XD) =  -113.317213690     A.U. after    1 cycles
            NFock=  1  Conv=0.11D-08     -V/T= 2.0035
 KE= 1.129167597708D+02 PE=-3.115327753326D+02 EE= 6.266988565689D+01
 SMD-CDS (non-electrostatic) energy       (kcal/mol) =       3.04
 (included in total energy above)
 Leave Link  502 at Thu Jul 20 11:11:02 2023, MaxMem=  2952790016 cpu:              24.3 elap:               2.1
 (Enter /mnt/data/applications/G16/g16/l801.exe)
 DoSCS=F DFT=T ScalE2(SS,OS)=  1.000000  1.000000
 Range of M.O.s used for correlation:     1    62
 NBasis=    62 NAE=     7 NBE=     7 NFC=     0 NFV=     0
 NROrb=     62 NOA=     7 NOB=     7 NVA=    55 NVB=    55

 **** Warning!!: The largest alpha MO coefficient is  0.10372174D+02

 Leave Link  801 at Thu Jul 20 11:11:02 2023, MaxMem=  2952790016 cpu:               0.2 elap:               0.0
 (Enter /mnt/data/applications/G16/g16/l1101.exe)
 Using compressed storage, NAtomX=     2.
 Will process      3 centers per pass.
   4 Symmetry operations used in ECPInt.
 ECPInt:  NShTT=     253 NPrTT=     864 LenC2=     254 LenP2D=     811.
 LDataN:  DoStor=T MaxTD1= 7 Len=  274
 R6Disp: Adding Grimme-D2 dispersion energy 1st derivatives to the gradient.
 Leave Link 1101 at Thu Jul 20 11:11:02 2023, MaxMem=  2952790016 cpu:               2.8 elap:               0.2
 (Enter /mnt/data/applications/G16/g16/l1102.exe)
 Symmetrizing basis deriv contribution to polar:
 IMax=3 JMax=2 DiffMx= 0.00D+00
 Leave Link 1102 at Thu Jul 20 11:11:02 2023, MaxMem=  2952790016 cpu:               0.3 elap:               0.0
 (Enter /mnt/data/applications/G16/g16/l1110.exe)
 Forming Gx(P) for the SCF density, NAtomX=     2.
 Integral derivatives from FoFJK, PRISM(SPDF).
 Do as many integral derivatives as possible in FoFJK.
 G2DrvN: MDV=    2952789748.
 G2DrvN: will do     3 centers at a time, making    1 passes.
 Calling FoFCou, ICntrl=  3107 FMM=F I1Cent=   0 AccDes= 0.00D+00.
 FoFJK:  IHMeth= 1 ICntrl=    3107 DoSepK=T KAlg= 0 I1Cent=           0 FoldK=F
 IRaf=         1 NMat=       1 IRICut=       1 DoRegI=T DoRafI=F ISym2E= 1 IDoP0=0 IntGTp=1.
 FoFCou: FMM=F IPFlag=           0 FMFlag=      100000 FMFlg1=           0
         NFxFlg=           0 DoJE=F BraDBF=F KetDBF=F FulRan=T
         wScrn=  0.000000 ICntrl=      3507 IOpCl=  0 I1Cent=           0 NGrid=           0
         NMat0=    1 NMatS0=      1 NMatT0=    0 NMatD0=    1 NMtDS0=    0 NMtDT0=    0
 Petite list used in FoFCou.
 NEqPCM:  Using equilibrium solvation (IEInf=0, Eps=   2.3741, EpsInf=   2.2383)
 G2PCM: DoFxE=T DoFxN=T DoGrad=T DoDP/DQ/DG/TGxP=FFFF NFrqRd=   0 IEInf=0 SqF1=F DoCFld=F IF1Alg=4.
 GePol: Maximum number of non-zero 1st derivatives   =     429
 End of G2Drv F.D. properties file   721 does not exist.
 End of G2Drv F.D. properties file   722 does not exist.
 End of G2Drv F.D. properties file   788 does not exist.
 Leave Link 1110 at Thu Jul 20 11:11:07 2023, MaxMem=  2952790016 cpu:              55.1 elap:               4.6
 (Enter /mnt/data/applications/G16/g16/l1002.exe)
 Minotr:  Closed shell wavefunction.
          IDoAtm=11
 NEqPCM:  Using equilibrium solvation (IEInf=0, Eps=   2.3741, EpsInf=   2.2383)
          Direct CPHF calculation.
          Differentiating once with respect to electric field.
                with respect to dipole field.
          Differentiating once with respect to nuclear coordinates.
          Using symmetry in CPHF.
          Requested convergence is 1.0D-08 RMS, and 1.0D-07 maximum.
          Secondary convergence is 1.0D-12 RMS, and 1.0D-12 maximum.
          NewPWx=T KeepS1=F KeepF1=F KeepIn=T MapXYZ=F SortEE=F KeepMc=T.
          583 words used for storage of precomputed grid.
 Keep R1 ints in memory in symmetry-blocked form, NReq=14536205.
 FoFCou: FMM=F IPFlag=           0 FMFlag=           0 FMFlg1=           0
         NFxFlg=           0 DoJE=F BraDBF=F KetDBF=F FulRan=T
         wScrn=  0.000000 ICntrl=       600 IOpCl=  0 I1Cent=           0 NGrid=           0
         NMat0=    1 NMatS0=   1953 NMatT0=    0 NMatD0=    1 NMtDS0=    0 NMtDT0=    0
 Petite list used in FoFCou.
          MDV=    2952790016 using IRadAn=       1.
          Solving linear equations simultaneously, MaxMat=       0.
          There are     9 degrees of freedom in the 1st order CPHF.  IDoFFX=6 NUNeed=     3.
      6 vectors produced by pass  0 Test12= 4.28D-15 1.11D-08 XBig12= 6.35D+00 1.49D+00.
 AX will form     6 AO Fock derivatives at one time.
      6 vectors produced by pass  1 Test12= 4.28D-15 1.11D-08 XBig12= 2.96D+00 1.02D+00.
      6 vectors produced by pass  2 Test12= 4.28D-15 1.11D-08 XBig12= 6.06D-02 1.03D-01.
      6 vectors produced by pass  3 Test12= 4.28D-15 1.11D-08 XBig12= 4.71D-04 8.92D-03.
      6 vectors produced by pass  4 Test12= 4.28D-15 1.11D-08 XBig12= 1.07D-05 1.08D-03.
      6 vectors produced by pass  5 Test12= 4.28D-15 1.11D-08 XBig12= 2.18D-07 2.12D-04.
      6 vectors produced by pass  6 Test12= 4.28D-15 1.11D-08 XBig12= 2.91D-09 2.27D-05.
      3 vectors produced by pass  7 Test12= 4.28D-15 1.11D-08 XBig12= 1.40D-11 1.32D-06.
      1 vectors produced by pass  8 Test12= 4.28D-15 1.11D-08 XBig12= 5.38D-14 8.35D-08.
 InvSVY:  IOpt=1 It=  1 EMax= 2.22D-16
 Solved reduced A of dimension    46 with     6 vectors.
 FullF1:  Do perturbations      1 to       3.
 Isotropic polarizability for W=    0.000000       12.84 Bohr**3.
 End of Minotr F.D. properties file   721 does not exist.
 End of Minotr F.D. properties file   722 does not exist.
 End of Minotr F.D. properties file   788 does not exist.
 Leave Link 1002 at Thu Jul 20 11:11:10 2023, MaxMem=  2952790016 cpu:              36.6 elap:               3.1
 (Enter /mnt/data/applications/G16/g16/l601.exe)
 Copying SCF densities to generalized density rwf, IOpCl= 0 IROHF=0.

 **********************************************************************

            Population analysis using the SCF density.

 **********************************************************************

 Orbital symmetries:
       Occupied  (SG) (SG) (SG) (SG) (PI) (PI) (SG)
       Virtual   (PI) (PI) (SG) (SG) (PI) (PI) (SG) (PI) (PI) (SG)
                 (DLTA) (DLTA) (SG) (PI) (PI) (SG) (SG) (PI) (PI)
                 (SG) (DLTA) (DLTA) (PI) (PI) (SG) (PI) (PI) (PHI)
                 (PHI) (DLTA) (DLTA) (SG) (DLTA) (DLTA) (PI) (PI)
                 (SG) (PI) (PI) (SG) (SG) (PHI) (PHI) (DLTA) (DLTA)
                 (PI) (PI) (DLTA) (DLTA) (SG) (PI) (PI) (SG) (SG)
                 (SG)
 The electronic state is 1-SG.
 Alpha  occ. eigenvalues --  -19.35577 -10.40163  -1.27051  -0.67073  -0.56828
 Alpha  occ. eigenvalues --   -0.56828  -0.46809
 Alpha virt. eigenvalues --    0.04985   0.04985   0.19870   0.26251   0.30087
 Alpha virt. eigenvalues --    0.30087   0.45628   0.57099   0.57099   0.66510
 Alpha virt. eigenvalues --    0.71537   0.71538   0.77800   0.93503   0.93503
 Alpha virt. eigenvalues --    1.26770   1.36214   1.45869   1.45869   1.47983
 Alpha virt. eigenvalues --    1.58696   1.58696   1.97424   1.97424   2.26526
 Alpha virt. eigenvalues --    2.67446   2.67446   2.71866   2.71866   2.89487
 Alpha virt. eigenvalues --    2.89487   2.94041   3.01429   3.01430   3.07107
 Alpha virt. eigenvalues --    3.07107   3.16312   3.72346   3.72346   3.90813
 Alpha virt. eigenvalues --    4.28222   5.16332   5.16332   5.56982   5.56982
 Alpha virt. eigenvalues --    6.28060   6.28060   6.31271   6.31271   6.57586
 Alpha virt. eigenvalues --    6.74840   6.74840   7.12634  21.93258  43.57907
          Condensed to atoms (all electrons):
               1          2
     1  C    5.385493   0.597544
     2  O    0.597544   7.419420
 Mulliken charges:
               1
     1  C    0.016964
     2  O   -0.016964
 Sum of Mulliken charges =  -0.00000
 Mulliken charges with hydrogens summed into heavy atoms:
               1
     1  C    0.016964
     2  O   -0.016964
 APT charges:
               1
     1  C    0.262266
     2  O   -0.262266
 Sum of APT charges =  -0.00000
 APT charges with hydrogens summed into heavy atoms:
               1
     1  C    0.262266
     2  O   -0.262266
 Electronic spatial extent (au):  <R**2>=             39.6409
 Charge=             -0.0000 electrons
 Dipole moment (field-independent basis, Debye):
    X=              0.0000    Y=              0.0000    Z=              0.1327  Tot=              0.1327
 Quadrupole moment (field-independent basis, Debye-Ang):
   XX=            -10.1572   YY=            -10.1572   ZZ=            -12.2458
   XY=              0.0000   XZ=              0.0000   YZ=              0.0000
 Traceless Quadrupole moment (field-independent basis, Debye-Ang):
   XX=              0.6962   YY=              0.6962   ZZ=             -1.3924
   XY=              0.0000   XZ=              0.0000   YZ=              0.0000
 Octapole moment (field-independent basis, Debye-Ang**2):
  XXX=              0.0000  YYY=              0.0000  ZZZ=              6.3716  XYY=              0.0000
  XXY=              0.0000  XXZ=              1.2613  XZZ=              0.0000  YZZ=              0.0000
  YYZ=              1.2613  XYZ=              0.0000
 Hexadecapole moment (field-independent basis, Debye-Ang**3):
 XXXX=             -9.0841 YYYY=             -9.0841 ZZZZ=            -36.6248 XXXY=              0.0000
 XXXZ=              0.0000 YYYX=              0.0000 YYYZ=              0.0000 ZZZX=              0.0000
 ZZZY=              0.0000 XXYY=             -3.0280 XXZZ=             -7.0389 YYZZ=             -7.0389
 XXYZ=              0.0000 YYXZ=              0.0000 ZZXY=              0.0000
 N-N= 2.262891621459D+01 E-N=-3.115327754171D+02  KE= 1.129167597708D+02
 Symmetry A1   KE= 1.046981747672D+02
 Symmetry A2   KE= 9.779271026262D-52
 Symmetry B1   KE= 4.109292501772D+00
 Symmetry B2   KE= 4.109292501772D+00
  Exact polarizability:  11.329   0.000  11.329  -0.000   0.000  15.855
 Approx polarizability:  10.822  -0.000  10.822  -0.000  -0.000  17.891
 No NMR shielding tensors so no spin-rotation constants.
 Leave Link  601 at Thu Jul 20 11:11:10 2023, MaxMem=  2952790016 cpu:               2.3 elap:               0.2
 (Enter /mnt/data/applications/G16/g16/l701.exe)
 ... and contract with generalized density number  0.
 Compute integral second derivatives.
 R6Disp: Adding Grimme-D2 dispersion energy 2nd derivatives to the Hessian.
   4 Symmetry operations used in ECPInt.
 ECPInt:  NShTT=     253 NPrTT=     864 LenC2=     254 LenP2D=     811.
 LDataN:  DoStor=T MaxTD1= 8 Len=  415
 D2PCM: PCM CHGder 2nd derivatives, FixD1E=F FixD2E=F DoIter=F DoCFld=F I1PDM=0
 GePol: Maximum number of non-zero 2nd derivatives   =     429
 Leave Link  701 at Thu Jul 20 11:11:13 2023, MaxMem=  2952790016 cpu:              37.3 elap:               3.1
 (Enter /mnt/data/applications/G16/g16/l702.exe)
 L702 exits ... SP integral derivatives will be done elsewhere.
 Leave Link  702 at Thu Jul 20 11:11:14 2023, MaxMem=  2952790016 cpu:               0.2 elap:               0.0
 (Enter /mnt/data/applications/G16/g16/l703.exe)
 Integral derivatives from FoFJK, PRISM(SPDF).
 Compute integral second derivatives, UseDBF=F ICtDFT=           0.
 Calling FoFJK, ICntrl=    100127 FMM=F ISym2X=1 I1Cent= 0 IOpClX= 0 NMat=1 NMatS=1 NMatT=0.
 FoFJK:  IHMeth= 1 ICntrl=  100127 DoSepK=T KAlg= 0 I1Cent=           0 FoldK=F
 IRaf=         1 NMat=       1 IRICut=       1 DoRegI=T DoRafI=F ISym2E= 1 IDoP0=0 IntGTp=1.
 FoFCou: FMM=F IPFlag=           0 FMFlag=      100000 FMFlg1=         800
         NFxFlg=           0 DoJE=F BraDBF=F KetDBF=F FulRan=T
         wScrn=  0.000000 ICntrl=    100527 IOpCl=  0 I1Cent=           0 NGrid=           0
         NMat0=    1 NMatS0=      1 NMatT0=    0 NMatD0=    1 NMtDS0=    0 NMtDT0=    0
 Petite list used in FoFCou.
 Leave Link  703 at Thu Jul 20 11:11:17 2023, MaxMem=  2952790016 cpu:              44.8 elap:               3.8
 (Enter /mnt/data/applications/G16/g16/l716.exe)
 Dipole        = 0.00000000D+00 0.00000000D+00 5.22050534D-02
 Polarizability= 1.13291056D+01 1.03508676D-18 1.13291056D+01
                -2.55074205D-13 1.34398903D-13 1.58553961D+01
 Full mass-weighted force constant matrix:
 Low frequencies ---   -0.0013   -0.0013   -0.0007   44.9107   44.9107 2247.1445
 Diagonal vibrational polarizability:
        0.0000000       0.0000000       0.5314937
 Harmonic frequencies (cm**-1), IR intensities (KM/Mole), Raman scattering
 activities (A**4/AMU), depolarization ratios for plane and unpolarized
 incident light, reduced masses (AMU), force constants (mDyne/A),
 and normal coordinates:
                      1
                     SG
 Frequencies --   2247.1445
 Red. masses --     13.4388
 Frc consts  --     39.9826
 IR Inten    --     99.7303
  Atom  AN      X      Y      Z
     1   6     0.00   0.00   0.80
     2   8     0.00   0.00  -0.60

 -------------------
 - Thermochemistry -
 -------------------
 Temperature   298.150 Kelvin.  Pressure   1.00000 Atm.
 Atom     1 has atomic number  6 and mass  12.00000
 Atom     2 has atomic number  8 and mass  15.99491
 Molecular mass:    27.99491 amu.
 Principal axes and moments of inertia in atomic units:
                           1         2         3
     Eigenvalues --     0.00000  30.86204  30.86204
           X            0.00000  -0.00000   1.00000
           Y            0.00000   1.00000   0.00000
           Z            1.00000   0.00000   0.00000
 This molecule is a prolate symmetric top.
 Rotational symmetry number  1.
 Rotational temperature (Kelvin)      2.80649
 Rotational constant (GHZ):          58.477696
 Zero-point vibrational energy      13440.9 (Joules/Mol)
                                    3.21245 (Kcal/Mol)
 Vibrational temperatures:   3233.14
          (Kelvin)
 
 Zero-point correction=                           0.005119 (Hartree/Particle)
 Thermal correction to Energy=                    0.007480
 Thermal correction to Enthalpy=                  0.008424
 Thermal correction to Gibbs Free Energy=        -0.013994
 Sum of electronic and zero-point Energies=           -113.312094
 Sum of electronic and thermal Energies=              -113.309734
 Sum of electronic and thermal Enthalpies=            -113.308789
 Sum of electronic and thermal Free Energies=         -113.331207
 
                     E (Thermal)             CV                S
                      KCal/Mol        Cal/Mol-Kelvin    Cal/Mol-Kelvin
 Total                    4.694              4.973             47.182
 Electronic               0.000              0.000              0.000
 Translational            0.889              2.981             35.923
 Rotational               0.592              1.987             11.259
 Vibrational              3.213              0.005              0.000
                       Q            Log10(Q)             Ln(Q)
 Total Bot       0.273280D+07          6.436607         14.820836
 Total V=0       0.618519D+09          8.791353         20.242838
 Vib (Bot)       0.441838D-02         -2.354737         -5.421982
 Vib (V=0)       0.100002D+01          0.000008          0.000020
 Electronic      0.100000D+01          0.000000          0.000000
 Translational   0.582201D+07          6.765073         15.577155
 Rotational      0.106236D+03          2.026272          4.665663
 ***** Axes restored to original set *****
 -------------------------------------------------------------------
 Center     Atomic                   Forces (Hartrees/Bohr)
 Number     Number              X              Y              Z
 -------------------------------------------------------------------
      1        6           0.000000000    0.000000000   -0.000000405
      2        8          -0.000000000    0.000000000    0.000000405
 -------------------------------------------------------------------
 Cartesian Forces:  Max     0.000000405 RMS     0.000000234
 Force constants in Cartesian coordinates: 
                1             2             3             4             5 
      1  0.523329D-03
      2  0.000000D+00  0.523329D-03
      3  0.000000D+00  0.000000D+00  0.131020D+01
      4 -0.523329D-03  0.000000D+00  0.000000D+00  0.523329D-03
      5  0.000000D+00 -0.523329D-03  0.000000D+00  0.000000D+00  0.523329D-03
      6  0.000000D+00  0.000000D+00 -0.131020D+01  0.000000D+00  0.000000D+00
                6 
      6  0.131020D+01
 FormGI is forming the generalized inverse of G from B-inverse, IUseBI=4.
 Force constants in internal coordinates: 
                1 
      1  0.131020D+01
 Leave Link  716 at Thu Jul 20 11:11:17 2023, MaxMem=  2952790016 cpu:               0.3 elap:               0.0
 (Enter /mnt/data/applications/G16/g16/l103.exe)

 GradGradGradGradGradGradGradGradGradGradGradGradGradGradGradGradGradGrad
 Berny optimization.
 Red2BG is reusing G-inverse.
 Internal  Forces:  Max     0.000000405 RMS     0.000000405
 Search for a local minimum.
 Step number   1 out of a maximum of    2
 All quantities printed in internal units (Hartrees-Bohrs-Radians)
 Second derivative matrix not updated -- analytic derivatives used.
 The second derivative matrix:
                          R1
           R1           1.31020
 ITU=  0
     Eigenvalues ---    1.31020
 Angle between quadratic step and forces=  90.00 degrees.
 Linear search not attempted -- first point.
 Iteration  1 RMS(Cart)=  0.00000022 RMS(Int)=  0.00000000
 ITry= 1 IFail=0 DXMaxC= 1.55D-07 DCOld= 1.00D+10 DXMaxT= 5.00D-02 DXLimC= 3.00D+00 Rises=F
 ClnCor:  largest displacement from symmetrization is 0.00D+00 for atom     0.
 Variable       Old X    -DE/DX   Delta X   Delta X   Delta X     New X
                                 (Linear)    (Quad)   (Total)
    R1        2.12163   0.00000   0.00000   0.00000   0.00000   2.12163
         Item               Value     Threshold  Converged?
 Maximum Force            0.000000     0.000450     YES
 RMS     Force            0.000000     0.000300     YES
 Maximum Displacement     0.000000     0.001800     YES
 RMS     Displacement     0.000000     0.001200     YES
 Predicted change in Energy=-6.264515D-14
 Optimization completed.
    -- Stationary point found.
                           ----------------------------
                           !   Optimized Parameters   !
                           ! (Angstroms and Degrees)  !
 --------------------------                            --------------------------
 ! Name  Definition              Value          Derivative Info.                !
 --------------------------------------------------------------------------------
 ! R1    R(1,2)                  1.1227         -DE/DX =    0.0                 !
 --------------------------------------------------------------------------------
 GradGradGradGradGradGradGradGradGradGradGradGradGradGradGradGradGradGrad

 Leave Link  103 at Thu Jul 20 11:11:17 2023, MaxMem=  2952790016 cpu:               0.1 elap:               0.0
 (Enter /mnt/data/applications/G16/g16/l9999.exe)

 ----------------------------------------------------------------------

 Electric dipole moment (input orientation):
 (Debye = 10**-18 statcoulomb cm , SI units = C m)
                  (au)            (Debye)         (10**-30 SI)
   Tot        0.522051D-01      0.132692D+00      0.442613D+00
   x          0.000000D+00      0.000000D+00      0.000000D+00
   y          0.000000D+00      0.000000D+00      0.000000D+00
   z          0.522051D-01      0.132692D+00      0.442613D+00

 Dipole polarizability, Alpha (input orientation).
 (esu units = cm**3 , SI units = C**2 m**2 J**-1)
 Alpha(0;0):
               (au)            (10**-24 esu)      (10**-40 SI)
   iso        0.128379D+02      0.190238D+01      0.211668D+01
   aniso      0.452629D+01      0.670727D+00      0.746284D+00
   xx         0.113291D+02      0.167880D+01      0.186792D+01
   yx         0.000000D+00      0.000000D+00      0.000000D+00
   yy         0.113291D+02      0.167880D+01      0.186792D+01
   zx         0.000000D+00      0.000000D+00      0.000000D+00
   zy         0.000000D+00      0.000000D+00      0.000000D+00
   zz         0.158554D+02      0.234953D+01      0.261420D+01

 ----------------------------------------------------------------------

 Dipole orientation:
     6          0.00000000          0.00000000         -1.21236135
     8          0.00000000          0.00000000          0.90927196

 Electric dipole moment (dipole orientation):
 (Debye = 10**-18 statcoulomb cm , SI units = C m)
                  (au)            (Debye)         (10**-30 SI)
   Tot        0.522051D-01      0.132692D+00      0.442613D+00
   x          0.000000D+00      0.000000D+00      0.000000D+00
   y          0.000000D+00      0.000000D+00      0.000000D+00
   z          0.522051D-01      0.132692D+00      0.442613D+00

 Dipole polarizability, Alpha (dipole orientation).
 (esu units = cm**3 , SI units = C**2 m**2 J**-1)
 Alpha(0;0):
               (au)            (10**-24 esu)      (10**-40 SI)
   iso        0.128379D+02      0.190238D+01      0.211668D+01
   aniso      0.452629D+01      0.670727D+00      0.746284D+00
   xx         0.113291D+02      0.167880D+01      0.186792D+01
   yx         0.000000D+00      0.000000D+00      0.000000D+00
   yy         0.113291D+02      0.167880D+01      0.186792D+01
   zx         0.000000D+00      0.000000D+00      0.000000D+00
   zy         0.000000D+00      0.000000D+00      0.000000D+00
   zz         0.158554D+02      0.234953D+01      0.261420D+01

 ----------------------------------------------------------------------
 1\1\GINC-KIMIK2152\Freq\RwB97XD\Gen\C1O1\DGARAY\20-Jul-2023\0\\#P Geom
 =AllCheck Guess=TCheck SCRF=Check GenChk RwB97XD/ChkBas Freq\\Auto-gen
 erated job for CO\\0,1\C,0.,0.,-0.641554\O,0.,0.,0.481166\\Version=AM6
 4L-G16RevA.03\State=1-SG\HF=-113.3172137\RMSD=1.064e-09\RMSF=2.339e-07
 \ZeroPoint=0.0051194\Thermal=0.00748\Dipole=0.,0.,0.0522051\DipoleDeri
 v=-0.0253456,0.,0.,0.,-0.0253456,0.,0.,0.,0.8374905,0.0253456,0.,0.,0.
 ,0.0253456,0.,0.,0.,-0.8374905\Polar=11.3291056,0.,11.3291056,0.,0.,15
 .8553961\Quadrupole=0.5176046,0.5176046,-1.0352092,0.,0.,0.\PG=C*V [C*
 (C1O1)]\NImag=0\\0.00052333,0.,0.00052333,0.,0.,1.31019965,-0.00052333
 ,0.,0.,0.00052333,0.,-0.00052333,0.,0.,0.00052333,0.,0.,-1.31019965,0.
 ,0.,1.31019965\\0.,0.,0.00000041,0.,0.,-0.00000041\\\@


 The arm of the moral universe is long, but it bends toward justice.
 -- Martin Luther King, Jr.
 Job cpu time:       0 days  0 hours  3 minutes 34.9 seconds.
 Elapsed time:       0 days  0 hours  0 minutes 18.3 seconds.
 File lengths (MBytes):  RWF=     11 Int=      0 D2E=      0 Chk=      3 Scr=      1
 Normal termination of Gaussian 16 at Thu Jul 20 11:11:17 2023.
