 Entering Gaussian System, Link 0=g16
 Initial command:
 /mnt/data/applications/G16/g16/l1.exe "/scratch/Gau-1254.inp" -scrdir="/scratch/"
 Entering Link 1 = /mnt/data/applications/G16/g16/l1.exe PID=      1255.
  
 Copyright (c) 1988,1990,1992,1993,1995,1998,2003,2009,2016,
            Gaussian, Inc.  All Rights Reserved.
  
 This is part of the Gaussian(R) 16 program.  It is based on
 the Gaussian(R) 09 system (copyright 2009, Gaussian, Inc.),
 the Gaussian(R) 03 system (copyright 2003, Gaussian, Inc.),
 the Gaussian(R) 98 system (copyright 1998, Gaussian, Inc.),
 the Gaussian(R) 94 system (copyright 1995, Gaussian, Inc.),
 the Gaussian 92(TM) system (copyright 1992, Gaussian, Inc.),
 the Gaussian 90(TM) system (copyright 1990, Gaussian, Inc.),
 the Gaussian 88(TM) system (copyright 1988, Gaussian, Inc.),
 the Gaussian 86(TM) system (copyright 1986, Carnegie Mellon
 University), and the Gaussian 82(TM) system (copyright 1983,
 Carnegie Mellon University). Gaussian is a federally registered
 trademark of Gaussian, Inc.
  
 This software contains proprietary and confidential information,
 including trade secrets, belonging to Gaussian, Inc.
  
 This software is provided under written license and may be
 used, copied, transmitted, or stored only in accord with that
 written license.
  
 The following legend is applicable only to US Government
 contracts under FAR:
  
                    RESTRICTED RIGHTS LEGEND
  
 Use, reproduction and disclosure by the US Government is
 subject to restrictions as set forth in subparagraphs (a)
 and (c) of the Commercial Computer Software - Restricted
 Rights clause in FAR 52.227-19.
  
 Gaussian, Inc.
 340 Quinnipiac St., Bldg. 40, Wallingford CT 06492
  
  
 ---------------------------------------------------------------
 Warning -- This program may not be used in any manner that
 competes with the business of Gaussian, Inc. or will provide
 assistance to any competitor of Gaussian, Inc.  The licensee
 of this program is prohibited from giving any competitor of
 Gaussian, Inc. access to this program.  By using this program,
 the user acknowledges that Gaussian, Inc. is engaged in the
 business of creating and licensing software in the field of
 computational chemistry and represents and warrants to the
 licensee that it is not a competitor of Gaussian, Inc. and that
 it will not use this program in any manner prohibited above.
 ---------------------------------------------------------------
  

 Cite this work as:
 Gaussian 16, Revision A.03,
 M. J. Frisch, G. W. Trucks, H. B. Schlegel, G. E. Scuseria, 
 M. A. Robb, J. R. Cheeseman, G. Scalmani, V. Barone, 
 G. A. Petersson, H. Nakatsuji, X. Li, M. Caricato, A. V. Marenich, 
 J. Bloino, B. G. Janesko, R. Gomperts, B. Mennucci, H. P. Hratchian, 
 J. V. Ortiz, A. F. Izmaylov, J. L. Sonnenberg, D. Williams-Young, 
 F. Ding, F. Lipparini, F. Egidi, J. Goings, B. Peng, A. Petrone, 
 T. Henderson, D. Ranasinghe, V. G. Zakrzewski, J. Gao, N. Rega, 
 G. Zheng, W. Liang, M. Hada, M. Ehara, K. Toyota, R. Fukuda, 
 J. Hasegawa, M. Ishida, T. Nakajima, Y. Honda, O. Kitao, H. Nakai, 
 T. Vreven, K. Throssell, J. A. Montgomery, Jr., J. E. Peralta, 
 F. Ogliaro, M. J. Bearpark, J. J. Heyd, E. N. Brothers, K. N. Kudin, 
 V. N. Staroverov, T. A. Keith, R. Kobayashi, J. Normand, 
 K. Raghavachari, A. P. Rendell, J. C. Burant, S. S. Iyengar, 
 J. Tomasi, M. Cossi, J. M. Millam, M. Klene, C. Adamo, R. Cammi, 
 J. W. Ochterski, R. L. Martin, K. Morokuma, O. Farkas, 
 J. B. Foresman, and D. J. Fox, Gaussian, Inc., Wallingford CT, 2016.
 
 ******************************************
 Gaussian 16:  AM64L-G16RevA.03 25-Dec-2016
                 4-Oct-2022 
 ******************************************
 %nprocshared=12
 Will use up to   12 processors via shared memory.
 %mem=22GB
 %chk=I3.chk
 ----------------------------------------------------------------------
 #p opt=(maxstep=5) freq pseudo=read WB97XD gen scrf(smd,solvent=toluen
 e)
 ----------------------------------------------------------------------
 1/8=5,18=20,19=15,26=3,38=1/1,3;
 2/9=110,12=2,17=6,18=5,40=1/2;
 3/5=7,11=2,16=1,17=8,25=1,30=1,70=32201,71=1,72=13,74=-58/1,2,3;
 4//1;
 5/5=2,38=5,53=13/2;
 6/7=2,8=2,9=2,10=2,28=1/1;
 7//1,2,3,16;
 1/8=5,18=20,19=15,26=3/3(2);
 2/9=110/2;
 99//99;
 2/9=110/2;
 3/5=7,6=1,11=2,16=1,17=8,25=1,30=1,70=32205,71=1,72=13,74=-58,82=7/1,2,3;
 4/5=5,16=3,69=1/1;
 5/5=2,38=5,53=13/2;
 7//1,2,3,16;
 1/8=5,18=20,19=15,26=3/3(-5);
 2/9=110/2;
 6/7=2,8=2,9=2,10=2,19=2,28=1/1;
 99/9=1/99;
 Leave Link    1 at Tue Oct  4 15:50:45 2022, MaxMem=  2952790016 cpu:               0.6 elap:               0.1
 (Enter /mnt/data/applications/G16/g16/l101.exe)
 -------------------------
 Auto-generated job for I3
 -------------------------
 Symbolic Z-matrix:
 Charge =  0 Multiplicity = 1
 H                     0.27868   0.44043  -1.71378 
 Rh                    0.6592    0.02602  -0.22164 
 P                    -1.67402   0.01588  -0.02664 
 C                    -2.55902  -1.10262  -1.15579 
 C                    -2.45984   1.62221  -0.36222 
 C                    -2.37331  -0.43386   1.59412 
 H                    -2.05396  -1.44291   1.85988 
 H                    -3.46488  -0.39596   1.58614 
 H                    -1.99813   0.25374   2.35379 
 H                    -2.25471  -2.13139  -0.95891 
 H                    -2.2927   -0.85891  -2.18491 
 H                    -3.64143  -1.01991  -1.03425 
 H                    -2.18952   1.9483   -1.36734 
 H                    -2.08191   2.36105   0.34612 
 H                    -3.54762   1.56729  -0.27968 
 C                     1.2797    1.83285  -0.10702 
 O                     1.60369   2.9253   -0.08313 
 C                     1.00596  -1.97774  -1.06402 
 C                     2.20054  -1.24882  -1.1434 
 H                     3.00694  -1.45205  -0.4491 
 H                     2.51071  -0.81804  -2.08659 
 H                     0.40255  -2.11913  -1.95213 
 H                     0.89872  -2.75553  -0.31645 
 C                     1.05495  -0.55187   1.58509 
 O                     1.26876  -0.90364   2.6444 
 
 ITRead=  0  0  0  0  0  0  0  0  0  0  0  0  0  0  0  0  0  0  0  0
 ITRead=  0  0  0  0  0
 MicOpt= -1 -1 -1 -1 -1 -1 -1 -1 -1 -1 -1 -1 -1 -1 -1 -1 -1 -1 -1 -1
 MicOpt= -1 -1 -1 -1 -1
 NAtoms=     25 NQM=       25 NQMF=       0 NMMI=      0 NMMIF=      0
                NMic=       0 NMicF=      0.
                    Isotopes and Nuclear Properties:
 (Nuclear quadrupole moments (NQMom) in fm**2, nuclear magnetic moments (NMagM)
  in nuclear magnetons)

  Atom         1           2           3           4           5           6           7           8           9          10
 IAtWgt=           1         103          31          12          12          12           1           1           1           1
 AtmWgt=   1.0078250 102.9048000  30.9737634  12.0000000  12.0000000  12.0000000   1.0078250   1.0078250   1.0078250   1.0078250
 NucSpn=           1           1           1           0           0           0           1           1           1           1
 AtZEff=  -0.0000000  -0.0000000  -0.0000000  -0.0000000  -0.0000000  -0.0000000  -0.0000000  -0.0000000  -0.0000000  -0.0000000
 NQMom=    0.0000000   0.0000000   0.0000000   0.0000000   0.0000000   0.0000000   0.0000000   0.0000000   0.0000000   0.0000000
 NMagM=    2.7928460  -0.0884000   1.1316000   0.0000000   0.0000000   0.0000000   2.7928460   2.7928460   2.7928460   2.7928460
 AtZNuc=   1.0000000  45.0000000  15.0000000   6.0000000   6.0000000   6.0000000   1.0000000   1.0000000   1.0000000   1.0000000

  Atom        11          12          13          14          15          16          17          18          19          20
 IAtWgt=           1           1           1           1           1          12          16          12          12           1
 AtmWgt=   1.0078250   1.0078250   1.0078250   1.0078250   1.0078250  12.0000000  15.9949146  12.0000000  12.0000000   1.0078250
 NucSpn=           1           1           1           1           1           0           0           0           0           1
 AtZEff=  -0.0000000  -0.0000000  -0.0000000  -0.0000000  -0.0000000  -0.0000000  -0.0000000  -0.0000000  -0.0000000  -0.0000000
 NQMom=    0.0000000   0.0000000   0.0000000   0.0000000   0.0000000   0.0000000   0.0000000   0.0000000   0.0000000   0.0000000
 NMagM=    2.7928460   2.7928460   2.7928460   2.7928460   2.7928460   0.0000000   0.0000000   0.0000000   0.0000000   2.7928460
 AtZNuc=   1.0000000   1.0000000   1.0000000   1.0000000   1.0000000   6.0000000   8.0000000   6.0000000   6.0000000   1.0000000

  Atom        21          22          23          24          25
 IAtWgt=           1           1           1          12          16
 AtmWgt=   1.0078250   1.0078250   1.0078250  12.0000000  15.9949146
 NucSpn=           1           1           1           0           0
 AtZEff=  -0.0000000  -0.0000000  -0.0000000  -0.0000000  -0.0000000
 NQMom=    0.0000000   0.0000000   0.0000000   0.0000000   0.0000000
 NMagM=    2.7928460   2.7928460   2.7928460   0.0000000   0.0000000
 AtZNuc=   1.0000000   1.0000000   1.0000000   6.0000000   8.0000000
 Leave Link  101 at Tue Oct  4 15:50:46 2022, MaxMem=  2952790016 cpu:               4.6 elap:               0.4
 (Enter /mnt/data/applications/G16/g16/l103.exe)

 GradGradGradGradGradGradGradGradGradGradGradGradGradGradGradGradGradGrad
 Berny optimization.
 Initialization pass.
                           ----------------------------
                           !    Initial Parameters    !
                           ! (Angstroms and Degrees)  !
 --------------------------                            --------------------------
 ! Name  Definition              Value          Derivative Info.                !
 --------------------------------------------------------------------------------
 ! R1    R(1,2)                  1.5947         estimate D2E/DX2                !
 ! R2    R(2,3)                  2.3414         estimate D2E/DX2                !
 ! R3    R(2,16)                 1.9138         estimate D2E/DX2                !
 ! R4    R(2,18)                 2.2011         estimate D2E/DX2                !
 ! R5    R(2,19)                 2.2024         estimate D2E/DX2                !
 ! R6    R(2,24)                 1.9377         estimate D2E/DX2                !
 ! R7    R(3,4)                  1.8191         estimate D2E/DX2                !
 ! R8    R(3,5)                  1.8195         estimate D2E/DX2                !
 ! R9    R(3,6)                  1.8216         estimate D2E/DX2                !
 ! R10   R(4,10)                 1.0908         estimate D2E/DX2                !
 ! R11   R(4,11)                 1.0906         estimate D2E/DX2                !
 ! R12   R(4,12)                 1.0923         estimate D2E/DX2                !
 ! R13   R(5,13)                 1.0907         estimate D2E/DX2                !
 ! R14   R(5,14)                 1.0911         estimate D2E/DX2                !
 ! R15   R(5,15)                 1.0923         estimate D2E/DX2                !
 ! R16   R(6,7)                  1.0912         estimate D2E/DX2                !
 ! R17   R(6,8)                  1.0923         estimate D2E/DX2                !
 ! R18   R(6,9)                  1.0912         estimate D2E/DX2                !
 ! R19   R(16,17)                1.1397         estimate D2E/DX2                !
 ! R20   R(18,19)                1.4017         estimate D2E/DX2                !
 ! R21   R(18,22)                1.083          estimate D2E/DX2                !
 ! R22   R(18,23)                1.0841         estimate D2E/DX2                !
 ! R23   R(19,20)                1.0833         estimate D2E/DX2                !
 ! R24   R(19,21)                1.0823         estimate D2E/DX2                !
 ! R25   R(24,25)                1.1365         estimate D2E/DX2                !
 ! A1    A(1,2,3)               80.8666         estimate D2E/DX2                !
 ! A2    A(1,2,16)              83.5729         estimate D2E/DX2                !
 ! A3    A(1,2,18)              85.1853         estimate D2E/DX2                !
 ! A4    A(1,2,19)              85.7453         estimate D2E/DX2                !
 ! A5    A(3,2,16)             108.7951         estimate D2E/DX2                !
 ! A6    A(3,2,18)             100.6564         estimate D2E/DX2                !
 ! A7    A(3,2,19)             136.8659         estimate D2E/DX2                !
 ! A8    A(3,2,24)              97.1561         estimate D2E/DX2                !
 ! A9    A(16,2,18)            146.2309         estimate D2E/DX2                !
 ! A10   A(16,2,19)            110.16           estimate D2E/DX2                !
 ! A11   A(16,2,24)             99.1777         estimate D2E/DX2                !
 ! A12   A(18,2,24)             93.0479         estimate D2E/DX2                !
 ! A13   A(19,2,24)             94.2824         estimate D2E/DX2                !
 ! A14   A(2,3,4)              115.8344         estimate D2E/DX2                !
 ! A15   A(2,3,5)              114.2806         estimate D2E/DX2                !
 ! A16   A(2,3,6)              117.2406         estimate D2E/DX2                !
 ! A17   A(4,3,5)              102.6052         estimate D2E/DX2                !
 ! A18   A(4,3,6)              102.34           estimate D2E/DX2                !
 ! A19   A(5,3,6)              102.4906         estimate D2E/DX2                !
 ! A20   A(3,4,10)             109.3993         estimate D2E/DX2                !
 ! A21   A(3,4,11)             109.2393         estimate D2E/DX2                !
 ! A22   A(3,4,12)             111.4969         estimate D2E/DX2                !
 ! A23   A(10,4,11)            108.2372         estimate D2E/DX2                !
 ! A24   A(10,4,12)            109.1349         estimate D2E/DX2                !
 ! A25   A(11,4,12)            109.272          estimate D2E/DX2                !
 ! A26   A(3,5,13)             109.0793         estimate D2E/DX2                !
 ! A27   A(3,5,14)             109.1779         estimate D2E/DX2                !
 ! A28   A(3,5,15)             111.8256         estimate D2E/DX2                !
 ! A29   A(13,5,14)            108.0573         estimate D2E/DX2                !
 ! A30   A(13,5,15)            109.3584         estimate D2E/DX2                !
 ! A31   A(14,5,15)            109.265          estimate D2E/DX2                !
 ! A32   A(3,6,7)              109.4294         estimate D2E/DX2                !
 ! A33   A(3,6,8)              111.6284         estimate D2E/DX2                !
 ! A34   A(3,6,9)              109.383          estimate D2E/DX2                !
 ! A35   A(7,6,8)              109.0465         estimate D2E/DX2                !
 ! A36   A(7,6,9)              108.2104         estimate D2E/DX2                !
 ! A37   A(8,6,9)              109.0767         estimate D2E/DX2                !
 ! A38   A(2,18,22)            110.1769         estimate D2E/DX2                !
 ! A39   A(2,18,23)            111.9392         estimate D2E/DX2                !
 ! A40   A(19,18,22)           119.7566         estimate D2E/DX2                !
 ! A41   A(19,18,23)           119.7656         estimate D2E/DX2                !
 ! A42   A(22,18,23)           114.6269         estimate D2E/DX2                !
 ! A43   A(2,19,20)            111.1798         estimate D2E/DX2                !
 ! A44   A(2,19,21)            109.5662         estimate D2E/DX2                !
 ! A45   A(18,19,20)           120.0359         estimate D2E/DX2                !
 ! A46   A(18,19,21)           120.0385         estimate D2E/DX2                !
 ! A47   A(20,19,21)           114.8255         estimate D2E/DX2                !
 ! A48   L(1,2,24,3,-1)        178.0227         estimate D2E/DX2                !
 ! A49   L(2,16,17,5,-1)       177.4441         estimate D2E/DX2                !
 ! A50   L(2,24,25,6,-1)       179.0813         estimate D2E/DX2                !
 ! A51   L(1,2,24,3,-2)        177.7775         estimate D2E/DX2                !
 ! A52   L(2,16,17,5,-2)       182.2399         estimate D2E/DX2                !
 ! A53   L(2,24,25,6,-2)       179.3338         estimate D2E/DX2                !
 ! D1    D(1,2,3,4)             58.2267         estimate D2E/DX2                !
 ! D2    D(1,2,3,5)            -60.7466         estimate D2E/DX2                !
 ! D3    D(1,2,3,6)            179.3125         estimate D2E/DX2                !
 ! D4    D(16,2,3,4)           138.1784         estimate D2E/DX2                !
 ! D5    D(16,2,3,5)            19.2051         estimate D2E/DX2                !
 ! D6    D(16,2,3,6)          -100.7358         estimate D2E/DX2                !
 ! D7    D(18,2,3,4)           -25.0684         estimate D2E/DX2                !
 ! D8    D(18,2,3,5)          -144.0417         estimate D2E/DX2                !
 ! D9    D(18,2,3,6)            96.0174         estimate D2E/DX2                !
 ! D10   D(19,2,3,4)           -15.4233         estimate D2E/DX2                !
 ! D11   D(19,2,3,5)          -134.3965         estimate D2E/DX2                !
 ! D12   D(19,2,3,6)           105.6625         estimate D2E/DX2                !
 ! D13   D(24,2,3,4)          -119.5508         estimate D2E/DX2                !
 ! D14   D(24,2,3,5)           121.4759         estimate D2E/DX2                !
 ! D15   D(24,2,3,6)             1.535          estimate D2E/DX2                !
 ! D16   D(1,2,18,22)          -26.451          estimate D2E/DX2                !
 ! D17   D(1,2,18,23)         -155.2527         estimate D2E/DX2                !
 ! D18   D(3,2,18,22)           53.2992         estimate D2E/DX2                !
 ! D19   D(3,2,18,23)          -75.5025         estimate D2E/DX2                !
 ! D20   D(16,2,18,22)         -97.2994         estimate D2E/DX2                !
 ! D21   D(16,2,18,23)         133.8989         estimate D2E/DX2                !
 ! D22   D(24,2,18,22)         151.171          estimate D2E/DX2                !
 ! D23   D(24,2,18,23)          22.3693         estimate D2E/DX2                !
 ! D24   D(1,2,19,20)          156.5141         estimate D2E/DX2                !
 ! D25   D(1,2,19,21)           28.52           estimate D2E/DX2                !
 ! D26   D(3,2,19,20)         -131.6786         estimate D2E/DX2                !
 ! D27   D(3,2,19,21)          100.3274         estimate D2E/DX2                !
 ! D28   D(16,2,19,20)          74.9607         estimate D2E/DX2                !
 ! D29   D(16,2,19,21)         -53.0334         estimate D2E/DX2                !
 ! D30   D(24,2,19,20)         -26.452          estimate D2E/DX2                !
 ! D31   D(24,2,19,21)        -154.446          estimate D2E/DX2                !
 ! D32   D(2,3,4,10)            61.6105         estimate D2E/DX2                !
 ! D33   D(2,3,4,11)           -56.7042         estimate D2E/DX2                !
 ! D34   D(2,3,4,12)          -177.5793         estimate D2E/DX2                !
 ! D35   D(5,3,4,10)          -173.1905         estimate D2E/DX2                !
 ! D36   D(5,3,4,11)            68.4948         estimate D2E/DX2                !
 ! D37   D(5,3,4,12)           -52.3803         estimate D2E/DX2                !
 ! D38   D(6,3,4,10)           -67.1818         estimate D2E/DX2                !
 ! D39   D(6,3,4,11)           174.5035         estimate D2E/DX2                !
 ! D40   D(6,3,4,12)            53.6283         estimate D2E/DX2                !
 ! D41   D(2,3,5,13)            57.771          estimate D2E/DX2                !
 ! D42   D(2,3,5,14)           -60.1046         estimate D2E/DX2                !
 ! D43   D(2,3,5,15)           178.8585         estimate D2E/DX2                !
 ! D44   D(4,3,5,13)           -68.4388         estimate D2E/DX2                !
 ! D45   D(4,3,5,14)           173.6855         estimate D2E/DX2                !
 ! D46   D(4,3,5,15)            52.6487         estimate D2E/DX2                !
 ! D47   D(6,3,5,13)          -174.3316         estimate D2E/DX2                !
 ! D48   D(6,3,5,14)            67.7928         estimate D2E/DX2                !
 ! D49   D(6,3,5,15)           -53.244          estimate D2E/DX2                !
 ! D50   D(2,3,6,7)            -59.9703         estimate D2E/DX2                !
 ! D51   D(2,3,6,8)            179.2253         estimate D2E/DX2                !
 ! D52   D(2,3,6,9)             58.4142         estimate D2E/DX2                !
 ! D53   D(4,3,6,7)             67.9343         estimate D2E/DX2                !
 ! D54   D(4,3,6,8)            -52.87           estimate D2E/DX2                !
 ! D55   D(4,3,6,9)           -173.6811         estimate D2E/DX2                !
 ! D56   D(5,3,6,7)            174.0316         estimate D2E/DX2                !
 ! D57   D(5,3,6,8)             53.2273         estimate D2E/DX2                !
 ! D58   D(5,3,6,9)            -67.5838         estimate D2E/DX2                !
 ! D59   D(22,18,19,20)       -152.624          estimate D2E/DX2                !
 ! D60   D(22,18,19,21)          0.8282         estimate D2E/DX2                !
 ! D61   D(23,18,19,20)         -0.9922         estimate D2E/DX2                !
 ! D62   D(23,18,19,21)        152.4601         estimate D2E/DX2                !
 --------------------------------------------------------------------------------
 Trust Radius=5.00D-02 FncErr=1.00D-07 GrdErr=1.00D-06 EigMax=2.50D+02 EigMin=1.00D-04
 Number of steps in this run=    150 maximum allowed number of steps=    150.
 GradGradGradGradGradGradGradGradGradGradGradGradGradGradGradGradGradGrad

 Leave Link  103 at Tue Oct  4 15:50:46 2022, MaxMem=  2952790016 cpu:               0.1 elap:               0.0
 (Enter /mnt/data/applications/G16/g16/l202.exe)
                          Input orientation:                          
 ---------------------------------------------------------------------
 Center     Atomic      Atomic             Coordinates (Angstroms)
 Number     Number       Type             X           Y           Z
 ---------------------------------------------------------------------
      1          1           0        0.278682    0.440433   -1.713783
      2         45           0        0.659204    0.026016   -0.221640
      3         15           0       -1.674020    0.015875   -0.026641
      4          6           0       -2.559023   -1.102620   -1.155787
      5          6           0       -2.459836    1.622213   -0.362223
      6          6           0       -2.373309   -0.433859    1.594119
      7          1           0       -2.053955   -1.442908    1.859881
      8          1           0       -3.464876   -0.395958    1.586140
      9          1           0       -1.998133    0.253735    2.353794
     10          1           0       -2.254707   -2.131392   -0.958913
     11          1           0       -2.292695   -0.858912   -2.184908
     12          1           0       -3.641433   -1.019907   -1.034246
     13          1           0       -2.189522    1.948302   -1.367335
     14          1           0       -2.081915    2.361045    0.346115
     15          1           0       -3.547618    1.567290   -0.279684
     16          6           0        1.279697    1.832847   -0.107017
     17          8           0        1.603686    2.925297   -0.083132
     18          6           0        1.005959   -1.977742   -1.064023
     19          6           0        2.200542   -1.248823   -1.143399
     20          1           0        3.006942   -1.452050   -0.449099
     21          1           0        2.510709   -0.818037   -2.086588
     22          1           0        0.402550   -2.119130   -1.952132
     23          1           0        0.898715   -2.755533   -0.316445
     24          6           0        1.054946   -0.551872    1.585086
     25          8           0        1.268756   -0.903635    2.644397
 ---------------------------------------------------------------------
                    Distance matrix (angstroms):
                    1          2          3          4          5
     1  H    0.000000
     2  Rh   1.594688   0.000000
     3  P    2.615290   2.341380   0.000000
     4  C    3.277948   3.536020   1.819129   0.000000
     5  C    3.274569   3.506568   1.819463   2.839771   0.000000
     6  C    4.328933   3.564351   1.821573   2.836144   2.839400
     7  H    4.664680   3.721787   2.414822   3.076547   3.807552
     8  H    5.059967   4.522628   2.444961   2.972895   2.979805
     9  H    4.665182   3.707581   2.414145   3.804137   3.076142
    10  H    3.688112   3.699846   2.411863   1.090752   3.806267
    11  H    2.919287   3.653933   2.409591   1.090603   3.083196
    12  H    4.238120   4.499974   2.441071   1.092348   2.971293
    13  H    2.913027   3.622574   2.407795   3.080488   1.090713
    14  H    3.674826   3.645331   2.409387   3.805301   1.091073
    15  H    4.238752   4.480652   2.445667   2.978808   1.092291
    16  C    2.350010   1.913841   3.468759   4.944963   3.754145
    17  O    3.254106   3.052386   4.383068   5.890913   4.276462
    18  C    2.607430   2.201112   3.497565   3.671969   5.046180
    19  C    2.621540   2.202403   4.225972   4.761826   5.529214
    20  H    3.553072   2.783575   4.923889   5.621519   6.272504
    21  H    2.589339   2.760168   4.738222   5.162321   5.799532
    22  H    2.573619   2.768054   3.546534   3.230847   4.971792
    23  H    3.542766   2.793451   3.792579   3.923336   5.517846
    24  C    3.531259   1.937737   3.219822   4.569079   4.568627
    25  O    4.666958   3.074081   4.079200   5.397489   5.414986
                    6          7          8          9         10
     6  C    0.000000
     7  H    1.091236   0.000000
     8  H    1.092254   1.778127   0.000000
     9  H    1.091168   1.767955   1.778406   0.000000
    10  H    3.068168   2.908593   3.309613   4.090072   0.000000
    11  H    3.803711   4.093698   3.976071   4.682368   1.767403
    12  H    2.976557   3.327910   2.699427   3.975099   1.778787
    13  H    3.805086   4.683333   3.980590   4.093286   4.100605
    14  H    3.074722   4.094182   3.324351   2.911795   4.681340
    15  H    2.982405   3.983724   2.709703   3.325889   3.976584
    16  C    4.623448   5.070749   5.508659   4.392420   5.378934
    17  O    5.469332   6.019539   6.285501   5.103817   6.420615
    18  C    4.568232   4.265951   5.432658   5.068090   3.265976
    19  C    5.392428   5.211344   6.346237   5.667178   4.545570
    20  H    5.844532   5.562747   6.866000   5.984704   5.329762
    21  H    6.127710   6.066402   7.026713   6.418360   5.070083
    22  H    4.808475   4.585099   5.517760   5.471267   2.836838
    23  H    4.443711   3.895849   5.313036   4.957580   3.278168
    24  C    3.430298   3.245724   4.522510   3.249801   4.463252
    25  O    3.819478   3.456398   4.876978   3.478005   5.187101
                   11         12         13         14         15
    11  H    0.000000
    12  H    1.780179   0.000000
    13  H    2.925666   3.321033   0.000000
    14  H    4.101052   3.970936   1.765743   0.000000
    15  H    3.330340   2.696619   1.781174   1.780437   0.000000
    16  C    4.932057   5.763287   3.692860   3.432893   4.837696
    17  O    5.824044   6.631781   4.122150   3.753170   5.330924
    18  C    3.659137   4.745165   5.071185   5.508950   5.823874
    19  C    4.628817   5.847477   5.435478   5.795622   6.458935
    20  H    5.608119   6.688052   6.277642   6.408473   7.218544
    21  H    4.804584   6.244760   5.501102   6.092356   6.757071
    22  H    2.984406   4.290059   4.858480   5.614844   5.656024
    23  H    4.156131   4.913306   5.724303   5.958398   6.201454
    24  C    5.051122   5.397771   5.049181   4.456460   5.399242
    25  O    6.000677   6.136439   6.015582   5.212219   6.152494
                   16         17         18         19         20
    16  C    0.000000
    17  O    1.139731   0.000000
    18  C    3.938449   5.035793   0.000000
    19  C    3.379162   4.347836   1.401660   0.000000
    20  H    3.727056   4.611315   2.158337   1.083344   0.000000
    21  H    3.530054   4.341552   2.157505   1.082306   1.824716
    22  H    4.448815   5.511999   1.082973   2.155054   3.080091
    23  H    4.608930   5.729158   1.084128   2.156103   2.482194
    24  C    2.932680   3.895481   3.008867   3.040191   2.959479
    25  O    3.880558   4.712994   3.869774   3.915965   3.590511
                   21         22         23         24         25
    21  H    0.000000
    22  H    2.480979   0.000000
    23  H    3.079906   1.823913   0.000000
    24  C    3.958697   3.923497   2.914850   0.000000
    25  O    4.892034   4.832786   3.511843   1.136482   0.000000
 Stoichiometry    C7H14O2PRh
 Framework group  C1[X(C7H14O2PRh)]
 Deg. of freedom    69
 Full point group                 C1      NOp   1
 Largest Abelian subgroup         C1      NOp   1
 Largest concise Abelian subgroup C1      NOp   1
                         Standard orientation:                         
 ---------------------------------------------------------------------
 Center     Atomic      Atomic             Coordinates (Angstroms)
 Number     Number       Type             X           Y           Z
 ---------------------------------------------------------------------
      1          1           0        0.278682    0.440433   -1.713783
      2         45           0        0.659204    0.026016   -0.221640
      3         15           0       -1.674020    0.015875   -0.026641
      4          6           0       -2.559023   -1.102620   -1.155787
      5          6           0       -2.459836    1.622213   -0.362223
      6          6           0       -2.373309   -0.433859    1.594119
      7          1           0       -2.053955   -1.442908    1.859881
      8          1           0       -3.464876   -0.395958    1.586140
      9          1           0       -1.998133    0.253735    2.353794
     10          1           0       -2.254707   -2.131392   -0.958913
     11          1           0       -2.292695   -0.858912   -2.184908
     12          1           0       -3.641433   -1.019907   -1.034246
     13          1           0       -2.189522    1.948302   -1.367335
     14          1           0       -2.081915    2.361045    0.346115
     15          1           0       -3.547618    1.567290   -0.279684
     16          6           0        1.279697    1.832847   -0.107017
     17          8           0        1.603686    2.925297   -0.083132
     18          6           0        1.005959   -1.977742   -1.064023
     19          6           0        2.200542   -1.248823   -1.143399
     20          1           0        3.006942   -1.452050   -0.449099
     21          1           0        2.510709   -0.818037   -2.086588
     22          1           0        0.402550   -2.119130   -1.952132
     23          1           0        0.898715   -2.755533   -0.316445
     24          6           0        1.054946   -0.551872    1.585086
     25          8           0        1.268756   -0.903635    2.644397
 ---------------------------------------------------------------------
 Rotational constants (GHZ):           0.8424596           0.5894032           0.5346356
 Leave Link  202 at Tue Oct  4 15:50:46 2022, MaxMem=  2952790016 cpu:               0.1 elap:               0.0
 (Enter /mnt/data/applications/G16/g16/l301.exe)
 General basis read from cards:  (5D, 7F)
 Centers:       2
 SDD
 ****
 Centers:      17     25      4      5      6     16     18     19     24      1
 Centers:       7      8      9     10     11     12     13     14     15     20
 Centers:      21     22     23      3
 def2tzvp
 ****
 ======================================================================================================
                                       Pseudopotential Parameters
 ======================================================================================================
  Center     Atomic      Valence      Angular      Power
  Number     Number     Electrons     Momentum     of R      Exponent        Coefficient   SO-Coeffient
 ======================================================================================================
    1          1
                                   No pseudopotential on this center.
    2         45           17
                                      G and up 
                                                     2        1.0000000        0.00000000    0.00000000
                                      S - G
                                                     2       11.7200000      225.34775400    0.00000000
                                                     2        5.8200000       32.82318900    0.00000000
                                      P - G
                                                     2       10.4200000      158.70941200    0.00000000
                                                     2        5.4500000       26.44410000    0.00000000
                                      D - G
                                                     2        8.8200000       62.75862600    0.00000000
                                                     2        3.8700000       10.97871900    0.00000000
                                      F - G
                                                     2       12.3100000      -30.09345600    0.00000000
                                                     2        6.1600000       -5.21848200    0.00000000
    3         15
                                   No pseudopotential on this center.
    4          6
                                   No pseudopotential on this center.
    5          6
                                   No pseudopotential on this center.
    6          6
                                   No pseudopotential on this center.
    7          1
                                   No pseudopotential on this center.
    8          1
                                   No pseudopotential on this center.
    9          1
                                   No pseudopotential on this center.
   10          1
                                   No pseudopotential on this center.
   11          1
                                   No pseudopotential on this center.
   12          1
                                   No pseudopotential on this center.
   13          1
                                   No pseudopotential on this center.
   14          1
                                   No pseudopotential on this center.
   15          1
                                   No pseudopotential on this center.
   16          6
                                   No pseudopotential on this center.
   17          8
                                   No pseudopotential on this center.
   18          6
                                   No pseudopotential on this center.
   19          6
                                   No pseudopotential on this center.
   20          1
                                   No pseudopotential on this center.
   21          1
                                   No pseudopotential on this center.
   22          1
                                   No pseudopotential on this center.
   23          1
                                   No pseudopotential on this center.
   24          6
                                   No pseudopotential on this center.
   25          8
                                   No pseudopotential on this center.
 ======================================================================================================
 Ernie: Thresh=  0.10000D-02 Tol=  0.10000D-05 Strict=F.
 There are   489 symmetry adapted cartesian basis functions of A   symmetry.
 There are   436 symmetry adapted basis functions of A   symmetry.
   436 basis functions,   705 primitive gaussians,   489 cartesian basis functions
    52 alpha electrons       52 beta electrons
       nuclear repulsion energy       876.7607948825 Hartrees.
 IExCor= 4639 DFT=T Ex+Corr=wB97XD ExCW=0 ScaHFX=  1.000000
 ScaDFX=  1.000000  1.000000  1.000000  1.000000 ScalE2=  1.000000  1.000000
 IRadAn=      5 IRanWt=     -1 IRanGd=            0 ICorTp=0 IEmpDi=121
 HFx  wShort=  0.000000 wLong=  0.200000 cFull=  0.222036 cShort=  0.000000 cLong=  0.777964
 DFx  wShort=  0.000000 wLong=  0.200000 cFull=  0.000000 cShort=  0.000000 cLong=  1.000000
 NAtoms=   25 NActive=   25 NUniq=   25 SFac= 1.00D+00 NAtFMM=   60 NAOKFM=F Big=F
 Integral buffers will be    131072 words long.
 Raffenetti 2 integral format.
 Two-electron integral symmetry is turned on.
 R6Disp:  Grimme-D2 Dispersion energy=       -0.0206122382 Hartrees.
 Nuclear repulsion after empirical dispersion term =      876.7401826443 Hartrees.
 ------------------------------------------------------------------------------
 Polarizable Continuum Model (PCM)
 =================================
 Model                : PCM.
 Atomic radii         : SMD-Coulomb.
 Polarization charges : Total charges.
 Charge compensation  : None.
 Solution method      : On-the-fly selection.
 Cavity type          : VdW (van der Waals Surface) (Alpha=1.000).
 Cavity algorithm     : GePol (No added spheres)
                        Default sphere list used, NSphG=   25.
                        Lebedev-Laikov grids with approx.  5.0 points / Ang**2.
                        Smoothing algorithm: York/Karplus (Gamma=1.0000).
                        Polarization charges: spherical gaussians, with
                                              point-specific exponents (IZeta= 3).
                        Self-potential: point-specific (ISelfS= 7).
                        Self-field    : sphere-specific E.n sum rule (ISelfD= 2).
 1st derivatives      : Analytical E(r).r(x)/FMM algorithm (CHGder, D1EAlg=3).
                        Cavity 1st derivative terms included.
 Solvent              : Toluene, Eps=   2.374100 Eps(inf)=   2.238315
 ------------------------------------------------------------------------------
 GePol: Number of generator spheres                  =      25
 GePol: Total number of spheres                      =      25
 GePol: Number of exposed spheres                    =      25 (100.00%)
 GePol: Number of points                             =    2324
 GePol: Average weight of points                     =       0.12
 GePol: Minimum weight of points                     =   0.76D-10
 GePol: Maximum weight of points                     =    0.20615
 GePol: Number of points with low weight             =     117
 GePol: Fraction of low-weight points (<1% of avg)   =       5.03%
 GePol: Cavity surface area                          =    281.694 Ang**2
 GePol: Cavity volume                                =    249.860 Ang**3
 ------------------------------------------------------------------------------
 Atomic radii for non-electrostatic terms: SMD-CDS.
 ------------------------------------------------------------------------------
 PCM non-electrostatic energy =         0.0007314937 Hartrees.
 Nuclear repulsion after PCM non-electrostatic terms =      876.7409141380 Hartrees.
 Leave Link  301 at Tue Oct  4 15:50:46 2022, MaxMem=  2952790016 cpu:               1.8 elap:               0.2
 (Enter /mnt/data/applications/G16/g16/l302.exe)
 NPDir=0 NMtPBC=     1 NCelOv=     1 NCel=       1 NClECP=     1 NCelD=      1
         NCelK=      1 NCelE2=     1 NClLst=     1 CellRange=     0.0.
 One-electron integrals computed using PRISM.
 One-electron integral symmetry used in STVInt
   1 Symmetry operations used in ECPInt.
 ECPInt:  NShTT=   16653 NPrTT=   49115 LenC2=   15842 LenP2D=   35641.
 LDataN:  DoStor=T MaxTD1= 7 Len=  274
 NBasis=   436 RedAO= T EigKep=  1.35D-04  NBF=   436
 NBsUse=   436 1.00D-06 EigRej= -1.00D+00 NBFU=   436
 Precomputing XC quadrature grid using
 IXCGrd= 4 IRadAn=           5 IRanWt=          -1 IRanGd=           0 AccXCQ= 0.00D+00.
 Defaulting to unpruned grid for atomic number  45.
 Generated NRdTot=       0 NPtTot=           0 NUsed=           0 NTot=          32
 NSgBfM=   487   487   487   487   487 MxSgAt=    25 MxSgA2=    25.
 Leave Link  302 at Tue Oct  4 15:50:47 2022, MaxMem=  2952790016 cpu:              15.6 elap:               1.3
 (Enter /mnt/data/applications/G16/g16/l303.exe)
 DipDrv:  MaxL=1.
 Leave Link  303 at Tue Oct  4 15:50:47 2022, MaxMem=  2952790016 cpu:               1.0 elap:               0.1
 (Enter /mnt/data/applications/G16/g16/l401.exe)
 ExpMin= 1.60D-02 ExpMax= 5.24D+04 ExpMxC= 1.79D+03 IAcc=3 IRadAn=         5 AccDes= 0.00D+00
 Harris functional with IExCor= 4639 and IRadAn=       5 diagonalized for initial guess.
 HarFok:  IExCor= 4639 AccDes= 0.00D+00 IRadAn=         5 IDoV= 1 UseB2=F ITyADJ=14
 ICtDFT=  3500011 ScaDFX=  1.000000  1.000000  1.000000  1.000000
 Defaulting to unpruned grid for atomic number  45.
 FoFCou: FMM=F IPFlag=           0 FMFlag=      100000 FMFlg1=           0
         NFxFlg=           0 DoJE=T BraDBF=F KetDBF=T FulRan=T
         wScrn=  0.000000 ICntrl=       500 IOpCl=  0 I1Cent=   200000004 NGrid=           0
         NMat0=    1 NMatS0=      1 NMatT0=    0 NMatD0=    1 NMtDS0=    0 NMtDT0=    0
 Petite list used in FoFCou.
 Harris En= -849.533961398411    
 JPrj=0 DoOrth=F DoCkMO=F.
 Leave Link  401 at Tue Oct  4 15:50:54 2022, MaxMem=  2952790016 cpu:              78.7 elap:               6.6
 (Enter /mnt/data/applications/G16/g16/l502.exe)
 Integral symmetry usage will be decided dynamically.
 Closed shell SCF:
 Using DIIS extrapolation, IDIIS=  1040.
 NGot=  2952790016 LenX=  2952301307 LenY=  2952061697
 Requested convergence on RMS density matrix=1.00D-08 within 128 cycles.
 Requested convergence on MAX density matrix=1.00D-06.
 Requested convergence on             energy=1.00D-06.
 No special actions if energy rises.
 Fock matrices will be formed incrementally for  20 cycles.

 Cycle   1  Pass 1  IDiag  1:
 FoFJK:  IHMeth= 1 ICntrl=       0 DoSepK=T KAlg= 0 I1Cent=           0 FoldK=F
 IRaf=         1 NMat=       1 IRICut=       1 DoRegI=T DoRafI=F ISym2E= 0 IDoP0=0 IntGTp=1.
 FoFCou: FMM=F IPFlag=           0 FMFlag=      100000 FMFlg1=           0
         NFxFlg=           0 DoJE=T BraDBF=F KetDBF=F FulRan=T
         wScrn=  0.000000 ICntrl=       500 IOpCl=  0 I1Cent=           0 NGrid=           0
         NMat0=    1 NMatS0=      1 NMatT0=    0 NMatD0=    1 NMtDS0=    0 NMtDT0=    0
 Symmetry not used in FoFCou.
 Defaulting to unpruned grid for atomic number  45.
 Defaulting to unpruned grid for atomic number  45.
 Defaulting to unpruned grid for atomic number  45.
 Defaulting to unpruned grid for atomic number  45.
 Defaulting to unpruned grid for atomic number  45.
 Defaulting to unpruned grid for atomic number  45.
 Defaulting to unpruned grid for atomic number  45.
 Defaulting to unpruned grid for atomic number  45.
 Defaulting to unpruned grid for atomic number  45.
 Defaulting to unpruned grid for atomic number  45.
 Defaulting to unpruned grid for atomic number  45.
 Defaulting to unpruned grid for atomic number  45.
 Inv3:  Mode=1 IEnd=    16202928.
 Iteration    1 A*A^-1 deviation from unit magnitude is 2.66D-15 for    229.
 Iteration    1 A*A^-1 deviation from orthogonality  is 1.46D-15 for   1277    389.
 Iteration    1 A^-1*A deviation from unit magnitude is 2.66D-15 for    229.
 Iteration    1 A^-1*A deviation from orthogonality  is 9.98D-16 for   2246   2046.
 E= -875.649236235156    
 DIIS: error= 8.31D-02 at cycle   1 NSaved=   1.
 NSaved= 1 IEnMin= 1 EnMin= -875.649236235156     IErMin= 1 ErrMin= 8.31D-02
 ErrMax= 8.31D-02  0.00D+00 EMaxC= 1.00D-01 BMatC= 3.62D+00 BMatP= 3.62D+00
 IDIUse=3 WtCom= 1.69D-01 WtEn= 8.31D-01
 Coeff-Com:  0.100D+01
 Coeff-En:   0.100D+01
 Coeff:      0.100D+01
 Gap=     0.740 Goal=   None    Shift=    0.000
 GapD=    0.740 DampG=2.000 DampE=0.250 DampFc=0.5000 IDamp=-1.
 Damping current iteration by 5.00D-01
 RMSDP=1.02D-02 MaxDP=8.71D-01              OVMax= 5.92D-01

 Cycle   2  Pass 1  IDiag  1:
 RMSU=  5.10D-03    CP:  1.02D+00
 E= -876.343834381569     Delta-E=       -0.694598146413 Rises=F Damp=T
 DIIS: error= 2.43D-02 at cycle   2 NSaved=   2.
 NSaved= 2 IEnMin= 2 EnMin= -876.343834381569     IErMin= 2 ErrMin= 2.43D-02
 ErrMax= 2.43D-02  0.00D+00 EMaxC= 1.00D-01 BMatC= 5.65D-01 BMatP= 3.62D+00
 IDIUse=3 WtCom= 7.57D-01 WtEn= 2.43D-01
 Coeff-Com:  0.154D+00 0.846D+00
 Coeff-En:   0.342D+00 0.658D+00
 Coeff:      0.200D+00 0.800D+00
 Gap=     0.392 Goal=   None    Shift=    0.000
 RMSDP=4.26D-03 MaxDP=3.34D-01 DE=-6.95D-01 OVMax= 4.76D-01

 Cycle   3  Pass 1  IDiag  1:
 RMSU=  1.95D-03    CP:  9.95D-01  2.57D-01
 E= -877.598200259927     Delta-E=       -1.254365878358 Rises=F Damp=F
 DIIS: error= 1.13D-02 at cycle   3 NSaved=   3.
 NSaved= 3 IEnMin= 3 EnMin= -877.598200259927     IErMin= 3 ErrMin= 1.13D-02
 ErrMax= 1.13D-02  0.00D+00 EMaxC= 1.00D-01 BMatC= 1.02D-01 BMatP= 5.65D-01
 IDIUse=3 WtCom= 8.87D-01 WtEn= 1.13D-01
 Coeff-Com: -0.134D-01 0.253D+00 0.760D+00
 Coeff-En:   0.000D+00 0.000D+00 0.100D+01
 Coeff:     -0.119D-01 0.225D+00 0.787D+00
 Gap=     0.325 Goal=   None    Shift=    0.000
 RMSDP=8.00D-04 MaxDP=7.55D-02 DE=-1.25D+00 OVMax= 9.34D-02

 Cycle   4  Pass 1  IDiag  1:
 RMSU=  7.56D-04    CP:  9.93D-01  2.98D-01  1.08D+00
 E= -877.615614956824     Delta-E=       -0.017414696896 Rises=F Damp=F
 DIIS: error= 1.49D-02 at cycle   4 NSaved=   4.
 NSaved= 4 IEnMin= 4 EnMin= -877.615614956824     IErMin= 3 ErrMin= 1.13D-02
 ErrMax= 1.49D-02  0.00D+00 EMaxC= 1.00D-01 BMatC= 8.40D-02 BMatP= 1.02D-01
 IDIUse=3 WtCom= 8.51D-01 WtEn= 1.49D-01
 Coeff-Com:  0.502D-03 0.391D-01 0.481D+00 0.479D+00
 Coeff-En:   0.000D+00 0.000D+00 0.444D+00 0.556D+00
 Coeff:      0.427D-03 0.333D-01 0.475D+00 0.491D+00
 Gap=     0.322 Goal=   None    Shift=    0.000
 RMSDP=3.35D-04 MaxDP=2.15D-02 DE=-1.74D-02 OVMax= 4.63D-02

 Cycle   5  Pass 1  IDiag  1:
 RMSU=  2.50D-04    CP:  9.92D-01  2.73D-01  1.09D+00  7.62D-01
 E= -877.670814857381     Delta-E=       -0.055199900557 Rises=F Damp=F
 DIIS: error= 1.96D-03 at cycle   5 NSaved=   5.
 NSaved= 5 IEnMin= 5 EnMin= -877.670814857381     IErMin= 5 ErrMin= 1.96D-03
 ErrMax= 1.96D-03  0.00D+00 EMaxC= 1.00D-01 BMatC= 3.09D-03 BMatP= 8.40D-02
 IDIUse=3 WtCom= 9.80D-01 WtEn= 1.96D-02
 Coeff-Com:  0.123D-01-0.302D-01 0.942D-01 0.188D+00 0.735D+00
 Coeff-En:   0.000D+00 0.000D+00 0.000D+00 0.000D+00 0.100D+01
 Coeff:      0.121D-01-0.296D-01 0.924D-01 0.185D+00 0.741D+00
 Gap=     0.319 Goal=   None    Shift=    0.000
 RMSDP=1.25D-04 MaxDP=6.22D-03 DE=-5.52D-02 OVMax= 1.01D-02

 Cycle   6  Pass 1  IDiag  1:
 RMSU=  1.06D-04    CP:  9.91D-01  2.63D-01  1.10D+00  8.04D-01  1.06D+00
 E= -877.673212203242     Delta-E=       -0.002397345861 Rises=F Damp=F
 DIIS: error= 4.52D-04 at cycle   6 NSaved=   6.
 NSaved= 6 IEnMin= 6 EnMin= -877.673212203242     IErMin= 6 ErrMin= 4.52D-04
 ErrMax= 4.52D-04  0.00D+00 EMaxC= 1.00D-01 BMatC= 2.14D-04 BMatP= 3.09D-03
 IDIUse=3 WtCom= 9.95D-01 WtEn= 4.52D-03
 Coeff-Com:  0.554D-02-0.135D-01-0.140D-01-0.943D-02 0.114D+00 0.917D+00
 Coeff-En:   0.000D+00 0.000D+00 0.000D+00 0.000D+00 0.000D+00 0.100D+01
 Coeff:      0.552D-02-0.134D-01-0.140D-01-0.939D-02 0.113D+00 0.918D+00
 Gap=     0.317 Goal=   None    Shift=    0.000
 RMSDP=5.54D-05 MaxDP=3.23D-03 DE=-2.40D-03 OVMax= 6.92D-03

 Cycle   7  Pass 1  IDiag  1:
 RMSU=  3.00D-05    CP:  9.90D-01  2.60D-01  1.11D+00  8.31D-01  1.20D+00
                    CP:  1.15D+00
 E= -877.673472402435     Delta-E=       -0.000260199193 Rises=F Damp=F
 DIIS: error= 1.63D-04 at cycle   7 NSaved=   7.
 NSaved= 7 IEnMin= 7 EnMin= -877.673472402435     IErMin= 7 ErrMin= 1.63D-04
 ErrMax= 1.63D-04  0.00D+00 EMaxC= 1.00D-01 BMatC= 3.24D-05 BMatP= 2.14D-04
 IDIUse=3 WtCom= 9.98D-01 WtEn= 1.63D-03
 Coeff-Com:  0.899D-03-0.124D-02-0.107D-01-0.259D-01-0.641D-01 0.288D+00
 Coeff-Com:  0.813D+00
 Coeff-En:   0.000D+00 0.000D+00 0.000D+00 0.000D+00 0.000D+00 0.000D+00
 Coeff-En:   0.100D+01
 Coeff:      0.898D-03-0.123D-02-0.106D-01-0.258D-01-0.640D-01 0.287D+00
 Coeff:      0.813D+00
 Gap=     0.317 Goal=   None    Shift=    0.000
 RMSDP=2.34D-05 MaxDP=1.18D-03 DE=-2.60D-04 OVMax= 2.70D-03

 Cycle   8  Pass 1  IDiag  1:
 RMSU=  1.37D-05    CP:  9.90D-01  2.59D-01  1.11D+00  8.33D-01  1.22D+00
                    CP:  1.30D+00  1.15D+00
 E= -877.673518629541     Delta-E=       -0.000046227106 Rises=F Damp=F
 DIIS: error= 6.66D-05 at cycle   8 NSaved=   8.
 NSaved= 8 IEnMin= 8 EnMin= -877.673518629541     IErMin= 8 ErrMin= 6.66D-05
 ErrMax= 6.66D-05  0.00D+00 EMaxC= 1.00D-01 BMatC= 4.71D-06 BMatP= 3.24D-05
 IDIUse=1 WtCom= 1.00D+00 WtEn= 0.00D+00
 Coeff-Com: -0.212D-03 0.845D-03-0.115D-02-0.843D-02-0.369D-01-0.172D-01
 Coeff-Com:  0.307D+00 0.757D+00
 Coeff:     -0.212D-03 0.845D-03-0.115D-02-0.843D-02-0.369D-01-0.172D-01
 Coeff:      0.307D+00 0.757D+00
 Gap=     0.317 Goal=   None    Shift=    0.000
 RMSDP=8.82D-06 MaxDP=5.40D-04 DE=-4.62D-05 OVMax= 1.25D-03

 Cycle   9  Pass 1  IDiag  1:
 RMSU=  4.46D-06    CP:  9.90D-01  2.59D-01  1.11D+00  8.35D-01  1.24D+00
                    CP:  1.34D+00  1.32D+00  1.10D+00
 E= -877.673525086794     Delta-E=       -0.000006457253 Rises=F Damp=F
 DIIS: error= 4.29D-05 at cycle   9 NSaved=   9.
 NSaved= 9 IEnMin= 9 EnMin= -877.673525086794     IErMin= 9 ErrMin= 4.29D-05
 ErrMax= 4.29D-05  0.00D+00 EMaxC= 1.00D-01 BMatC= 1.24D-06 BMatP= 4.71D-06
 IDIUse=1 WtCom= 1.00D+00 WtEn= 0.00D+00
 Coeff-Com: -0.338D-03 0.766D-03 0.162D-02 0.800D-03-0.548D-02-0.721D-01
 Coeff-Com: -0.476D-02 0.417D+00 0.663D+00
 Coeff:     -0.338D-03 0.766D-03 0.162D-02 0.800D-03-0.548D-02-0.721D-01
 Coeff:     -0.476D-02 0.417D+00 0.663D+00
 Gap=     0.317 Goal=   None    Shift=    0.000
 RMSDP=3.99D-06 MaxDP=1.78D-04 DE=-6.46D-06 OVMax= 5.98D-04

 Cycle  10  Pass 1  IDiag  1:
 RMSU=  1.80D-06    CP:  9.90D-01  2.59D-01  1.11D+00  8.36D-01  1.24D+00
                    CP:  1.35D+00  1.39D+00  1.25D+00  1.16D+00
 E= -877.673526583749     Delta-E=       -0.000001496955 Rises=F Damp=F
 DIIS: error= 1.51D-05 at cycle  10 NSaved=  10.
 NSaved=10 IEnMin=10 EnMin= -877.673526583749     IErMin=10 ErrMin= 1.51D-05
 ErrMax= 1.51D-05  0.00D+00 EMaxC= 1.00D-01 BMatC= 1.12D-07 BMatP= 1.24D-06
 IDIUse=1 WtCom= 1.00D+00 WtEn= 0.00D+00
 Coeff-Com: -0.126D-03 0.242D-03 0.222D-03 0.867D-03 0.201D-02-0.164D-01
 Coeff-Com: -0.345D-01 0.387D-01 0.180D+00 0.829D+00
 Coeff:     -0.126D-03 0.242D-03 0.222D-03 0.867D-03 0.201D-02-0.164D-01
 Coeff:     -0.345D-01 0.387D-01 0.180D+00 0.829D+00
 Gap=     0.317 Goal=   None    Shift=    0.000
 RMSDP=1.71D-06 MaxDP=1.01D-04 DE=-1.50D-06 OVMax= 2.20D-04

 Cycle  11  Pass 1  IDiag  1:
 RMSU=  8.37D-07    CP:  9.90D-01  2.59D-01  1.11D+00  8.36D-01  1.24D+00
                    CP:  1.36D+00  1.41D+00  1.32D+00  1.26D+00  1.26D+00
 E= -877.673526760042     Delta-E=       -0.000000176292 Rises=F Damp=F
 DIIS: error= 4.63D-06 at cycle  11 NSaved=  11.
 NSaved=11 IEnMin=11 EnMin= -877.673526760042     IErMin=11 ErrMin= 4.63D-06
 ErrMax= 4.63D-06  0.00D+00 EMaxC= 1.00D-01 BMatC= 1.44D-08 BMatP= 1.12D-07
 IDIUse=1 WtCom= 1.00D+00 WtEn= 0.00D+00
 Coeff-Com:  0.730D-05-0.496D-04-0.285D-03 0.217D-03 0.170D-02 0.710D-02
 Coeff-Com: -0.135D-01-0.620D-01-0.568D-01 0.302D+00 0.821D+00
 Coeff:      0.730D-05-0.496D-04-0.285D-03 0.217D-03 0.170D-02 0.710D-02
 Coeff:     -0.135D-01-0.620D-01-0.568D-01 0.302D+00 0.821D+00
 Gap=     0.317 Goal=   None    Shift=    0.000
 RMSDP=9.06D-07 MaxDP=7.67D-05 DE=-1.76D-07 OVMax= 1.41D-04

 Cycle  12  Pass 1  IDiag  1:
 RMSU=  3.52D-07    CP:  9.90D-01  2.59D-01  1.11D+00  8.36D-01  1.24D+00
                    CP:  1.36D+00  1.42D+00  1.34D+00  1.37D+00  1.48D+00
                    CP:  1.12D+00
 E= -877.673526794036     Delta-E=       -0.000000033994 Rises=F Damp=F
 DIIS: error= 1.64D-06 at cycle  12 NSaved=  12.
 NSaved=12 IEnMin=12 EnMin= -877.673526794036     IErMin=12 ErrMin= 1.64D-06
 ErrMax= 1.64D-06  0.00D+00 EMaxC= 1.00D-01 BMatC= 1.28D-09 BMatP= 1.44D-08
 IDIUse=1 WtCom= 1.00D+00 WtEn= 0.00D+00
 Coeff-Com:  0.152D-04-0.380D-04-0.643D-04-0.132D-04 0.188D-03 0.307D-02
 Coeff-Com: -0.501D-03-0.176D-01-0.299D-01-0.107D-01 0.207D+00 0.848D+00
 Coeff:      0.152D-04-0.380D-04-0.643D-04-0.132D-04 0.188D-03 0.307D-02
 Coeff:     -0.501D-03-0.176D-01-0.299D-01-0.107D-01 0.207D+00 0.848D+00
 Gap=     0.317 Goal=   None    Shift=    0.000
 RMSDP=2.71D-07 MaxDP=2.04D-05 DE=-3.40D-08 OVMax= 3.24D-05

 Cycle  13  Pass 1  IDiag  1:
 RMSU=  9.56D-08    CP:  9.90D-01  2.59D-01  1.11D+00  8.36D-01  1.24D+00
                    CP:  1.36D+00  1.42D+00  1.35D+00  1.39D+00  1.56D+00
                    CP:  1.27D+00  1.21D+00
 E= -877.673526797443     Delta-E=       -0.000000003407 Rises=F Damp=F
 DIIS: error= 6.64D-07 at cycle  13 NSaved=  13.
 NSaved=13 IEnMin=13 EnMin= -877.673526797443     IErMin=13 ErrMin= 6.64D-07
 ErrMax= 6.64D-07  0.00D+00 EMaxC= 1.00D-01 BMatC= 2.31D-10 BMatP= 1.28D-09
 IDIUse=1 WtCom= 1.00D+00 WtEn= 0.00D+00
 Coeff-Com:  0.425D-05-0.190D-05 0.554D-04-0.242D-04-0.229D-03-0.886D-03
 Coeff-Com:  0.170D-02 0.857D-02 0.634D-02-0.518D-01-0.104D+00 0.840D-01
 Coeff-Com:  0.106D+01
 Coeff:      0.425D-05-0.190D-05 0.554D-04-0.242D-04-0.229D-03-0.886D-03
 Coeff:      0.170D-02 0.857D-02 0.634D-02-0.518D-01-0.104D+00 0.840D-01
 Coeff:      0.106D+01
 Gap=     0.317 Goal=   None    Shift=    0.000
 RMSDP=1.27D-07 MaxDP=8.74D-06 DE=-3.41D-09 OVMax= 1.67D-05

 Cycle  14  Pass 1  IDiag  1:
 RMSU=  4.65D-08    CP:  9.90D-01  2.59D-01  1.11D+00  8.36D-01  1.24D+00
                    CP:  1.36D+00  1.42D+00  1.35D+00  1.39D+00  1.59D+00
                    CP:  1.33D+00  1.39D+00  1.37D+00
 E= -877.673526798103     Delta-E=       -0.000000000660 Rises=F Damp=F
 DIIS: error= 1.30D-07 at cycle  14 NSaved=  14.
 NSaved=14 IEnMin=14 EnMin= -877.673526798103     IErMin=14 ErrMin= 1.30D-07
 ErrMax= 1.30D-07  0.00D+00 EMaxC= 1.00D-01 BMatC= 1.99D-11 BMatP= 2.31D-10
 IDIUse=1 WtCom= 1.00D+00 WtEn= 0.00D+00
 Coeff-Com: -0.497D-06 0.252D-05 0.154D-04 0.963D-06-0.532D-04-0.304D-03
 Coeff-Com:  0.406D-03 0.277D-02 0.312D-02-0.101D-01-0.333D-01-0.608D-01
 Coeff-Com:  0.197D+00 0.901D+00
 Coeff:     -0.497D-06 0.252D-05 0.154D-04 0.963D-06-0.532D-04-0.304D-03
 Coeff:      0.406D-03 0.277D-02 0.312D-02-0.101D-01-0.333D-01-0.608D-01
 Coeff:      0.197D+00 0.901D+00
 Gap=     0.317 Goal=   None    Shift=    0.000
 RMSDP=2.99D-08 MaxDP=1.62D-06 DE=-6.60D-10 OVMax= 3.79D-06

 Cycle  15  Pass 1  IDiag  1:
 RMSU=  1.15D-08    CP:  9.90D-01  2.59D-01  1.11D+00  8.36D-01  1.24D+00
                    CP:  1.36D+00  1.42D+00  1.35D+00  1.39D+00  1.60D+00
                    CP:  1.35D+00  1.43D+00  1.50D+00  1.26D+00
 E= -877.673526798132     Delta-E=       -0.000000000029 Rises=F Damp=F
 DIIS: error= 6.15D-08 at cycle  15 NSaved=  15.
 NSaved=15 IEnMin=15 EnMin= -877.673526798132     IErMin=15 ErrMin= 6.15D-08
 ErrMax= 6.15D-08  0.00D+00 EMaxC= 1.00D-01 BMatC= 3.05D-12 BMatP= 1.99D-11
 IDIUse=1 WtCom= 1.00D+00 WtEn= 0.00D+00
 Coeff-Com: -0.656D-06 0.101D-05-0.200D-05 0.320D-05 0.106D-04 0.131D-04
 Coeff-Com: -0.404D-04-0.101D-03 0.171D-03 0.184D-02 0.484D-03-0.250D-01
 Coeff-Com: -0.430D-01 0.263D+00 0.803D+00
 Coeff:     -0.656D-06 0.101D-05-0.200D-05 0.320D-05 0.106D-04 0.131D-04
 Coeff:     -0.404D-04-0.101D-03 0.171D-03 0.184D-02 0.484D-03-0.250D-01
 Coeff:     -0.430D-01 0.263D+00 0.803D+00
 Gap=     0.317 Goal=   None    Shift=    0.000
 RMSDP=9.28D-09 MaxDP=7.17D-07 DE=-2.91D-11 OVMax= 1.05D-06

 Error on total polarization charges =  0.02516
 SCF Done:  E(RwB97XD) =  -877.673526798     A.U. after   15 cycles
            NFock= 15  Conv=0.93D-08     -V/T= 2.0906
 KE= 8.047586829287D+02 PE=-3.791647847577D+03 EE= 1.232474723712D+03
 SMD-CDS (non-electrostatic) energy       (kcal/mol) =       0.46
 (included in total energy above)
 Leave Link  502 at Tue Oct  4 16:03:16 2022, MaxMem=  2952790016 cpu:            8852.5 elap:             742.4
 (Enter /mnt/data/applications/G16/g16/l601.exe)
 Copying SCF densities to generalized density rwf, IOpCl= 0 IROHF=0.

 **********************************************************************

            Population analysis using the SCF density.

 **********************************************************************

 Orbital symmetries:
       Occupied  (A) (A) (A) (A) (A) (A) (A) (A) (A) (A) (A) (A)
                 (A) (A) (A) (A) (A) (A) (A) (A) (A) (A) (A) (A)
                 (A) (A) (A) (A) (A) (A) (A) (A) (A) (A) (A) (A)
                 (A) (A) (A) (A) (A) (A) (A) (A) (A) (A) (A) (A)
                 (A) (A) (A) (A)
       Virtual   (A) (A) (A) (A) (A) (A) (A) (A) (A) (A) (A) (A)
                 (A) (A) (A) (A) (A) (A) (A) (A) (A) (A) (A) (A)
                 (A) (A) (A) (A) (A) (A) (A) (A) (A) (A) (A) (A)
                 (A) (A) (A) (A) (A) (A) (A) (A) (A) (A) (A) (A)
                 (A) (A) (A) (A) (A) (A) (A) (A) (A) (A) (A) (A)
                 (A) (A) (A) (A) (A) (A) (A) (A) (A) (A) (A) (A)
                 (A) (A) (A) (A) (A) (A) (A) (A) (A) (A) (A) (A)
                 (A) (A) (A) (A) (A) (A) (A) (A) (A) (A) (A) (A)
                 (A) (A) (A) (A) (A) (A) (A) (A) (A) (A) (A) (A)
                 (A) (A) (A) (A) (A) (A) (A) (A) (A) (A) (A) (A)
                 (A) (A) (A) (A) (A) (A) (A) (A) (A) (A) (A) (A)
                 (A) (A) (A) (A) (A) (A) (A) (A) (A) (A) (A) (A)
                 (A) (A) (A) (A) (A) (A) (A) (A) (A) (A) (A) (A)
                 (A) (A) (A) (A) (A) (A) (A) (A) (A) (A) (A) (A)
                 (A) (A) (A) (A) (A) (A) (A) (A) (A) (A) (A) (A)
                 (A) (A) (A) (A) (A) (A) (A) (A) (A) (A) (A) (A)
                 (A) (A) (A) (A) (A) (A) (A) (A) (A) (A) (A) (A)
                 (A) (A) (A) (A) (A) (A) (A) (A) (A) (A) (A) (A)
                 (A) (A) (A) (A) (A) (A) (A) (A) (A) (A) (A) (A)
                 (A) (A) (A) (A) (A) (A) (A) (A) (A) (A) (A) (A)
                 (A) (A) (A) (A) (A) (A) (A) (A) (A) (A) (A) (A)
                 (A) (A) (A) (A) (A) (A) (A) (A) (A) (A) (A) (A)
                 (A) (A) (A) (A) (A) (A) (A) (A) (A) (A) (A) (A)
                 (A) (A) (A) (A) (A) (A) (A) (A) (A) (A) (A) (A)
                 (A) (A) (A) (A) (A) (A) (A) (A) (A) (A) (A) (A)
                 (A) (A) (A) (A) (A) (A) (A) (A) (A) (A) (A) (A)
                 (A) (A) (A) (A) (A) (A) (A) (A) (A) (A) (A) (A)
                 (A) (A) (A) (A) (A) (A) (A) (A) (A) (A) (A) (A)
                 (A) (A) (A) (A) (A) (A) (A) (A) (A) (A) (A) (A)
                 (A) (A) (A) (A) (A) (A) (A) (A) (A) (A) (A) (A)
                 (A) (A) (A) (A) (A) (A) (A) (A) (A) (A) (A) (A)
                 (A) (A) (A) (A) (A) (A) (A) (A) (A) (A) (A) (A)
 The electronic state is 1-A.
 Alpha  occ. eigenvalues --  -77.24028 -19.32775 -19.31229 -10.40479 -10.39685
 Alpha  occ. eigenvalues --  -10.28304 -10.28115 -10.28069 -10.27696 -10.27641
 Alpha  occ. eigenvalues --   -6.68339  -4.83039  -4.83019  -4.82728  -3.35767
 Alpha  occ. eigenvalues --   -2.11332  -2.10157  -2.09197  -1.24300  -1.22736
 Alpha  occ. eigenvalues --   -0.87822  -0.85043  -0.79759  -0.79638  -0.66939
 Alpha  occ. eigenvalues --   -0.66529  -0.64992  -0.63898  -0.56356  -0.55976
 Alpha  occ. eigenvalues --   -0.55412  -0.54315  -0.54085  -0.53771  -0.53592
 Alpha  occ. eigenvalues --   -0.53306  -0.52245  -0.52185  -0.50227  -0.49299
 Alpha  occ. eigenvalues --   -0.49092  -0.47543  -0.43099  -0.42509  -0.42443
 Alpha  occ. eigenvalues --   -0.40950  -0.38308  -0.37328  -0.36012  -0.34971
 Alpha  occ. eigenvalues --   -0.30482  -0.27647
 Alpha virt. eigenvalues --    0.04091   0.06104   0.06449   0.06964   0.07338
 Alpha virt. eigenvalues --    0.07605   0.08073   0.08598   0.09133   0.10397
 Alpha virt. eigenvalues --    0.13206   0.13313   0.13816   0.15213   0.16196
 Alpha virt. eigenvalues --    0.17436   0.17604   0.17737   0.18689   0.19478
 Alpha virt. eigenvalues --    0.20095   0.20546   0.20821   0.21033   0.22097
 Alpha virt. eigenvalues --    0.22834   0.23498   0.24327   0.24542   0.24894
 Alpha virt. eigenvalues --    0.26109   0.26369   0.27410   0.28332   0.29414
 Alpha virt. eigenvalues --    0.31186   0.31541   0.31746   0.32804   0.33560
 Alpha virt. eigenvalues --    0.34110   0.35036   0.36149   0.37053   0.37310
 Alpha virt. eigenvalues --    0.38496   0.40470   0.41585   0.42903   0.44263
 Alpha virt. eigenvalues --    0.44522   0.44996   0.45458   0.46019   0.47286
 Alpha virt. eigenvalues --    0.47828   0.48557   0.49708   0.49807   0.50287
 Alpha virt. eigenvalues --    0.50620   0.51457   0.52030   0.52520   0.53396
 Alpha virt. eigenvalues --    0.53744   0.54179   0.55402   0.55823   0.56283
 Alpha virt. eigenvalues --    0.56301   0.56736   0.58396   0.58797   0.59459
 Alpha virt. eigenvalues --    0.60001   0.61588   0.62594   0.63239   0.64016
 Alpha virt. eigenvalues --    0.64437   0.64756   0.66271   0.67722   0.68768
 Alpha virt. eigenvalues --    0.70584   0.71118   0.72782   0.73085   0.74005
 Alpha virt. eigenvalues --    0.75776   0.76827   0.77728   0.79710   0.80372
 Alpha virt. eigenvalues --    0.81253   0.82393   0.83312   0.83673   0.85887
 Alpha virt. eigenvalues --    0.87475   0.87887   0.88348   0.89710   0.90799
 Alpha virt. eigenvalues --    0.91597   0.95924   0.96719   0.97646   0.98090
 Alpha virt. eigenvalues --    0.98444   0.98830   1.01166   1.01588   1.03398
 Alpha virt. eigenvalues --    1.05228   1.05794   1.07428   1.08367   1.08935
 Alpha virt. eigenvalues --    1.09244   1.11488   1.13150   1.13420   1.13555
 Alpha virt. eigenvalues --    1.14573   1.16131   1.17035   1.17646   1.19477
 Alpha virt. eigenvalues --    1.22013   1.25425   1.27285   1.29738   1.32413
 Alpha virt. eigenvalues --    1.35568   1.37142   1.38957   1.39595   1.50187
 Alpha virt. eigenvalues --    1.50894   1.52474   1.53276   1.53678   1.54495
 Alpha virt. eigenvalues --    1.55632   1.56894   1.58721   1.59078   1.59417
 Alpha virt. eigenvalues --    1.60430   1.60956   1.61354   1.61886   1.62708
 Alpha virt. eigenvalues --    1.62824   1.63397   1.64583   1.65257   1.65447
 Alpha virt. eigenvalues --    1.65870   1.66434   1.66734   1.67212   1.68658
 Alpha virt. eigenvalues --    1.69115   1.69555   1.71174   1.71642   1.71983
 Alpha virt. eigenvalues --    1.73056   1.73366   1.74173   1.74739   1.75834
 Alpha virt. eigenvalues --    1.76696   1.80739   1.82376   1.84968   1.88198
 Alpha virt. eigenvalues --    1.90646   1.93041   1.94070   1.95081   1.95850
 Alpha virt. eigenvalues --    1.97863   1.99829   2.02348   2.04801   2.06439
 Alpha virt. eigenvalues --    2.07323   2.08681   2.10202   2.10553   2.11405
 Alpha virt. eigenvalues --    2.13447   2.15620   2.15803   2.16945   2.17501
 Alpha virt. eigenvalues --    2.18373   2.19297   2.21045   2.23228   2.25459
 Alpha virt. eigenvalues --    2.27399   2.29379   2.30392   2.32881   2.34666
 Alpha virt. eigenvalues --    2.36695   2.38825   2.39103   2.40369   2.41317
 Alpha virt. eigenvalues --    2.43565   2.44438   2.45212   2.46353   2.47684
 Alpha virt. eigenvalues --    2.50188   2.51732   2.52462   2.53796   2.56157
 Alpha virt. eigenvalues --    2.58633   2.60044   2.62038   2.63038   2.63572
 Alpha virt. eigenvalues --    2.64101   2.66175   2.67875   2.68412   2.69758
 Alpha virt. eigenvalues --    2.70675   2.72107   2.73809   2.74328   2.74679
 Alpha virt. eigenvalues --    2.75143   2.76040   2.76694   2.77098   2.79622
 Alpha virt. eigenvalues --    2.83764   2.86403   2.86562   2.88210   2.90459
 Alpha virt. eigenvalues --    2.91786   2.92471   2.93073   2.95008   2.96504
 Alpha virt. eigenvalues --    2.97264   2.98158   2.99003   2.99178   3.00991
 Alpha virt. eigenvalues --    3.03269   3.03547   3.04529   3.06137   3.08009
 Alpha virt. eigenvalues --    3.09457   3.09569   3.10680   3.14241   3.15139
 Alpha virt. eigenvalues --    3.16358   3.16997   3.18941   3.19413   3.19874
 Alpha virt. eigenvalues --    3.21485   3.22926   3.24626   3.25300   3.26051
 Alpha virt. eigenvalues --    3.27038   3.28513   3.29478   3.30166   3.31164
 Alpha virt. eigenvalues --    3.33291   3.35981   3.37010   3.38003   3.39888
 Alpha virt. eigenvalues --    3.40619   3.40966   3.41560   3.42952   3.43606
 Alpha virt. eigenvalues --    3.45180   3.45446   3.46299   3.49383   3.55512
 Alpha virt. eigenvalues --    3.56531   3.57144   3.58706   3.61870   3.62949
 Alpha virt. eigenvalues --    3.63385   3.64510   3.66613   3.68796   3.69138
 Alpha virt. eigenvalues --    3.69739   3.70144   3.71493   3.73082   3.73948
 Alpha virt. eigenvalues --    3.76339   3.77790   3.79137   3.80109   3.80283
 Alpha virt. eigenvalues --    3.86131   3.90859   4.01329   4.03578   4.13709
 Alpha virt. eigenvalues --    4.27028   4.28873   4.32177   4.34684   4.34863
 Alpha virt. eigenvalues --    4.35259   4.37485   4.38721   4.40673   4.41476
 Alpha virt. eigenvalues --    4.47270   4.47646   4.52823   4.53197   4.57464
 Alpha virt. eigenvalues --    4.60779   4.80160   4.96972   5.18731   5.18760
 Alpha virt. eigenvalues --    5.20043   5.20058   5.57961   5.58540   5.59099
 Alpha virt. eigenvalues --    5.60211   6.30205   6.30594   6.32922   6.34122
 Alpha virt. eigenvalues --    6.34907   6.35391   6.35949   6.36472   6.62922
 Alpha virt. eigenvalues --    6.63446   6.81503   6.81710   6.83677   6.84186
 Alpha virt. eigenvalues --    7.16188   7.17634   7.79456   7.90296   7.90995
 Alpha virt. eigenvalues --   15.66373  22.40596  22.41665  22.42420  22.45713
 Alpha virt. eigenvalues --   22.66417  22.69623  22.79656  38.38588  38.50799
 Alpha virt. eigenvalues --   38.63174  43.93500  43.95825  49.77858
          Condensed to atoms (all electrons):
               1          2          3          4          5          6
     1  H    0.698430   0.328603   0.019175  -0.005896  -0.005978   0.001804
     2  Rh   0.328603  16.002544   0.270659  -0.036560  -0.038727  -0.030181
     3  P    0.019175   0.270659  13.745176   0.335630   0.342479   0.322678
     4  C   -0.005896  -0.036560   0.335630   5.022965  -0.039257  -0.035955
     5  C   -0.005978  -0.038727   0.342479  -0.039257   5.016517  -0.033735
     6  C    0.001804  -0.030181   0.322678  -0.035955  -0.033735   5.030789
     7  H   -0.000012  -0.003049  -0.024674  -0.000522   0.004059   0.401650
     8  H   -0.000015   0.006610  -0.026087  -0.004711  -0.005234   0.393938
     9  H   -0.000045  -0.002329  -0.024271   0.004103  -0.000783   0.400811
    10  H    0.000020  -0.006441  -0.019447   0.398971   0.004553  -0.001144
    11  H    0.000178  -0.002642  -0.024100   0.401898  -0.001062   0.004255
    12  H    0.000118   0.007932  -0.028991   0.396431  -0.005942  -0.005333
    13  H    0.000501  -0.001901  -0.022449  -0.001141   0.399972   0.004124
    14  H    0.000221  -0.005340  -0.019765   0.004427   0.397495  -0.001693
    15  H    0.000098   0.007966  -0.030055  -0.005651   0.395995  -0.005961
    16  C    0.000434   0.195114  -0.001627   0.000824  -0.000759  -0.000852
    17  O   -0.003199  -0.015710  -0.001082  -0.000016   0.000672   0.000046
    18  C   -0.000257   0.174951   0.001107  -0.000537   0.000839  -0.000712
    19  C    0.003967   0.133534  -0.012674   0.000659   0.000045   0.000245
    20  H    0.000665  -0.018976   0.000454  -0.000025   0.000002  -0.000033
    21  H   -0.004281  -0.013274   0.000339  -0.000072   0.000003   0.000012
    22  H   -0.008504  -0.012906  -0.004290   0.001505   0.000019  -0.000085
    23  H    0.001578  -0.020574  -0.001985   0.000764  -0.000063   0.000436
    24  C   -0.019217   0.113721  -0.002994   0.000635   0.000319  -0.007894
    25  O    0.000291   0.002954  -0.004439   0.000032   0.000040   0.002216
               7          8          9         10         11         12
     1  H   -0.000012  -0.000015  -0.000045   0.000020   0.000178   0.000118
     2  Rh  -0.003049   0.006610  -0.002329  -0.006441  -0.002642   0.007932
     3  P   -0.024674  -0.026087  -0.024271  -0.019447  -0.024100  -0.028991
     4  C   -0.000522  -0.004711   0.004103   0.398971   0.401898   0.396431
     5  C    0.004059  -0.005234  -0.000783   0.004553  -0.001062  -0.005942
     6  C    0.401650   0.393938   0.400811  -0.001144   0.004255  -0.005333
     7  H    0.496514  -0.019864  -0.015575   0.000775  -0.000132  -0.000294
     8  H   -0.019864   0.519375  -0.019483  -0.000163  -0.000119   0.003904
     9  H   -0.015575  -0.019483   0.495474  -0.000088  -0.000079  -0.000110
    10  H    0.000775  -0.000163  -0.000088   0.498598  -0.015238  -0.020941
    11  H   -0.000132  -0.000119  -0.000079  -0.015238   0.491694  -0.020025
    12  H   -0.000294   0.003904  -0.000110  -0.020941  -0.020025   0.522473
    13  H   -0.000076  -0.000075  -0.000110  -0.000089   0.000920  -0.000106
    14  H   -0.000089  -0.000110   0.000708  -0.000081  -0.000085  -0.000068
    15  H   -0.000104   0.004072  -0.000209  -0.000101  -0.000144   0.003749
    16  C    0.000010   0.000032  -0.000405  -0.000126   0.000139   0.000017
    17  O   -0.000001  -0.000001  -0.000017   0.000000  -0.000001   0.000000
    18  C   -0.000261   0.000015   0.000080   0.001804  -0.000593   0.000122
    19  C   -0.000040  -0.000008  -0.000014  -0.000097  -0.000123  -0.000026
    20  H    0.000005   0.000000  -0.000000   0.000007   0.000000   0.000001
    21  H    0.000001   0.000000   0.000000  -0.000001   0.000014   0.000000
    22  H   -0.000010  -0.000005   0.000006  -0.000903  -0.000204  -0.000065
    23  H    0.000077  -0.000014  -0.000017  -0.000409   0.000056  -0.000053
    24  C   -0.000405   0.000421  -0.000036   0.000119  -0.000023  -0.000029
    25  O   -0.000096  -0.000036  -0.000133  -0.000014  -0.000000  -0.000002
              13         14         15         16         17         18
     1  H    0.000501   0.000221   0.000098   0.000434  -0.003199  -0.000257
     2  Rh  -0.001901  -0.005340   0.007966   0.195114  -0.015710   0.174951
     3  P   -0.022449  -0.019765  -0.030055  -0.001627  -0.001082   0.001107
     4  C   -0.001141   0.004427  -0.005651   0.000824  -0.000016  -0.000537
     5  C    0.399972   0.397495   0.395995  -0.000759   0.000672   0.000839
     6  C    0.004124  -0.001693  -0.005961  -0.000852   0.000046  -0.000712
     7  H   -0.000076  -0.000089  -0.000104   0.000010  -0.000001  -0.000261
     8  H   -0.000075  -0.000110   0.004072   0.000032  -0.000001   0.000015
     9  H   -0.000110   0.000708  -0.000209  -0.000405  -0.000017   0.000080
    10  H   -0.000089  -0.000081  -0.000101  -0.000126   0.000000   0.001804
    11  H    0.000920  -0.000085  -0.000144   0.000139  -0.000001  -0.000593
    12  H   -0.000106  -0.000068   0.003749   0.000017   0.000000   0.000122
    13  H    0.491193  -0.013850  -0.020540  -0.000891  -0.000232   0.000104
    14  H   -0.013850   0.498110  -0.020733   0.001576  -0.000071  -0.000064
    15  H   -0.020540  -0.020733   0.525703   0.000098  -0.000025  -0.000011
    16  C   -0.000891   0.001576   0.000098   5.258087   0.548208  -0.010326
    17  O   -0.000232  -0.000071  -0.000025   0.548208   7.600833   0.000345
    18  C    0.000104  -0.000064  -0.000011  -0.010326   0.000345   5.074173
    19  C   -0.000022  -0.000003  -0.000007   0.002136  -0.000627   0.348330
    20  H    0.000001   0.000001   0.000000  -0.000968   0.000068  -0.044418
    21  H   -0.000001  -0.000001   0.000000  -0.002995   0.000136  -0.029256
    22  H   -0.000021   0.000003  -0.000005   0.000682  -0.000010   0.408894
    23  H    0.000002   0.000002  -0.000000  -0.000075  -0.000007   0.422634
    24  C   -0.000056  -0.000167   0.000011   0.012596  -0.002287  -0.017555
    25  O   -0.000000  -0.000012  -0.000001  -0.003408   0.000140  -0.001580
              19         20         21         22         23         24
     1  H    0.003967   0.000665  -0.004281  -0.008504   0.001578  -0.019217
     2  Rh   0.133534  -0.018976  -0.013274  -0.012906  -0.020574   0.113721
     3  P   -0.012674   0.000454   0.000339  -0.004290  -0.001985  -0.002994
     4  C    0.000659  -0.000025  -0.000072   0.001505   0.000764   0.000635
     5  C    0.000045   0.000002   0.000003   0.000019  -0.000063   0.000319
     6  C    0.000245  -0.000033   0.000012  -0.000085   0.000436  -0.007894
     7  H   -0.000040   0.000005   0.000001  -0.000010   0.000077  -0.000405
     8  H   -0.000008   0.000000   0.000000  -0.000005  -0.000014   0.000421
     9  H   -0.000014  -0.000000   0.000000   0.000006  -0.000017  -0.000036
    10  H   -0.000097   0.000007  -0.000001  -0.000903  -0.000409   0.000119
    11  H   -0.000123   0.000000   0.000014  -0.000204   0.000056  -0.000023
    12  H   -0.000026   0.000001   0.000000  -0.000065  -0.000053  -0.000029
    13  H   -0.000022   0.000001  -0.000001  -0.000021   0.000002  -0.000056
    14  H   -0.000003   0.000001  -0.000001   0.000003   0.000002  -0.000167
    15  H   -0.000007   0.000000   0.000000  -0.000005  -0.000000   0.000011
    16  C    0.002136  -0.000968  -0.002995   0.000682  -0.000075   0.012596
    17  O   -0.000627   0.000068   0.000136  -0.000010  -0.000007  -0.002287
    18  C    0.348330  -0.044418  -0.029256   0.408894   0.422634  -0.017555
    19  C    5.018888   0.436953   0.418824  -0.021497  -0.038163  -0.012179
    20  H    0.436953   0.513976  -0.025470   0.002278  -0.004961  -0.004942
    21  H    0.418824  -0.025470   0.512909  -0.005240   0.002252   0.001516
    22  H   -0.021497   0.002278  -0.005240   0.523789  -0.028753   0.003289
    23  H   -0.038163  -0.004961   0.002252  -0.028753   0.536200  -0.008858
    24  C   -0.012179  -0.004942   0.001516   0.003289  -0.008858   5.419121
    25  O   -0.000161   0.000764  -0.000050  -0.000043   0.001296   0.531200
              25
     1  H    0.000291
     2  Rh   0.002954
     3  P   -0.004439
     4  C    0.000032
     5  C    0.000040
     6  C    0.002216
     7  H   -0.000096
     8  H   -0.000036
     9  H   -0.000133
    10  H   -0.000014
    11  H   -0.000000
    12  H   -0.000002
    13  H   -0.000000
    14  H   -0.000012
    15  H   -0.000001
    16  C   -0.003408
    17  O    0.000140
    18  C   -0.001580
    19  C   -0.000161
    20  H    0.000764
    21  H   -0.000050
    22  H   -0.000043
    23  H    0.001296
    24  C    0.531200
    25  O    7.576895
 Mulliken charges:
               1
     1  H   -0.008680
     2  Rh  -0.035979
     3  P    0.211233
     4  C   -0.438500
     5  C   -0.431471
     6  C   -0.439428
     7  H    0.162112
     8  H    0.147556
     9  H    0.162521
    10  H    0.160436
    11  H    0.165416
    12  H    0.147237
    13  H    0.164743
    14  H    0.159590
    15  H    0.145855
    16  C    0.002481
    17  O   -0.127160
    18  C   -0.327826
    19  C   -0.277938
    20  H    0.144618
    21  H    0.144635
    22  H    0.142074
    23  H    0.138635
    24  C   -0.006306
    25  O   -0.105853
 Sum of Mulliken charges =  -0.00000
 Mulliken charges with hydrogens summed into heavy atoms:
               1
     2  Rh  -0.044660
     3  P    0.211233
     4  C    0.034589
     5  C    0.038716
     6  C    0.032760
    16  C    0.002481
    17  O   -0.127160
    18  C   -0.047117
    19  C    0.011315
    24  C   -0.006306
    25  O   -0.105853
 Electronic spatial extent (au):  <R**2>=           2549.3922
 Charge=             -0.0000 electrons
 Dipole moment (field-independent basis, Debye):
    X=             -4.8295    Y=             -1.2070    Z=              0.3134  Tot=              4.9879
 Quadrupole moment (field-independent basis, Debye-Ang):
   XX=            -83.7571   YY=            -93.9788   ZZ=            -91.8379
   XY=             -1.9684   XZ=             -0.0371   YZ=              0.8176
 Traceless Quadrupole moment (field-independent basis, Debye-Ang):
   XX=              6.1008   YY=             -4.1209   ZZ=             -1.9800
   XY=             -1.9684   XZ=             -0.0371   YZ=              0.8176
 Octapole moment (field-independent basis, Debye-Ang**2):
  XXX=              8.8057  YYY=             -8.5520  ZZZ=            -12.1066  XYY=             -5.2152
  XXY=             -0.0420  XXZ=              0.6818  XZZ=              2.2359  YZZ=              8.6864
  YYZ=              4.2405  XYZ=             -0.5395
 Hexadecapole moment (field-independent basis, Debye-Ang**3):
 XXXX=          -1599.1948 YYYY=          -1034.8071 ZZZZ=           -782.2028 XXXY=              6.5990
 XXXZ=              8.7445 YYYX=             -6.3881 YYYZ=            -21.8556 ZZZX=             -8.1831
 ZZZY=              6.0424 XXYY=           -464.1444 XXZZ=           -408.1566 YYZZ=           -291.9543
 XXYZ=             -8.4731 YYXZ=             10.4116 ZZXY=             14.3287
 N-N= 8.767409141380D+02 E-N=-3.791647857498D+03  KE= 8.047586829287D+02
 No NMR shielding tensors so no spin-rotation constants.
 Leave Link  601 at Tue Oct  4 16:03:17 2022, MaxMem=  2952790016 cpu:               5.3 elap:               0.5
 (Enter /mnt/data/applications/G16/g16/l701.exe)
 ... and contract with generalized density number  0.
 Compute integral first derivatives.
 R6Disp: Adding Grimme-D2 dispersion energy 1st derivatives to the gradient.
   1 Symmetry operations used in ECPInt.
 ECPInt:  NShTT=   16653 NPrTT=   49115 LenC2=   15842 LenP2D=   35641.
 LDataN:  DoStor=T MaxTD1= 8 Len=  415
 D1PCM: PCM CHGder 1st derivatives, ID1Alg=3 FixD1E=F DoIter=F DoCFld=F I1PDM=0.
 GePol: Maximum number of non-zero 1st derivatives   =     421
 Leave Link  701 at Tue Oct  4 16:03:26 2022, MaxMem=  2952790016 cpu:             104.5 elap:               8.8
 (Enter /mnt/data/applications/G16/g16/l702.exe)
 L702 exits ... SP integral derivatives will be done elsewhere.
 Leave Link  702 at Tue Oct  4 16:03:26 2022, MaxMem=  2952790016 cpu:               0.2 elap:               0.0
 (Enter /mnt/data/applications/G16/g16/l703.exe)
 Integral derivatives from FoFJK, PRISM(SPDF).
 Compute integral first derivatives, UseDBF=F ICtDFT=           0.
 Calling FoFJK, ICntrl=      2127 FMM=F ISym2X=0 I1Cent= 0 IOpClX= 0 NMat=1 NMatS=1 NMatT=0.
 FoFJK:  IHMeth= 1 ICntrl=    2127 DoSepK=T KAlg= 0 I1Cent=           0 FoldK=F
 IRaf=         1 NMat=       1 IRICut=       1 DoRegI=T DoRafI=F ISym2E= 0 IDoP0=0 IntGTp=1.
 FoFCou: FMM=F IPFlag=           0 FMFlag=      100000 FMFlg1=         800
         NFxFlg=           0 DoJE=F BraDBF=F KetDBF=F FulRan=T
         wScrn=  0.000000 ICntrl=      2527 IOpCl=  0 I1Cent=           0 NGrid=           0
         NMat0=    1 NMatS0=      1 NMatT0=    0 NMatD0=    1 NMtDS0=    0 NMtDT0=    0
 Symmetry not used in FoFCou.
 Defaulting to unpruned grid for atomic number  45.
 Defaulting to unpruned grid for atomic number  45.
 Defaulting to unpruned grid for atomic number  45.
 Defaulting to unpruned grid for atomic number  45.
 Defaulting to unpruned grid for atomic number  45.
 Defaulting to unpruned grid for atomic number  45.
 Defaulting to unpruned grid for atomic number  45.
 Defaulting to unpruned grid for atomic number  45.
 Defaulting to unpruned grid for atomic number  45.
 Defaulting to unpruned grid for atomic number  45.
 Defaulting to unpruned grid for atomic number  45.
 Defaulting to unpruned grid for atomic number  45.
 Leave Link  703 at Tue Oct  4 16:06:21 2022, MaxMem=  2952790016 cpu:            2098.6 elap:             175.4
 (Enter /mnt/data/applications/G16/g16/l716.exe)
 Dipole        =-1.90005956D+00-4.74869372D-01 1.23292759D-01
 ***** Axes restored to original set *****
 -------------------------------------------------------------------
 Center     Atomic                   Forces (Hartrees/Bohr)
 Number     Number              X              Y              Z
 -------------------------------------------------------------------
      1        1          -0.000048786   -0.000008816   -0.000273328
      2       45          -0.001159412    0.000204036    0.000603483
      3       15           0.000408132   -0.000030544   -0.000176971
      4        6           0.000011642    0.000017275    0.000014120
      5        6           0.000019237   -0.000027823    0.000010975
      6        6           0.000079477    0.000001058   -0.000014298
      7        1          -0.000000041   -0.000009386   -0.000002662
      8        1           0.000015907    0.000004190   -0.000037838
      9        1          -0.000000719    0.000000160    0.000005851
     10        1           0.000007941   -0.000007054   -0.000002798
     11        1           0.000008250    0.000006130   -0.000009422
     12        1           0.000010690    0.000004678    0.000005960
     13        1          -0.000001303    0.000004420   -0.000005734
     14        1          -0.000001266    0.000007733    0.000006155
     15        1           0.000014713   -0.000019535    0.000002987
     16        6           0.000386484    0.000291319   -0.000388686
     17        8          -0.000064946   -0.000011709    0.000086602
     18        6           0.000098035   -0.000122581   -0.000267346
     19        6           0.000091891    0.000052289   -0.000160403
     20        1           0.000002922    0.000029073   -0.000029259
     21        1           0.000050104   -0.000055744    0.000018686
     22        1           0.000034346   -0.000056211    0.000016614
     23        1          -0.000046412    0.000028190   -0.000009307
     24        6           0.000085787   -0.000357840    0.000710183
     25        8          -0.000002673    0.000056692   -0.000103562
 -------------------------------------------------------------------
 Cartesian Forces:  Max     0.001159412 RMS     0.000207743
 Leave Link  716 at Tue Oct  4 16:06:21 2022, MaxMem=  2952790016 cpu:               0.3 elap:               0.0
 (Enter /mnt/data/applications/G16/g16/l103.exe)

 GradGradGradGradGradGradGradGradGradGradGradGradGradGradGradGradGradGrad
 Berny optimization.
 FormGI is forming the generalized inverse of G from B-inverse, IUseBI=4.
 Internal  Forces:  Max     0.000669448 RMS     0.000107224
 Search for a local minimum.
 Step number   1 out of a maximum of  150
 All quantities printed in internal units (Hartrees-Bohrs-Radians)
 RMS Force = .10722D-03 SwitMx=.10000D-02 MixMth= 2
 Mixed Optimization -- En-DIIS/RFO-DIIS
 Second derivative matrix not updated -- first step.
 ITU=  0
     Eigenvalues ---    0.00230   0.00627   0.00879   0.00907   0.00911
     Eigenvalues ---    0.02690   0.02926   0.03184   0.03428   0.03612
     Eigenvalues ---    0.03658   0.03680   0.04157   0.05135   0.05135
     Eigenvalues ---    0.05178   0.05178   0.05875   0.05879   0.05915
     Eigenvalues ---    0.06154   0.06193   0.06225   0.06475   0.06801
     Eigenvalues ---    0.06888   0.07938   0.08781   0.11229   0.12915
     Eigenvalues ---    0.13077   0.13922   0.14101   0.14157   0.14998
     Eigenvalues ---    0.16000   0.16000   0.16000   0.16000   0.16000
     Eigenvalues ---    0.16000   0.16000   0.16000   0.16000   0.16000
     Eigenvalues ---    0.16737   0.21452   0.22255   0.22968   0.24418
     Eigenvalues ---    0.24488   0.24642   0.24666   0.34543   0.34549
     Eigenvalues ---    0.34553   0.34670   0.34678   0.34689   0.34726
     Eigenvalues ---    0.34730   0.34743   0.35500   0.35593   0.35637
     Eigenvalues ---    0.35717   0.43273   1.42032   1.44508
 RFO step:  Lambda=-1.11319684D-05 EMin= 2.30000000D-03
 Linear search not attempted -- first point.
 Iteration  1 RMS(Cart)=  0.00126001 RMS(Int)=  0.00000155
 Iteration  2 RMS(Cart)=  0.00000206 RMS(Int)=  0.00000068
 Iteration  3 RMS(Cart)=  0.00000000 RMS(Int)=  0.00000068
 ITry= 1 IFail=0 DXMaxC= 5.25D-03 DCOld= 1.00D+10 DXMaxT= 5.00D-02 DXLimC= 3.00D+00 Rises=F
 Variable       Old X    -DE/DX   Delta X   Delta X   Delta X     New X
                                 (Linear)    (Quad)   (Total)
    R1        3.01352   0.00027   0.00000   0.00159   0.00159   3.01512
    R2        4.42457  -0.00059   0.00000  -0.00419  -0.00419   4.42038
    R3        3.61664   0.00035   0.00000   0.00152   0.00152   3.61815
    R4        4.15950   0.00023   0.00000   0.00213   0.00213   4.16163
    R5        4.16194   0.00018   0.00000   0.00151   0.00151   4.16344
    R6        3.66179   0.00067   0.00000   0.00312   0.00312   3.66491
    R7        3.43766  -0.00004   0.00000  -0.00017  -0.00017   3.43749
    R8        3.43829  -0.00005   0.00000  -0.00019  -0.00019   3.43810
    R9        3.44227  -0.00008   0.00000  -0.00032  -0.00032   3.44196
   R10        2.06122   0.00001   0.00000   0.00003   0.00003   2.06125
   R11        2.06094   0.00001   0.00000   0.00002   0.00002   2.06096
   R12        2.06424  -0.00001   0.00000  -0.00002  -0.00002   2.06422
   R13        2.06115   0.00001   0.00000   0.00002   0.00002   2.06117
   R14        2.06183   0.00001   0.00000   0.00003   0.00003   2.06186
   R15        2.06413  -0.00001   0.00000  -0.00004  -0.00004   2.06409
   R16        2.06214   0.00001   0.00000   0.00002   0.00002   2.06215
   R17        2.06406  -0.00002   0.00000  -0.00005  -0.00005   2.06401
   R18        2.06201   0.00001   0.00000   0.00003   0.00003   2.06203
   R19        2.15378  -0.00003   0.00000  -0.00002  -0.00002   2.15376
   R20        2.64875   0.00001   0.00000   0.00006   0.00006   2.64882
   R21        2.04652  -0.00002   0.00000  -0.00007  -0.00007   2.04645
   R22        2.04870  -0.00002   0.00000  -0.00005  -0.00005   2.04865
   R23        2.04722  -0.00002   0.00000  -0.00007  -0.00007   2.04716
   R24        2.04526  -0.00002   0.00000  -0.00007  -0.00007   2.04519
   R25        2.14764  -0.00012   0.00000  -0.00008  -0.00008   2.14756
    A1        1.41139   0.00001   0.00000  -0.00093  -0.00093   1.41046
    A2        1.45862  -0.00004   0.00000  -0.00061  -0.00061   1.45801
    A3        1.48676  -0.00008   0.00000  -0.00148  -0.00148   1.48528
    A4        1.49654  -0.00007   0.00000  -0.00099  -0.00100   1.49554
    A5        1.89883   0.00029   0.00000   0.00070   0.00069   1.89953
    A6        1.75678  -0.00001   0.00000  -0.00005  -0.00005   1.75674
    A7        2.38876  -0.00004   0.00000  -0.00047  -0.00047   2.38829
    A8        1.69569  -0.00001   0.00000   0.00056   0.00056   1.69625
    A9        2.55221  -0.00034   0.00000  -0.00194  -0.00195   2.55026
   A10        1.92265  -0.00030   0.00000  -0.00133  -0.00133   1.92133
   A11        1.73098   0.00011   0.00000   0.00194   0.00194   1.73292
   A12        1.62399   0.00002   0.00000   0.00032   0.00032   1.62432
   A13        1.64554   0.00003   0.00000   0.00043   0.00043   1.64597
   A14        2.02169   0.00001   0.00000   0.00012   0.00012   2.02182
   A15        1.99457   0.00002   0.00000   0.00012   0.00012   1.99469
   A16        2.04623  -0.00006   0.00000  -0.00059  -0.00059   2.04564
   A17        1.79080  -0.00001   0.00000   0.00016   0.00016   1.79095
   A18        1.78617   0.00003   0.00000   0.00017   0.00017   1.78634
   A19        1.78880   0.00002   0.00000   0.00011   0.00011   1.78890
   A20        1.90938  -0.00000   0.00000  -0.00000  -0.00000   1.90937
   A21        1.90659  -0.00000   0.00000  -0.00001  -0.00001   1.90658
   A22        1.94599  -0.00002   0.00000  -0.00011  -0.00011   1.94588
   A23        1.88909   0.00000   0.00000   0.00002   0.00002   1.88912
   A24        1.90476   0.00001   0.00000   0.00004   0.00004   1.90480
   A25        1.90716   0.00001   0.00000   0.00007   0.00007   1.90722
   A26        1.90379   0.00001   0.00000   0.00006   0.00006   1.90385
   A27        1.90551   0.00001   0.00000   0.00009   0.00009   1.90560
   A28        1.95172  -0.00003   0.00000  -0.00022  -0.00022   1.95151
   A29        1.88596  -0.00000   0.00000   0.00002   0.00002   1.88598
   A30        1.90866   0.00001   0.00000   0.00002   0.00002   1.90869
   A31        1.90703   0.00001   0.00000   0.00003   0.00003   1.90707
   A32        1.90990   0.00001   0.00000   0.00007   0.00007   1.90997
   A33        1.94828  -0.00005   0.00000  -0.00038  -0.00038   1.94791
   A34        1.90909   0.00001   0.00000   0.00009   0.00009   1.90918
   A35        1.90322   0.00002   0.00000   0.00008   0.00008   1.90330
   A36        1.88863  -0.00000   0.00000   0.00007   0.00007   1.88869
   A37        1.90375   0.00002   0.00000   0.00008   0.00008   1.90383
   A38        1.92295   0.00009   0.00000   0.00064   0.00064   1.92359
   A39        1.95371  -0.00007   0.00000  -0.00049  -0.00049   1.95322
   A40        2.09015   0.00001   0.00000  -0.00005  -0.00005   2.09010
   A41        2.09030   0.00001   0.00000   0.00033   0.00033   2.09063
   A42        2.00062  -0.00002   0.00000  -0.00027  -0.00027   2.00035
   A43        1.94045  -0.00007   0.00000  -0.00027  -0.00027   1.94018
   A44        1.91229   0.00009   0.00000   0.00069   0.00069   1.91298
   A45        2.09502   0.00002   0.00000   0.00017   0.00017   2.09520
   A46        2.09507  -0.00002   0.00000  -0.00015  -0.00015   2.09492
   A47        2.00408  -0.00002   0.00000  -0.00034  -0.00034   2.00375
   A48        3.10708  -0.00000   0.00000  -0.00037  -0.00037   3.10671
   A49        3.09698  -0.00011   0.00000  -0.00214  -0.00214   3.09485
   A50        3.12556   0.00005   0.00000   0.00089   0.00089   3.12645
   A51        3.10280  -0.00007   0.00000  -0.00128  -0.00128   3.10152
   A52        3.18069  -0.00017   0.00000  -0.00328  -0.00328   3.17741
   A53        3.12997   0.00005   0.00000   0.00100   0.00100   3.13096
    D1        1.01625  -0.00002   0.00000  -0.00042  -0.00042   1.01583
    D2       -1.06023  -0.00003   0.00000  -0.00083  -0.00083  -1.06106
    D3        3.12959  -0.00002   0.00000  -0.00059  -0.00059   3.12900
    D4        2.41167  -0.00013   0.00000  -0.00158  -0.00158   2.41008
    D5        0.33519  -0.00013   0.00000  -0.00199  -0.00199   0.33320
    D6       -1.75817  -0.00013   0.00000  -0.00175  -0.00176  -1.75993
    D7       -0.43753   0.00006   0.00000   0.00129   0.00129  -0.43623
    D8       -2.51400   0.00006   0.00000   0.00089   0.00089  -2.51311
    D9        1.67582   0.00006   0.00000   0.00112   0.00112   1.67694
   D10       -0.26919   0.00005   0.00000   0.00196   0.00196  -0.26723
   D11       -2.34566   0.00005   0.00000   0.00155   0.00155  -2.34411
   D12        1.84416   0.00005   0.00000   0.00179   0.00179   1.84595
   D13       -2.08656   0.00004   0.00000   0.00086   0.00086  -2.08570
   D14        2.12015   0.00004   0.00000   0.00045   0.00045   2.12060
   D15        0.02679   0.00004   0.00000   0.00068   0.00068   0.02747
   D16       -0.46166   0.00001   0.00000   0.00052   0.00052  -0.46114
   D17       -2.70967   0.00002   0.00000   0.00075   0.00075  -2.70892
   D18        0.93025   0.00000   0.00000  -0.00073  -0.00073   0.92952
   D19       -1.31777   0.00002   0.00000  -0.00050  -0.00050  -1.31827
   D20       -1.69820   0.00001   0.00000   0.00288   0.00288  -1.69532
   D21        2.33698   0.00003   0.00000   0.00311   0.00310   2.34008
   D22        2.63843  -0.00001   0.00000  -0.00010  -0.00010   2.63833
   D23        0.39042   0.00001   0.00000   0.00013   0.00013   0.39055
   D24        2.73169   0.00001   0.00000   0.00080   0.00080   2.73248
   D25        0.49777   0.00002   0.00000   0.00092   0.00092   0.49869
   D26       -2.29822  -0.00004   0.00000  -0.00155  -0.00155  -2.29978
   D27        1.75104  -0.00002   0.00000  -0.00144  -0.00144   1.74961
   D28        1.30831   0.00004   0.00000   0.00166   0.00166   1.30997
   D29       -0.92561   0.00005   0.00000   0.00178   0.00178  -0.92383
   D30       -0.46167  -0.00004   0.00000  -0.00040  -0.00040  -0.46207
   D31       -2.69559  -0.00003   0.00000  -0.00028  -0.00028  -2.69587
   D32        1.07531  -0.00002   0.00000  -0.00039  -0.00039   1.07491
   D33       -0.98967  -0.00002   0.00000  -0.00041  -0.00041  -0.99009
   D34       -3.09934  -0.00002   0.00000  -0.00042  -0.00042  -3.09976
   D35       -3.02274  -0.00000   0.00000  -0.00005  -0.00005  -3.02279
   D36        1.19546  -0.00000   0.00000  -0.00007  -0.00007   1.19539
   D37       -0.91421  -0.00000   0.00000  -0.00007  -0.00007  -0.91428
   D38       -1.17254   0.00002   0.00000   0.00016   0.00016  -1.17238
   D39        3.04566   0.00002   0.00000   0.00014   0.00014   3.04580
   D40        0.93599   0.00002   0.00000   0.00013   0.00013   0.93613
   D41        1.00829   0.00003   0.00000   0.00044   0.00044   1.00874
   D42       -1.04902   0.00002   0.00000   0.00033   0.00033  -1.04869
   D43        3.12167   0.00002   0.00000   0.00037   0.00037   3.12204
   D44       -1.19448   0.00001   0.00000   0.00010   0.00010  -1.19438
   D45        3.03138   0.00000   0.00000  -0.00001  -0.00001   3.03137
   D46        0.91889   0.00000   0.00000   0.00003   0.00003   0.91892
   D47       -3.04266  -0.00002   0.00000  -0.00015  -0.00015  -3.04281
   D48        1.18321  -0.00003   0.00000  -0.00026  -0.00026   1.18294
   D49       -0.92928  -0.00003   0.00000  -0.00022  -0.00022  -0.92951
   D50       -1.04668  -0.00001   0.00000  -0.00010  -0.00010  -1.04678
   D51        3.12807   0.00000   0.00000  -0.00001  -0.00001   3.12807
   D52        1.01952   0.00001   0.00000   0.00007   0.00007   1.01959
   D53        1.18568  -0.00001   0.00000  -0.00020  -0.00020   1.18547
   D54       -0.92276   0.00000   0.00000  -0.00011  -0.00011  -0.92287
   D55       -3.03131   0.00001   0.00000  -0.00003  -0.00003  -3.03134
   D56        3.03743  -0.00001   0.00000   0.00004   0.00004   3.03747
   D57        0.92899   0.00000   0.00000   0.00014   0.00014   0.92913
   D58       -1.17956   0.00001   0.00000   0.00022   0.00022  -1.17934
   D59       -2.66379   0.00004   0.00000   0.00055   0.00055  -2.66324
   D60        0.01446  -0.00002   0.00000  -0.00031  -0.00031   0.01415
   D61       -0.01732   0.00002   0.00000   0.00051   0.00051  -0.01680
   D62        2.66093  -0.00003   0.00000  -0.00035  -0.00035   2.66058
         Item               Value     Threshold  Converged?
 Maximum Force            0.000669     0.000450     NO 
 RMS     Force            0.000107     0.000300     YES
 Maximum Displacement     0.005253     0.001800     NO 
 RMS     Displacement     0.001261     0.001200     NO 
 Predicted change in Energy=-5.565291D-06
 Lowest energy point so far.  Saving SCF results.
 GradGradGradGradGradGradGradGradGradGradGradGradGradGradGradGradGradGrad

 Leave Link  103 at Tue Oct  4 16:06:21 2022, MaxMem=  2952790016 cpu:               0.6 elap:               0.1
 (Enter /mnt/data/applications/G16/g16/l202.exe)
                          Input orientation:                          
 ---------------------------------------------------------------------
 Center     Atomic      Atomic             Coordinates (Angstroms)
 Number     Number       Type             X           Y           Z
 ---------------------------------------------------------------------
      1          1           0        0.276585    0.439599   -1.713200
      2         45           0        0.657875    0.026116   -0.220093
      3         15           0       -1.673253    0.016018   -0.026655
      4          6           0       -2.557729   -1.102699   -1.155850
      5          6           0       -2.458990    1.622236   -0.362467
      6          6           0       -2.372439   -0.433603    1.593992
      7          1           0       -2.053050   -1.442613    1.859895
      8          1           0       -3.463978   -0.395757    1.585594
      9          1           0       -1.997491    0.254144    2.353660
     10          1           0       -2.253283   -2.131408   -0.958777
     11          1           0       -2.291183   -0.859039   -2.184940
     12          1           0       -3.640157   -1.020096   -1.034496
     13          1           0       -2.188541    1.948312   -1.367560
     14          1           0       -2.081332    2.361172    0.345924
     15          1           0       -3.546751    1.567061   -0.280126
     16          6           0        1.279554    1.833584   -0.108578
     17          8           0        1.601520    2.926588   -0.083230
     18          6           0        1.005001   -1.977880   -1.064694
     19          6           0        2.199383   -1.248532   -1.143735
     20          1           0        3.006032   -1.451882   -0.449815
     21          1           0        2.509527   -0.817722   -2.086878
     22          1           0        0.401807   -2.119207   -1.952914
     23          1           0        0.897604   -2.755968   -0.317489
     24          6           0        1.053913   -0.553253    1.587866
     25          8           0        1.268723   -0.904493    2.647102
 ---------------------------------------------------------------------
                    Distance matrix (angstroms):
                    1          2          3          4          5
     1  H    0.000000
     2  Rh   1.595531   0.000000
     3  P    2.612608   2.339162   0.000000
     4  C    3.274547   3.534116   1.819040   0.000000
     5  C    3.272076   3.504670   1.819364   2.839802   0.000000
     6  C    4.326352   3.561607   1.821405   2.836134   2.839313
     7  H    4.662288   3.719224   2.414730   3.076518   3.807490
     8  H    5.056844   4.519751   2.444504   2.972637   2.979470
     9  H    4.663171   3.705019   2.414070   3.804150   3.076037
    10  H    3.685032   3.698027   2.411789   1.090765   3.806277
    11  H    2.915893   3.652543   2.409514   1.090616   3.083227
    12  H    4.234645   4.497876   2.440899   1.092337   2.971312
    13  H    2.910761   3.621271   2.407760   3.080550   1.090724
    14  H    3.673174   3.643641   2.409376   3.805350   1.091087
    15  H    4.235891   4.478504   2.445399   2.978704   1.092268
    16  C    2.350309   1.914644   3.468332   4.944014   3.753110
    17  O    3.255360   3.053184   4.381638   5.889399   4.273996
    18  C    2.606790   2.202237   3.496599   3.669782   5.045116
    19  C    2.621303   2.203200   4.224247   4.759362   5.527397
    20  H    3.552987   2.784078   4.922347   5.619239   6.270908
    21  H    2.589695   2.761443   4.736591   5.159953   5.797684
    22  H    2.573059   2.769594   3.546200   3.229157   4.971124
    23  H    3.541937   2.794091   3.791806   3.921157   5.517011
    24  C    3.533698   1.939388   3.219966   4.568789   4.569140
    25  O    4.669385   3.075707   4.080630   5.398470   5.416429
                    6          7          8          9         10
     6  C    0.000000
     7  H    1.091244   0.000000
     8  H    1.092227   1.778164   0.000000
     9  H    1.091182   1.768014   1.778449   0.000000
    10  H    3.068121   2.908512   3.309394   4.090052   0.000000
    11  H    3.803672   4.093649   3.975802   4.682342   1.767438
    12  H    2.976581   3.327902   2.699206   3.975128   1.778811
    13  H    3.805014   4.683289   3.980266   4.093188   4.100660
    14  H    3.074604   4.094105   3.324027   2.911633   4.681356
    15  H    2.982278   3.983588   2.709320   3.325776   3.976468
    16  C    4.623411   5.070956   5.508291   4.392751   5.378190
    17  O    5.467751   6.018432   6.283487   5.102280   6.419455
    18  C    4.567330   4.265139   5.431291   5.067745   3.263618
    19  C    5.390808   5.209860   6.344298   5.666000   4.543116
    20  H    5.843114   5.561399   6.864351   5.983747   5.327399
    21  H    6.126168   6.065032   7.024804   6.417202   5.067814
    22  H    4.808143   4.584934   5.516848   5.471381   2.835129
    23  H    4.443007   3.895158   5.311846   4.957558   3.275577
    24  C    3.428446   3.243175   4.520636   3.247984   4.462455
    25  O    3.819533   3.455929   4.876891   3.478031   5.187698
                   11         12         13         14         15
    11  H    0.000000
    12  H    1.780222   0.000000
    13  H    2.925724   3.321078   0.000000
    14  H    4.101106   3.970953   1.765779   0.000000
    15  H    3.330274   2.696512   1.781179   1.780451   0.000000
    16  C    4.930685   5.762323   3.691325   3.432269   4.836702
    17  O    5.822481   6.629962   4.119598   3.750635   5.328393
    18  C    3.656719   4.742970   5.070052   5.508419   5.822423
    19  C    4.626121   5.845027   5.433580   5.794270   6.456891
    20  H    5.605587   6.685815   6.275919   6.407328   7.216770
    21  H    4.801890   6.242361   5.499110   6.090967   6.755002
    22  H    2.982291   4.288241   4.857701   5.614663   5.654901
    23  H    4.153803   4.911071   5.723390   5.958129   6.200182
    24  C    5.051459   5.397131   5.050335   4.457136   5.399189
    25  O    6.001969   6.137152   6.017365   5.213718   6.153538
                   16         17         18         19         20
    16  C    0.000000
    17  O    1.139720   0.000000
    18  C    3.939137   5.037153   0.000000
    19  C    3.378916   4.348993   1.401693   0.000000
    20  H    3.727124   4.612812   2.158442   1.083309   0.000000
    21  H    3.529296   4.342688   2.157412   1.082269   1.824459
    22  H    4.449334   5.513173   1.082937   2.155023   3.080035
    23  H    4.610153   5.730778   1.084099   2.156310   2.482664
    24  C    2.936975   3.898939   3.011317   3.042557   2.961493
    25  O    3.884708   4.716211   3.872873   3.918537   3.592878
                   21         22         23         24         25
    21  H    0.000000
    22  H    2.480786   0.000000
    23  H    3.079908   1.823703   0.000000
    24  C    3.961375   3.926140   2.916635   0.000000
    25  O    4.894660   4.836034   3.514896   1.136440   0.000000
 Stoichiometry    C7H14O2PRh
 Framework group  C1[X(C7H14O2PRh)]
 Deg. of freedom    69
 Full point group                 C1      NOp   1
 RotChk:  IX=0 Diff= 2.04D-03
 Largest Abelian subgroup         C1      NOp   1
 Largest concise Abelian subgroup C1      NOp   1
                         Standard orientation:                         
 ---------------------------------------------------------------------
 Center     Atomic      Atomic             Coordinates (Angstroms)
 Number     Number       Type             X           Y           Z
 ---------------------------------------------------------------------
      1          1           0        0.276131    0.441886   -1.713393
      2         45           0        0.658247    0.026462   -0.221036
      3         15           0       -1.672781    0.015715   -0.026429
      4          6           0       -2.557644   -1.101633   -1.156677
      5          6           0       -2.458955    1.622251   -0.359686
      6          6           0       -2.371068   -0.436198    1.593967
      7          1           0       -2.051377   -1.445511    1.858353
      8          1           0       -3.462618   -0.398524    1.586174
      9          1           0       -1.995849    0.250591    2.354368
     10          1           0       -2.252926   -2.130554   -0.961139
     11          1           0       -2.291661   -0.856546   -2.185573
     12          1           0       -3.640023   -1.019373   -1.034663
     13          1           0       -2.189071    1.949722   -1.364477
     14          1           0       -2.081060    2.360299    0.349505
     15          1           0       -3.546665    1.566784   -0.276867
     16          6           0        1.279682    1.833882   -0.107410
     17          8           0        1.601479    2.926905   -0.080757
     18          6           0        1.005278   -1.976341   -1.068504
     19          6           0        2.199498   -1.246688   -1.147171
     20          1           0        3.006533   -1.450834   -0.453934
     21          1           0        2.509092   -0.814559   -2.089892
     22          1           0        0.401656   -2.116576   -1.956606
     23          1           0        0.898389   -2.755448   -0.322289
     24          6           0        1.055300   -0.555268    1.585942
     25          8           0        1.270706   -0.907893    2.644597
 ---------------------------------------------------------------------
 Rotational constants (GHZ):           0.8417820           0.5897040           0.5349067
 Leave Link  202 at Tue Oct  4 16:06:21 2022, MaxMem=  2952790016 cpu:               0.1 elap:               0.0
 (Enter /mnt/data/applications/G16/g16/l301.exe)
 Basis read from rwf:  (5D, 7F)
 Pseudo-potential data read from rwf file.
 There are   489 symmetry adapted cartesian basis functions of A   symmetry.
 There are   436 symmetry adapted basis functions of A   symmetry.
   436 basis functions,   705 primitive gaussians,   489 cartesian basis functions
    52 alpha electrons       52 beta electrons
       nuclear repulsion energy       876.7684859945 Hartrees.
 IExCor= 4639 DFT=T Ex+Corr=wB97XD ExCW=0 ScaHFX=  1.000000
 ScaDFX=  1.000000  1.000000  1.000000  1.000000 ScalE2=  1.000000  1.000000
 IRadAn=      5 IRanWt=     -1 IRanGd=            0 ICorTp=0 IEmpDi=121
 HFx  wShort=  0.000000 wLong=  0.200000 cFull=  0.222036 cShort=  0.000000 cLong=  0.777964
 DFx  wShort=  0.000000 wLong=  0.200000 cFull=  0.000000 cShort=  0.000000 cLong=  1.000000
 NAtoms=   25 NActive=   25 NUniq=   25 SFac= 1.00D+00 NAtFMM=   60 NAOKFM=F Big=F
 Integral buffers will be    131072 words long.
 Raffenetti 2 integral format.
 Two-electron integral symmetry is turned on.
 R6Disp:  Grimme-D2 Dispersion energy=       -0.0206243262 Hartrees.
 Nuclear repulsion after empirical dispersion term =      876.7478616683 Hartrees.
 No density basis found on file   724.
 ------------------------------------------------------------------------------
 Polarizable Continuum Model (PCM)
 =================================
 Model                : PCM.
 Atomic radii         : SMD-Coulomb.
 Polarization charges : Total charges.
 Charge compensation  : None.
 Solution method      : On-the-fly selection.
 Cavity type          : VdW (van der Waals Surface) (Alpha=1.000).
 Cavity algorithm     : GePol (No added spheres)
                        Default sphere list used, NSphG=   25.
                        Lebedev-Laikov grids with approx.  5.0 points / Ang**2.
                        Smoothing algorithm: York/Karplus (Gamma=1.0000).
                        Polarization charges: spherical gaussians, with
                                              point-specific exponents (IZeta= 3).
                        Self-potential: point-specific (ISelfS= 7).
                        Self-field    : sphere-specific E.n sum rule (ISelfD= 2).
 1st derivatives      : Analytical E(r).r(x)/FMM algorithm (CHGder, D1EAlg=3).
                        Cavity 1st derivative terms included.
 Solvent              : Toluene, Eps=   2.374100 Eps(inf)=   2.238315
 ------------------------------------------------------------------------------
 GePol: Number of generator spheres                  =      25
 GePol: Total number of spheres                      =      25
 GePol: Number of exposed spheres                    =      25 (100.00%)
 GePol: Number of points                             =    2325
 GePol: Average weight of points                     =       0.12
 GePol: Minimum weight of points                     =   0.45D-11
 GePol: Maximum weight of points                     =    0.20615
 GePol: Number of points with low weight             =     116
 GePol: Fraction of low-weight points (<1% of avg)   =       4.99%
 GePol: Cavity surface area                          =    281.696 Ang**2
 GePol: Cavity volume                                =    249.864 Ang**3
 ------------------------------------------------------------------------------
 Atomic radii for non-electrostatic terms: SMD-CDS.
 ------------------------------------------------------------------------------
 PCM non-electrostatic energy =         0.0007380086 Hartrees.
 Nuclear repulsion after PCM non-electrostatic terms =      876.7485996769 Hartrees.
 Leave Link  301 at Tue Oct  4 16:06:22 2022, MaxMem=  2952790016 cpu:               1.8 elap:               0.2
 (Enter /mnt/data/applications/G16/g16/l302.exe)
 NPDir=0 NMtPBC=     1 NCelOv=     1 NCel=       1 NClECP=     1 NCelD=      1
         NCelK=      1 NCelE2=     1 NClLst=     1 CellRange=     0.0.
 One-electron integrals computed using PRISM.
 One-electron integral symmetry used in STVInt
   1 Symmetry operations used in ECPInt.
 ECPInt:  NShTT=   16653 NPrTT=   49115 LenC2=   15844 LenP2D=   35635.
 LDataN:  DoStor=T MaxTD1= 7 Len=  274
 NBasis=   436 RedAO= T EigKep=  1.35D-04  NBF=   436
 NBsUse=   436 1.00D-06 EigRej= -1.00D+00 NBFU=   436
 Precomputing XC quadrature grid using
 IXCGrd= 4 IRadAn=           5 IRanWt=          -1 IRanGd=           0 AccXCQ= 0.00D+00.
 Defaulting to unpruned grid for atomic number  45.
 Generated NRdTot=       0 NPtTot=           0 NUsed=           0 NTot=          32
 NSgBfM=   487   487   487   487   487 MxSgAt=    25 MxSgA2=    25.
 Leave Link  302 at Tue Oct  4 16:06:23 2022, MaxMem=  2952790016 cpu:              15.3 elap:               1.3
 (Enter /mnt/data/applications/G16/g16/l303.exe)
 DipDrv:  MaxL=1.
 Leave Link  303 at Tue Oct  4 16:06:23 2022, MaxMem=  2952790016 cpu:               1.0 elap:               0.1
 (Enter /mnt/data/applications/G16/g16/l401.exe)
 Initial guess from the checkpoint file:  "I3.chk"
 B after Tr=     0.000000    0.000000    0.000000
         Rot=    1.000000   -0.000665   -0.000195   -0.000115 Ang=  -0.08 deg.
 Guess basis will be translated and rotated to current coordinates.
 JPrj=2 DoOrth=T DoCkMO=T.
 Leave Link  401 at Tue Oct  4 16:06:24 2022, MaxMem=  2952790016 cpu:               8.4 elap:               0.7
 (Enter /mnt/data/applications/G16/g16/l502.exe)
 Integral symmetry usage will be decided dynamically.
 Closed shell SCF:
 Using DIIS extrapolation, IDIIS=  1040.
 NGot=  2952790016 LenX=  2952301307 LenY=  2952061697
 Requested convergence on RMS density matrix=1.00D-08 within 128 cycles.
 Requested convergence on MAX density matrix=1.00D-06.
 Requested convergence on             energy=1.00D-06.
 No special actions if energy rises.
 Fock matrices will be formed incrementally for  20 cycles.

 Cycle   1  Pass 1  IDiag  1:
 FoFJK:  IHMeth= 1 ICntrl=       0 DoSepK=T KAlg= 0 I1Cent=           0 FoldK=F
 IRaf=         1 NMat=       1 IRICut=       1 DoRegI=T DoRafI=F ISym2E= 0 IDoP0=0 IntGTp=1.
 FoFCou: FMM=F IPFlag=           0 FMFlag=      100000 FMFlg1=           0
         NFxFlg=           0 DoJE=T BraDBF=F KetDBF=F FulRan=T
         wScrn=  0.000000 ICntrl=       500 IOpCl=  0 I1Cent=           0 NGrid=           0
         NMat0=    1 NMatS0=      1 NMatT0=    0 NMatD0=    1 NMtDS0=    0 NMtDT0=    0
 Symmetry not used in FoFCou.
 Defaulting to unpruned grid for atomic number  45.
 Defaulting to unpruned grid for atomic number  45.
 Defaulting to unpruned grid for atomic number  45.
 Defaulting to unpruned grid for atomic number  45.
 Defaulting to unpruned grid for atomic number  45.
 Defaulting to unpruned grid for atomic number  45.
 Defaulting to unpruned grid for atomic number  45.
 Defaulting to unpruned grid for atomic number  45.
 Defaulting to unpruned grid for atomic number  45.
 Defaulting to unpruned grid for atomic number  45.
 Defaulting to unpruned grid for atomic number  45.
 Defaulting to unpruned grid for atomic number  45.
 Inv3:  Mode=1 IEnd=    16216875.
 Iteration    1 A*A^-1 deviation from unit magnitude is 2.44D-15 for   2293.
 Iteration    1 A*A^-1 deviation from orthogonality  is 1.54D-15 for   1131    172.
 Iteration    1 A^-1*A deviation from unit magnitude is 2.44D-15 for   2293.
 Iteration    1 A^-1*A deviation from orthogonality  is 1.08D-15 for    767     79.
 E= -877.673526039725    
 DIIS: error= 1.07D-04 at cycle   1 NSaved=   1.
 NSaved= 1 IEnMin= 1 EnMin= -877.673526039725     IErMin= 1 ErrMin= 1.07D-04
 ErrMax= 1.07D-04  0.00D+00 EMaxC= 1.00D-01 BMatC= 1.78D-05 BMatP= 1.78D-05
 IDIUse=3 WtCom= 9.99D-01 WtEn= 1.07D-03
 Coeff-Com:  0.100D+01
 Coeff-En:   0.100D+01
 Coeff:      0.100D+01
 Gap=     1.750 Goal=   None    Shift=    0.000
 RMSDP=9.22D-06 MaxDP=7.32D-04              OVMax= 7.04D-04

 Cycle   2  Pass 1  IDiag  1:
 RMSU=  9.22D-06    CP:  1.00D+00
 E= -877.673533236640     Delta-E=       -0.000007196915 Rises=F Damp=F
 DIIS: error= 1.48D-05 at cycle   2 NSaved=   2.
 NSaved= 2 IEnMin= 2 EnMin= -877.673533236640     IErMin= 2 ErrMin= 1.48D-05
 ErrMax= 1.48D-05  0.00D+00 EMaxC= 1.00D-01 BMatC= 2.69D-07 BMatP= 1.78D-05
 IDIUse=1 WtCom= 1.00D+00 WtEn= 0.00D+00
 Coeff-Com: -0.205D-01 0.102D+01
 Coeff:     -0.205D-01 0.102D+01
 Gap=     0.317 Goal=   None    Shift=    0.000
 RMSDP=2.74D-06 MaxDP=1.55D-04 DE=-7.20D-06 OVMax= 3.76D-04

 Cycle   3  Pass 1  IDiag  1:
 RMSU=  2.59D-06    CP:  1.00D+00  1.10D+00
 E= -877.673533728721     Delta-E=       -0.000000492081 Rises=F Damp=F
 DIIS: error= 2.10D-05 at cycle   3 NSaved=   3.
 NSaved= 3 IEnMin= 3 EnMin= -877.673533728721     IErMin= 2 ErrMin= 1.48D-05
 ErrMax= 2.10D-05  0.00D+00 EMaxC= 1.00D-01 BMatC= 2.22D-07 BMatP= 2.69D-07
 IDIUse=1 WtCom= 1.00D+00 WtEn= 0.00D+00
 Coeff-Com: -0.210D-01 0.485D+00 0.536D+00
 Coeff:     -0.210D-01 0.485D+00 0.536D+00
 Gap=     0.317 Goal=   None    Shift=    0.000
 RMSDP=9.92D-07 MaxDP=5.01D-05 DE=-4.92D-07 OVMax= 1.05D-04

 Cycle   4  Pass 1  IDiag  1:
 RMSU=  8.98D-07    CP:  1.00D+00  1.14D+00  9.17D-01
 E= -877.673533894485     Delta-E=       -0.000000165764 Rises=F Damp=F
 DIIS: error= 9.85D-06 at cycle   4 NSaved=   4.
 NSaved= 4 IEnMin= 4 EnMin= -877.673533894485     IErMin= 4 ErrMin= 9.85D-06
 ErrMax= 9.85D-06  0.00D+00 EMaxC= 1.00D-01 BMatC= 5.38D-08 BMatP= 2.22D-07
 IDIUse=1 WtCom= 1.00D+00 WtEn= 0.00D+00
 Coeff-Com: -0.686D-02 0.192D-01 0.303D+00 0.684D+00
 Coeff:     -0.686D-02 0.192D-01 0.303D+00 0.684D+00
 Gap=     0.317 Goal=   None    Shift=    0.000
 RMSDP=8.26D-07 MaxDP=7.12D-05 DE=-1.66D-07 OVMax= 1.11D-04

 Cycle   5  Pass 1  IDiag  1:
 RMSU=  6.99D-07    CP:  1.00D+00  1.17D+00  1.00D+00  1.16D+00
 E= -877.673533937949     Delta-E=       -0.000000043465 Rises=F Damp=F
 DIIS: error= 8.73D-06 at cycle   5 NSaved=   5.
 NSaved= 5 IEnMin= 5 EnMin= -877.673533937949     IErMin= 5 ErrMin= 8.73D-06
 ErrMax= 8.73D-06  0.00D+00 EMaxC= 1.00D-01 BMatC= 3.38D-08 BMatP= 5.38D-08
 IDIUse=1 WtCom= 1.00D+00 WtEn= 0.00D+00
 Coeff-Com: -0.393D-03-0.107D+00 0.965D-01 0.530D+00 0.481D+00
 Coeff:     -0.393D-03-0.107D+00 0.965D-01 0.530D+00 0.481D+00
 Gap=     0.317 Goal=   None    Shift=    0.000
 RMSDP=4.66D-07 MaxDP=5.05D-05 DE=-4.35D-08 OVMax= 7.19D-05

 Cycle   6  Pass 1  IDiag  1:
 RMSU=  2.79D-07    CP:  1.00D+00  1.18D+00  1.09D+00  1.44D+00  7.92D-01
 E= -877.673533968496     Delta-E=       -0.000000030547 Rises=F Damp=F
 DIIS: error= 2.10D-06 at cycle   6 NSaved=   6.
 NSaved= 6 IEnMin= 6 EnMin= -877.673533968496     IErMin= 6 ErrMin= 2.10D-06
 ErrMax= 2.10D-06  0.00D+00 EMaxC= 1.00D-01 BMatC= 2.89D-09 BMatP= 3.38D-08
 IDIUse=1 WtCom= 1.00D+00 WtEn= 0.00D+00
 Coeff-Com:  0.126D-02-0.616D-01-0.195D-01 0.127D+00 0.264D+00 0.689D+00
 Coeff:      0.126D-02-0.616D-01-0.195D-01 0.127D+00 0.264D+00 0.689D+00
 Gap=     0.317 Goal=   None    Shift=    0.000
 RMSDP=2.29D-07 MaxDP=1.40D-05 DE=-3.05D-08 OVMax= 3.91D-05

 Cycle   7  Pass 1  IDiag  1:
 RMSU=  1.00D-07    CP:  1.00D+00  1.18D+00  1.15D+00  1.52D+00  9.14D-01
                    CP:  9.62D-01
 E= -877.673533972819     Delta-E=       -0.000000004323 Rises=F Damp=F
 DIIS: error= 6.97D-07 at cycle   7 NSaved=   7.
 NSaved= 7 IEnMin= 7 EnMin= -877.673533972819     IErMin= 7 ErrMin= 6.97D-07
 ErrMax= 6.97D-07  0.00D+00 EMaxC= 1.00D-01 BMatC= 3.28D-10 BMatP= 2.89D-09
 IDIUse=1 WtCom= 1.00D+00 WtEn= 0.00D+00
 Coeff-Com:  0.470D-03-0.816D-03-0.263D-01-0.548D-01 0.248D-02 0.256D+00
 Coeff-Com:  0.823D+00
 Coeff:      0.470D-03-0.816D-03-0.263D-01-0.548D-01 0.248D-02 0.256D+00
 Coeff:      0.823D+00
 Gap=     0.317 Goal=   None    Shift=    0.000
 RMSDP=1.21D-07 MaxDP=5.90D-06 DE=-4.32D-09 OVMax= 2.08D-05

 Cycle   8  Pass 1  IDiag  1:
 RMSU=  4.11D-08    CP:  1.00D+00  1.19D+00  1.17D+00  1.60D+00  9.89D-01
                    CP:  1.12D+00  1.10D+00
 E= -877.673533973674     Delta-E=       -0.000000000855 Rises=F Damp=F
 DIIS: error= 2.09D-07 at cycle   8 NSaved=   8.
 NSaved= 8 IEnMin= 8 EnMin= -877.673533973674     IErMin= 8 ErrMin= 2.09D-07
 ErrMax= 2.09D-07  0.00D+00 EMaxC= 1.00D-01 BMatC= 3.40D-11 BMatP= 3.28D-10
 IDIUse=1 WtCom= 1.00D+00 WtEn= 0.00D+00
 Coeff-Com: -0.105D-03 0.124D-01-0.556D-02-0.412D-01-0.500D-01-0.489D-01
 Coeff-Com:  0.223D+00 0.911D+00
 Coeff:     -0.105D-03 0.124D-01-0.556D-02-0.412D-01-0.500D-01-0.489D-01
 Coeff:      0.223D+00 0.911D+00
 Gap=     0.317 Goal=   None    Shift=    0.000
 RMSDP=5.09D-08 MaxDP=2.44D-06 DE=-8.55D-10 OVMax= 9.93D-06

 Cycle   9  Pass 1  IDiag  1:
 RMSU=  1.36D-08    CP:  1.00D+00  1.19D+00  1.17D+00  1.63D+00  1.02D+00
                    CP:  1.20D+00  1.31D+00  1.16D+00
 E= -877.673533973761     Delta-E=       -0.000000000087 Rises=F Damp=F
 DIIS: error= 4.26D-08 at cycle   9 NSaved=   9.
 NSaved= 9 IEnMin= 9 EnMin= -877.673533973761     IErMin= 9 ErrMin= 4.26D-08
 ErrMax= 4.26D-08  0.00D+00 EMaxC= 1.00D-01 BMatC= 2.65D-12 BMatP= 3.40D-11
 IDIUse=1 WtCom= 1.00D+00 WtEn= 0.00D+00
 Coeff-Com: -0.587D-04 0.305D-02 0.156D-03-0.646D-02-0.109D-01-0.279D-01
 Coeff-Com: -0.675D-02 0.196D+00 0.853D+00
 Coeff:     -0.587D-04 0.305D-02 0.156D-03-0.646D-02-0.109D-01-0.279D-01
 Coeff:     -0.675D-02 0.196D+00 0.853D+00
 Gap=     0.317 Goal=   None    Shift=    0.000
 RMSDP=1.07D-08 MaxDP=5.79D-07 DE=-8.66D-11 OVMax= 2.49D-06

 Cycle  10  Pass 1  IDiag  1:
 RMSU=  5.75D-09    CP:  1.00D+00  1.19D+00  1.17D+00  1.64D+00  1.02D+00
                    CP:  1.21D+00  1.36D+00  1.27D+00  1.18D+00
 E= -877.673533973792     Delta-E=       -0.000000000031 Rises=F Damp=F
 DIIS: error= 2.02D-08 at cycle  10 NSaved=  10.
 NSaved=10 IEnMin=10 EnMin= -877.673533973792     IErMin=10 ErrMin= 2.02D-08
 ErrMax= 2.02D-08  0.00D+00 EMaxC= 1.00D-01 BMatC= 6.24D-13 BMatP= 2.65D-12
 IDIUse=1 WtCom= 1.00D+00 WtEn= 0.00D+00
 Coeff-Com:  0.374D-05-0.160D-02 0.111D-02 0.601D-02 0.738D-02 0.913D-03
 Coeff-Com: -0.459D-01-0.122D+00 0.246D+00 0.908D+00
 Coeff:      0.374D-05-0.160D-02 0.111D-02 0.601D-02 0.738D-02 0.913D-03
 Coeff:     -0.459D-01-0.122D+00 0.246D+00 0.908D+00
 Gap=     0.317 Goal=   None    Shift=    0.000
 RMSDP=5.44D-09 MaxDP=3.57D-07 DE=-3.07D-11 OVMax= 1.18D-06

 Error on total polarization charges =  0.02514
 SCF Done:  E(RwB97XD) =  -877.673533974     A.U. after   10 cycles
            NFock= 10  Conv=0.54D-08     -V/T= 2.0906
 KE= 8.047574118473D+02 PE=-3.791665595287D+03 EE= 1.232486049789D+03
 SMD-CDS (non-electrostatic) energy       (kcal/mol) =       0.46
 (included in total energy above)
 Leave Link  502 at Tue Oct  4 16:14:27 2022, MaxMem=  2952790016 cpu:            5752.0 elap:             483.3
 (Enter /mnt/data/applications/G16/g16/l701.exe)
 ... and contract with generalized density number  0.
 Compute integral first derivatives.
 R6Disp: Adding Grimme-D2 dispersion energy 1st derivatives to the gradient.
   1 Symmetry operations used in ECPInt.
 ECPInt:  NShTT=   16653 NPrTT=   49115 LenC2=   15844 LenP2D=   35635.
 LDataN:  DoStor=T MaxTD1= 8 Len=  415
 D1PCM: PCM CHGder 1st derivatives, ID1Alg=3 FixD1E=F DoIter=F DoCFld=F I1PDM=0.
 GePol: Maximum number of non-zero 1st derivatives   =     421
 Leave Link  701 at Tue Oct  4 16:14:36 2022, MaxMem=  2952790016 cpu:             104.8 elap:               8.8
 (Enter /mnt/data/applications/G16/g16/l702.exe)
 L702 exits ... SP integral derivatives will be done elsewhere.
 Leave Link  702 at Tue Oct  4 16:14:36 2022, MaxMem=  2952790016 cpu:               0.2 elap:               0.0
 (Enter /mnt/data/applications/G16/g16/l703.exe)
 Integral derivatives from FoFJK, PRISM(SPDF).
 Compute integral first derivatives, UseDBF=F ICtDFT=           0.
 Calling FoFJK, ICntrl=      2127 FMM=F ISym2X=0 I1Cent= 0 IOpClX= 0 NMat=1 NMatS=1 NMatT=0.
 FoFJK:  IHMeth= 1 ICntrl=    2127 DoSepK=T KAlg= 0 I1Cent=           0 FoldK=F
 IRaf=         1 NMat=       1 IRICut=       1 DoRegI=T DoRafI=F ISym2E= 0 IDoP0=0 IntGTp=1.
 FoFCou: FMM=F IPFlag=           0 FMFlag=      100000 FMFlg1=         800
         NFxFlg=           0 DoJE=F BraDBF=F KetDBF=F FulRan=T
         wScrn=  0.000000 ICntrl=      2527 IOpCl=  0 I1Cent=           0 NGrid=           0
         NMat0=    1 NMatS0=      1 NMatT0=    0 NMatD0=    1 NMtDS0=    0 NMtDT0=    0
 Symmetry not used in FoFCou.
 Defaulting to unpruned grid for atomic number  45.
 Defaulting to unpruned grid for atomic number  45.
 Defaulting to unpruned grid for atomic number  45.
 Defaulting to unpruned grid for atomic number  45.
 Defaulting to unpruned grid for atomic number  45.
 Defaulting to unpruned grid for atomic number  45.
 Defaulting to unpruned grid for atomic number  45.
 Defaulting to unpruned grid for atomic number  45.
 Defaulting to unpruned grid for atomic number  45.
 Defaulting to unpruned grid for atomic number  45.
 Defaulting to unpruned grid for atomic number  45.
 Defaulting to unpruned grid for atomic number  45.
 Leave Link  703 at Tue Oct  4 16:17:31 2022, MaxMem=  2952790016 cpu:            2095.8 elap:             175.1
 (Enter /mnt/data/applications/G16/g16/l716.exe)
 Dipole        =-1.89673288D+00-4.76734491D-01 1.20247723D-01
 ***** Axes restored to original set *****
 -------------------------------------------------------------------
 Center     Atomic                   Forces (Hartrees/Bohr)
 Number     Number              X              Y              Z
 -------------------------------------------------------------------
      1        1           0.000001082   -0.000054043    0.000117290
      2       45          -0.000653157    0.000085514    0.000104448
      3       15           0.000311632   -0.000002627   -0.000103351
      4        6          -0.000017564    0.000009228    0.000006364
      5        6          -0.000024498   -0.000014249    0.000003394
      6        6           0.000000491   -0.000005873    0.000007777
      7        1          -0.000006213   -0.000001925   -0.000007639
      8        1          -0.000013269   -0.000007506    0.000004400
      9        1          -0.000005767   -0.000004400   -0.000009149
     10        1           0.000003278    0.000003996   -0.000004085
     11        1          -0.000001691    0.000003142    0.000000437
     12        1          -0.000003154   -0.000004117   -0.000005668
     13        1          -0.000005437    0.000000437    0.000002617
     14        1          -0.000002837   -0.000007323    0.000000345
     15        1          -0.000009629    0.000003215   -0.000001101
     16        6           0.000189554    0.000032867    0.000021290
     17        8          -0.000003424   -0.000024001   -0.000077993
     18        6           0.000218829    0.000009390   -0.000156289
     19        6           0.000001992   -0.000073955   -0.000090671
     20        1          -0.000002176    0.000018046    0.000016168
     21        1           0.000018257    0.000010875    0.000001788
     22        1          -0.000009420    0.000000227    0.000009295
     23        1          -0.000017545    0.000028867    0.000020803
     24        6           0.000085211    0.000014165    0.000266150
     25        8          -0.000054545   -0.000019952   -0.000126619
 -------------------------------------------------------------------
 Cartesian Forces:  Max     0.000653157 RMS     0.000103421
 Leave Link  716 at Tue Oct  4 16:17:31 2022, MaxMem=  2952790016 cpu:               0.2 elap:               0.0
 (Enter /mnt/data/applications/G16/g16/l103.exe)

 GradGradGradGradGradGradGradGradGradGradGradGradGradGradGradGradGradGrad
 Berny optimization.
 Using GEDIIS/GDIIS optimizer.
 FormGI is forming the generalized inverse of G from B-inverse, IUseBI=4.
 Internal  Forces:  Max     0.000268036 RMS     0.000053518
 Search for a local minimum.
 Step number   2 out of a maximum of  150
 All quantities printed in internal units (Hartrees-Bohrs-Radians)
 RMS Force = .53518D-04 SwitMx=.10000D-02 MixMth= 2
 Mixed Optimization -- En-DIIS/RFO-DIIS
 Swapping is turned off.
 Update second derivatives using D2CorX and points    1    2
 DE= -7.18D-06 DEPred=-5.57D-06 R= 1.29D+00
 TightC=F SS=  1.41D+00  RLast= 1.16D-02 DXNew= 8.4090D-02 3.4773D-02
 Trust test= 1.29D+00 RLast= 1.16D-02 DXMaxT set to 5.00D-02
 ITU=  1  0
     Eigenvalues ---    0.00230   0.00627   0.00879   0.00907   0.00911
     Eigenvalues ---    0.02354   0.02898   0.03186   0.03415   0.03598
     Eigenvalues ---    0.03641   0.03664   0.04158   0.05046   0.05158
     Eigenvalues ---    0.05177   0.05877   0.05880   0.05915   0.06028
     Eigenvalues ---    0.06163   0.06193   0.06228   0.06506   0.06815
     Eigenvalues ---    0.07159   0.07996   0.08763   0.09555   0.12333
     Eigenvalues ---    0.12950   0.13105   0.13930   0.14157   0.14988
     Eigenvalues ---    0.15915   0.16000   0.16000   0.16000   0.16000
     Eigenvalues ---    0.16000   0.16000   0.16000   0.16000   0.16022
     Eigenvalues ---    0.17775   0.18864   0.22464   0.23735   0.24431
     Eigenvalues ---    0.24590   0.24659   0.24832   0.34543   0.34551
     Eigenvalues ---    0.34566   0.34671   0.34680   0.34692   0.34727
     Eigenvalues ---    0.34732   0.34745   0.35501   0.35598   0.35639
     Eigenvalues ---    0.35727   0.43515   1.42025   1.44402
 En-DIIS/RFO-DIIS/Sim-DIIS IScMMF=       -3 using points:     2    1
 RFO step:  Lambda=-4.89338043D-06.
 NNeg= 0 NGDIIS= 2 SimSw=  2.50D-03 Rises=F DC= -7.18D-06 SmlDif=  1.00D-05
 NRisDI= 0 DoIntr=F SqrtH=F CThrHd= 10.0 CDAdj=  3.0
 RMS Error=  0.8675075390D-03 NUsed= 2 OKEnD=F EnDIS=F
 InvSVX:  RCond= 3.35D-05 Info=           0 Equed=N FErr=  3.50D-15 BErr=  4.06D-17
 DidBck=F Rises=F RFO-DIIS coefs:    1.58554   -0.58554
 Iteration  1 RMS(Cart)=  0.00152293 RMS(Int)=  0.00000238
 Iteration  2 RMS(Cart)=  0.00000266 RMS(Int)=  0.00000092
 Iteration  3 RMS(Cart)=  0.00000000 RMS(Int)=  0.00000092
 ITry= 1 IFail=0 DXMaxC= 1.03D-02 DCOld= 1.00D+10 DXMaxT= 5.00D-02 DXLimC= 3.00D+00 Rises=F
 Variable       Old X    -DE/DX   Delta X   Delta X   Delta X     New X
                                 (Linear)    (Quad)   (Total)
    R1        3.01512  -0.00012   0.00093  -0.00132  -0.00038   3.01473
    R2        4.42038  -0.00024  -0.00245  -0.00129  -0.00374   4.41663
    R3        3.61815   0.00006   0.00089   0.00002   0.00091   3.61906
    R4        4.16163   0.00008   0.00125   0.00047   0.00172   4.16334
    R5        4.16344   0.00011   0.00088   0.00102   0.00190   4.16534
    R6        3.66491   0.00014   0.00183   0.00014   0.00196   3.66688
    R7        3.43749  -0.00000  -0.00010   0.00003  -0.00007   3.43742
    R8        3.43810   0.00000  -0.00011   0.00006  -0.00004   3.43806
    R9        3.44196   0.00001  -0.00019   0.00013  -0.00005   3.44190
   R10        2.06125  -0.00000   0.00001  -0.00002  -0.00000   2.06124
   R11        2.06096  -0.00000   0.00001  -0.00002  -0.00001   2.06096
   R12        2.06422   0.00000  -0.00001   0.00002   0.00001   2.06423
   R13        2.06117  -0.00000   0.00001  -0.00001  -0.00000   2.06117
   R14        2.06186  -0.00000   0.00002  -0.00002  -0.00001   2.06185
   R15        2.06409   0.00001  -0.00002   0.00004   0.00001   2.06410
   R16        2.06215  -0.00000   0.00001  -0.00002  -0.00001   2.06214
   R17        2.06401   0.00001  -0.00003   0.00005   0.00002   2.06404
   R18        2.06203  -0.00001   0.00001  -0.00003  -0.00001   2.06202
   R19        2.15376  -0.00003  -0.00001  -0.00002  -0.00003   2.15373
   R20        2.64882  -0.00011   0.00004  -0.00033  -0.00029   2.64852
   R21        2.04645  -0.00000  -0.00004   0.00001  -0.00003   2.04642
   R22        2.04865  -0.00000  -0.00003   0.00000  -0.00003   2.04862
   R23        2.04716   0.00000  -0.00004   0.00003  -0.00001   2.04715
   R24        2.04519   0.00001  -0.00004   0.00004   0.00000   2.04520
   R25        2.14756  -0.00012  -0.00005  -0.00009  -0.00014   2.14742
    A1        1.41046  -0.00001  -0.00054  -0.00074  -0.00128   1.40918
    A2        1.45801  -0.00002  -0.00036   0.00009  -0.00027   1.45775
    A3        1.48528  -0.00003  -0.00087  -0.00021  -0.00108   1.48420
    A4        1.49554  -0.00001  -0.00058   0.00007  -0.00051   1.49503
    A5        1.89953   0.00020   0.00041   0.00078   0.00118   1.90070
    A6        1.75674   0.00005  -0.00003   0.00034   0.00031   1.75704
    A7        2.38829   0.00001  -0.00027   0.00007  -0.00021   2.38808
    A8        1.69625  -0.00001   0.00033   0.00026   0.00058   1.69683
    A9        2.55026  -0.00027  -0.00114  -0.00134  -0.00248   2.54779
   A10        1.92133  -0.00022  -0.00078  -0.00114  -0.00192   1.91941
   A11        1.73292   0.00003   0.00114   0.00010   0.00124   1.73416
   A12        1.62432   0.00004   0.00019   0.00031   0.00051   1.62482
   A13        1.64597   0.00002   0.00025   0.00029   0.00055   1.64652
   A14        2.02182   0.00002   0.00007   0.00026   0.00033   2.02214
   A15        1.99469   0.00002   0.00007   0.00033   0.00040   1.99510
   A16        2.04564  -0.00001  -0.00035  -0.00001  -0.00036   2.04528
   A17        1.79095  -0.00003   0.00009  -0.00027  -0.00017   1.79078
   A18        1.78634  -0.00000   0.00010  -0.00022  -0.00012   1.78621
   A19        1.78890  -0.00001   0.00006  -0.00020  -0.00014   1.78876
   A20        1.90937  -0.00000  -0.00000  -0.00003  -0.00004   1.90934
   A21        1.90658   0.00000  -0.00000   0.00001   0.00000   1.90658
   A22        1.94588   0.00001  -0.00006   0.00006   0.00000   1.94588
   A23        1.88912   0.00000   0.00001   0.00001   0.00003   1.88914
   A24        1.90480  -0.00000   0.00002  -0.00002   0.00000   1.90480
   A25        1.90722  -0.00000   0.00004  -0.00004   0.00000   1.90722
   A26        1.90385   0.00000   0.00003   0.00002   0.00005   1.90390
   A27        1.90560  -0.00001   0.00005  -0.00007  -0.00002   1.90558
   A28        1.95151   0.00001  -0.00013   0.00012  -0.00001   1.95150
   A29        1.88598   0.00000   0.00001   0.00000   0.00002   1.88600
   A30        1.90869  -0.00001   0.00001  -0.00004  -0.00003   1.90866
   A31        1.90707  -0.00000   0.00002  -0.00003  -0.00001   1.90706
   A32        1.90997  -0.00000   0.00004  -0.00003   0.00001   1.90998
   A33        1.94791   0.00001  -0.00022   0.00019  -0.00003   1.94788
   A34        1.90918  -0.00001   0.00005  -0.00009  -0.00004   1.90914
   A35        1.90330  -0.00001   0.00005  -0.00006  -0.00001   1.90329
   A36        1.88869   0.00001   0.00004   0.00003   0.00007   1.88876
   A37        1.90383  -0.00000   0.00005  -0.00004   0.00001   1.90384
   A38        1.92359   0.00001   0.00037  -0.00020   0.00017   1.92376
   A39        1.95322  -0.00006  -0.00029  -0.00050  -0.00079   1.95243
   A40        2.09010   0.00001  -0.00003   0.00022   0.00019   2.09029
   A41        2.09063  -0.00001   0.00019   0.00004   0.00024   2.09087
   A42        2.00035   0.00001  -0.00016  -0.00001  -0.00016   2.00019
   A43        1.94018  -0.00004  -0.00016  -0.00028  -0.00043   1.93975
   A44        1.91298   0.00002   0.00040  -0.00005   0.00035   1.91333
   A45        2.09520   0.00002   0.00010   0.00001   0.00011   2.09531
   A46        2.09492  -0.00002  -0.00009   0.00018   0.00009   2.09501
   A47        2.00375   0.00000  -0.00020   0.00002  -0.00018   2.00356
   A48        3.10671  -0.00002  -0.00022  -0.00048  -0.00069   3.10602
   A49        3.09485   0.00000  -0.00125   0.00054  -0.00072   3.09413
   A50        3.12645  -0.00006   0.00052  -0.00167  -0.00114   3.12531
   A51        3.10152  -0.00000  -0.00075  -0.00002  -0.00076   3.10076
   A52        3.17741   0.00017  -0.00192   0.00515   0.00323   3.18064
   A53        3.13096  -0.00012   0.00058  -0.00330  -0.00272   3.12824
    D1        1.01583  -0.00000  -0.00025   0.00016  -0.00008   1.01574
    D2       -1.06106  -0.00000  -0.00048   0.00006  -0.00043  -1.06148
    D3        3.12900  -0.00000  -0.00035   0.00007  -0.00028   3.12872
    D4        2.41008  -0.00007  -0.00093  -0.00019  -0.00112   2.40897
    D5        0.33320  -0.00007  -0.00117  -0.00029  -0.00146   0.33174
    D6       -1.75993  -0.00007  -0.00103  -0.00028  -0.00131  -1.76124
    D7       -0.43623   0.00005   0.00076   0.00060   0.00136  -0.43487
    D8       -2.51311   0.00004   0.00052   0.00050   0.00102  -2.51210
    D9        1.67694   0.00004   0.00066   0.00050   0.00116   1.67810
   D10       -0.26723   0.00003   0.00115   0.00094   0.00209  -0.26514
   D11       -2.34411   0.00003   0.00091   0.00084   0.00175  -2.34236
   D12        1.84595   0.00003   0.00105   0.00085   0.00189   1.84784
   D13       -2.08570   0.00000   0.00050   0.00018   0.00068  -2.08502
   D14        2.12060   0.00000   0.00026   0.00007   0.00034   2.12094
   D15        0.02747   0.00000   0.00040   0.00008   0.00048   0.02796
   D16       -0.46114   0.00002   0.00031   0.00006   0.00037  -0.46077
   D17       -2.70892   0.00004   0.00044   0.00063   0.00107  -2.70785
   D18        0.92952  -0.00000  -0.00043  -0.00078  -0.00120   0.92832
   D19       -1.31827   0.00002  -0.00029  -0.00021  -0.00050  -1.31877
   D20       -1.69532  -0.00005   0.00168  -0.00059   0.00109  -1.69423
   D21        2.34008  -0.00003   0.00182  -0.00002   0.00179   2.34187
   D22        2.63833   0.00000  -0.00006  -0.00043  -0.00048   2.63785
   D23        0.39055   0.00002   0.00007   0.00015   0.00022   0.39077
   D24        2.73248   0.00001   0.00047   0.00041   0.00087   2.73336
   D25        0.49869   0.00002   0.00054   0.00063   0.00117   0.49985
   D26       -2.29978  -0.00002  -0.00091  -0.00067  -0.00158  -2.30135
   D27        1.74961  -0.00001  -0.00084  -0.00044  -0.00128   1.74833
   D28        1.30997   0.00001   0.00097   0.00013   0.00110   1.31107
   D29       -0.92383   0.00002   0.00104   0.00035   0.00140  -0.92243
   D30       -0.46207  -0.00000  -0.00023   0.00008  -0.00015  -0.46223
   D31       -2.69587   0.00001  -0.00016   0.00030   0.00014  -2.69573
   D32        1.07491  -0.00001  -0.00023  -0.00030  -0.00053   1.07438
   D33       -0.99009  -0.00001  -0.00024  -0.00030  -0.00054  -0.99063
   D34       -3.09976  -0.00001  -0.00025  -0.00030  -0.00055  -3.10031
   D35       -3.02279   0.00001  -0.00003   0.00008   0.00005  -3.02274
   D36        1.19539   0.00001  -0.00004   0.00008   0.00004   1.19543
   D37       -0.91428   0.00001  -0.00004   0.00008   0.00003  -0.91425
   D38       -1.17238  -0.00000   0.00009  -0.00028  -0.00019  -1.17257
   D39        3.04580  -0.00000   0.00008  -0.00029  -0.00020   3.04560
   D40        0.93613  -0.00000   0.00008  -0.00028  -0.00021   0.93592
   D41        1.00874   0.00001   0.00026   0.00018   0.00044   1.00918
   D42       -1.04869   0.00001   0.00019   0.00021   0.00040  -1.04829
   D43        3.12204   0.00001   0.00022   0.00022   0.00043   3.12248
   D44       -1.19438  -0.00001   0.00006  -0.00015  -0.00009  -1.19447
   D45        3.03137  -0.00001  -0.00001  -0.00012  -0.00013   3.03125
   D46        0.91892  -0.00001   0.00002  -0.00011  -0.00010   0.91883
   D47       -3.04281   0.00000  -0.00009   0.00023   0.00014  -3.04267
   D48        1.18294   0.00000  -0.00015   0.00026   0.00010   1.18304
   D49       -0.92951   0.00000  -0.00013   0.00026   0.00013  -0.92938
   D50       -1.04678   0.00000  -0.00006   0.00003  -0.00003  -1.04681
   D51        3.12807   0.00000  -0.00000   0.00001   0.00000   3.12807
   D52        1.01959   0.00000   0.00004  -0.00000   0.00004   1.01963
   D53        1.18547   0.00001  -0.00012   0.00018   0.00006   1.18553
   D54       -0.92287   0.00001  -0.00006   0.00015   0.00009  -0.92278
   D55       -3.03134   0.00001  -0.00002   0.00015   0.00013  -3.03121
   D56        3.03747  -0.00002   0.00002  -0.00023  -0.00020   3.03726
   D57        0.92913  -0.00002   0.00008  -0.00025  -0.00017   0.92895
   D58       -1.17934  -0.00002   0.00013  -0.00026  -0.00014  -1.17948
   D59       -2.66324  -0.00001   0.00032  -0.00051  -0.00018  -2.66343
   D60        0.01415  -0.00000  -0.00018   0.00001  -0.00017   0.01398
   D61       -0.01680   0.00000   0.00030   0.00007   0.00037  -0.01643
   D62        2.66058   0.00001  -0.00020   0.00059   0.00039   2.66097
         Item               Value     Threshold  Converged?
 Maximum Force            0.000268     0.000450     YES
 RMS     Force            0.000054     0.000300     YES
 Maximum Displacement     0.010335     0.001800     NO 
 RMS     Displacement     0.001523     0.001200     NO 
 Predicted change in Energy=-2.447777D-06
 Lowest energy point so far.  Saving SCF results.
 GradGradGradGradGradGradGradGradGradGradGradGradGradGradGradGradGradGrad

 Leave Link  103 at Tue Oct  4 16:17:31 2022, MaxMem=  2952790016 cpu:               0.5 elap:               0.1
 (Enter /mnt/data/applications/G16/g16/l202.exe)
                          Input orientation:                          
 ---------------------------------------------------------------------
 Center     Atomic      Atomic             Coordinates (Angstroms)
 Number     Number       Type             X           Y           Z
 ---------------------------------------------------------------------
      1          1           0        0.274376    0.439127   -1.711143
      2         45           0        0.656699    0.026335   -0.218327
      3         15           0       -1.672573    0.016191   -0.026484
      4          6           0       -2.556807   -1.102671   -1.155666
      5          6           0       -2.458778    1.622105   -0.362528
      6          6           0       -2.372131   -0.433406    1.593977
      7          1           0       -2.052716   -1.442363    1.860026
      8          1           0       -3.463685   -0.395693    1.585250
      9          1           0       -1.997489    0.254479    2.353659
     10          1           0       -2.252191   -2.131313   -0.958519
     11          1           0       -2.290262   -0.858995   -2.184749
     12          1           0       -3.639257   -1.020240   -1.034355
     13          1           0       -2.188339    1.948231   -1.367607
     14          1           0       -2.081465    2.361194    0.345880
     15          1           0       -3.546540    1.566573   -0.280325
     16          6           0        1.280338    1.833781   -0.109134
     17          8           0        1.602840    2.926712   -0.088699
     18          6           0        1.005016   -1.977473   -1.065252
     19          6           0        2.198980   -1.247699   -1.143919
     20          1           0        3.005768   -1.450987   -0.450152
     21          1           0        2.509038   -0.816254   -2.086802
     22          1           0        0.401667   -2.118559   -1.953387
     23          1           0        0.897554   -2.755774   -0.318300
     24          6           0        1.052944   -0.554045    1.590377
     25          8           0        1.266359   -0.908582    2.648716
 ---------------------------------------------------------------------
                    Distance matrix (angstroms):
                    1          2          3          4          5
     1  H    0.000000
     2  Rh   1.595328   0.000000
     3  P    2.609131   2.337181   0.000000
     4  C    3.271282   3.532687   1.819003   0.000000
     5  C    3.269302   3.503352   1.819341   2.839556   0.000000
     6  C    4.323093   3.559441   1.821377   2.835940   2.839110
     7  H    4.659250   3.717197   2.414707   3.076345   3.807308
     8  H    5.053339   4.517584   2.444467   2.972351   2.979125
     9  H    4.660266   3.702955   2.414008   3.803953   3.075851
    10  H    3.682003   3.696617   2.411726   1.090763   3.806052
    11  H    2.913209   3.651740   2.409481   1.090612   3.082977
    12  H    4.231349   4.496272   2.440869   1.092342   2.971005
    13  H    2.908673   3.620604   2.407779   3.080371   1.090724
    14  H    3.670923   3.642450   2.409334   3.805122   1.091082
    15  H    4.232939   4.476985   2.445378   2.978365   1.092276
    16  C    2.350203   1.915126   3.468451   4.943851   3.753666
    17  O    3.253494   3.053551   4.382161   5.888718   4.274778
    18  C    2.605948   2.203146   3.496172   3.668792   5.044665
    19  C    2.621303   2.204204   4.223151   4.758012   5.526397
    20  H    3.552904   2.784663   4.921278   5.617946   6.269995
    21  H    2.590524   2.762665   4.735372   5.158666   5.796371
    22  H    2.572283   2.770568   3.545784   3.228150   4.970467
    23  H    3.540587   2.794304   3.791372   3.920018   5.516588
    24  C    3.534486   1.940427   3.219915   4.568593   4.569645
    25  O    4.669981   3.076636   4.080346   5.396998   5.417436
                    6          7          8          9         10
     6  C    0.000000
     7  H    1.091238   0.000000
     8  H    1.092240   1.778160   0.000000
     9  H    1.091174   1.768049   1.778457   0.000000
    10  H    3.067981   2.908374   3.309207   4.089915   0.000000
    11  H    3.803498   4.093526   3.975483   4.682167   1.767451
    12  H    2.976258   3.327574   2.698744   3.974790   1.778816
    13  H    3.804859   4.683175   3.979931   4.093048   4.100501
    14  H    3.074415   4.093960   3.323703   2.911439   4.681157
    15  H    2.981973   3.983254   2.708824   3.325511   3.976135
    16  C    4.623987   5.071485   5.508834   4.393597   5.377936
    17  O    5.470118   6.020750   6.285711   5.105713   6.418837
    18  C    4.567358   4.265363   5.431066   5.068096   3.262584
    19  C    5.390195   5.209462   6.343505   5.665681   4.541814
    20  H    5.842579   5.561048   6.863696   5.983523   5.326107
    21  H    6.125400   6.064575   7.023835   6.416615   5.066726
    22  H    4.808064   4.585123   5.516444   5.471554   2.834235
    23  H    4.443088   3.895413   5.311675   4.958050   3.274252
    24  C    3.427201   3.241442   4.519407   3.246760   4.461902
    25  O    3.817967   3.453000   4.875175   3.477423   5.185307
                   11         12         13         14         15
    11  H    0.000000
    12  H    1.780223   0.000000
    13  H    2.925513   3.320849   0.000000
    14  H    4.100890   3.970625   1.765786   0.000000
    15  H    3.329932   2.696064   1.781166   1.780450   0.000000
    16  C    4.930356   5.762282   3.691691   3.433209   4.837299
    17  O    5.820760   6.629652   4.118989   3.752702   5.329429
    18  C    3.655560   4.741995   5.069525   5.508329   5.821772
    19  C    4.624685   5.843694   5.432548   5.793602   6.455767
    20  H    5.604214   6.684549   6.274962   6.406741   7.215764
    21  H    4.800490   6.241057   5.497724   6.089897   6.753610
    22  H    2.981025   4.287189   4.856958   5.614335   5.653996
    23  H    4.152538   4.909936   5.722888   5.958108   6.199524
    24  C    5.051891   5.396602   5.051432   4.457792   5.399241
    25  O    6.001200   6.135353   6.018901   5.215593   6.153834
                   16         17         18         19         20
    16  C    0.000000
    17  O    1.139703   0.000000
    18  C    3.938987   5.036078   0.000000
    19  C    3.377899   4.346789   1.401538   0.000000
    20  H    3.726003   4.611193   2.158367   1.083303   0.000000
    21  H    3.527543   4.338594   2.157331   1.082271   1.824349
    22  H    4.449081   5.511319   1.082921   2.154988   3.080051
    23  H    4.610237   5.730688   1.084084   2.156304   2.482825
    24  C    2.939686   3.903504   3.013438   3.044820   2.963407
    25  O    3.889278   4.723996   3.873550   3.920314   3.594820
                   21         22         23         24         25
    21  H    0.000000
    22  H    2.480890   0.000000
    23  H    3.079971   1.823584   0.000000
    24  C    3.963661   3.928120   2.918014   0.000000
    25  O    4.896724   4.836433   3.514444   1.136365   0.000000
 Stoichiometry    C7H14O2PRh
 Framework group  C1[X(C7H14O2PRh)]
 Deg. of freedom    69
 Full point group                 C1      NOp   1
 RotChk:  IX=0 Diff= 7.70D-03
 Largest Abelian subgroup         C1      NOp   1
 Largest concise Abelian subgroup C1      NOp   1
                         Standard orientation:                         
 ---------------------------------------------------------------------
 Center     Atomic      Atomic             Coordinates (Angstroms)
 Number     Number       Type             X           Y           Z
 ---------------------------------------------------------------------
      1          1           0        0.274809    0.450743   -1.709291
      2         45           0        0.657478    0.027825   -0.219400
      3         15           0       -1.671748    0.016477   -0.027063
      4          6           0       -2.556304   -1.094668   -1.163589
      5          6           0       -2.457966    1.624665   -0.352021
      6          6           0       -2.370931   -0.444066    1.590483
      7          1           0       -2.051494   -1.454816    1.849609
      8          1           0       -3.462485   -0.406250    1.582278
      9          1           0       -1.996074    0.238638    2.354720
     10          1           0       -2.251685   -2.124636   -0.973493
     11          1           0       -2.289999   -0.844033   -2.191061
     12          1           0       -3.638722   -1.013017   -1.041458
     13          1           0       -2.187758    1.957585   -1.354932
     14          1           0       -2.080449    2.358919    0.361289
     15          1           0       -3.545710    1.568622   -0.269932
     16          6           0        1.281221    1.834464   -0.098109
     17          8           0        1.603775    2.927218   -0.070344
     18          6           0        1.005503   -1.970209   -1.079975
     19          6           0        2.199479   -1.239968   -1.153983
     20          1           0        3.006427   -1.447987   -0.461807
     21          1           0        2.509327   -0.802154   -2.093995
     22          1           0        0.401931   -2.105247   -1.968898
     23          1           0        0.898189   -2.753552   -0.338289
     24          6           0        1.054138   -0.564818    1.585231
     25          8           0        1.267795   -0.926531    2.641091
 ---------------------------------------------------------------------
 Rotational constants (GHZ):           0.8414193           0.5898960           0.5350236
 Leave Link  202 at Tue Oct  4 16:17:31 2022, MaxMem=  2952790016 cpu:               0.1 elap:               0.0
 (Enter /mnt/data/applications/G16/g16/l301.exe)
 Basis read from rwf:  (5D, 7F)
 Pseudo-potential data read from rwf file.
 There are   489 symmetry adapted cartesian basis functions of A   symmetry.
 There are   436 symmetry adapted basis functions of A   symmetry.
   436 basis functions,   705 primitive gaussians,   489 cartesian basis functions
    52 alpha electrons       52 beta electrons
       nuclear repulsion energy       876.7800857909 Hartrees.
 IExCor= 4639 DFT=T Ex+Corr=wB97XD ExCW=0 ScaHFX=  1.000000
 ScaDFX=  1.000000  1.000000  1.000000  1.000000 ScalE2=  1.000000  1.000000
 IRadAn=      5 IRanWt=     -1 IRanGd=            0 ICorTp=0 IEmpDi=121
 HFx  wShort=  0.000000 wLong=  0.200000 cFull=  0.222036 cShort=  0.000000 cLong=  0.777964
 DFx  wShort=  0.000000 wLong=  0.200000 cFull=  0.000000 cShort=  0.000000 cLong=  1.000000
 NAtoms=   25 NActive=   25 NUniq=   25 SFac= 1.00D+00 NAtFMM=   60 NAOKFM=F Big=F
 Integral buffers will be    131072 words long.
 Raffenetti 2 integral format.
 Two-electron integral symmetry is turned on.
 R6Disp:  Grimme-D2 Dispersion energy=       -0.0206332690 Hartrees.
 Nuclear repulsion after empirical dispersion term =      876.7594525219 Hartrees.
 No density basis found on file   724.
 ------------------------------------------------------------------------------
 Polarizable Continuum Model (PCM)
 =================================
 Model                : PCM.
 Atomic radii         : SMD-Coulomb.
 Polarization charges : Total charges.
 Charge compensation  : None.
 Solution method      : On-the-fly selection.
 Cavity type          : VdW (van der Waals Surface) (Alpha=1.000).
 Cavity algorithm     : GePol (No added spheres)
                        Default sphere list used, NSphG=   25.
                        Lebedev-Laikov grids with approx.  5.0 points / Ang**2.
                        Smoothing algorithm: York/Karplus (Gamma=1.0000).
                        Polarization charges: spherical gaussians, with
                                              point-specific exponents (IZeta= 3).
                        Self-potential: point-specific (ISelfS= 7).
                        Self-field    : sphere-specific E.n sum rule (ISelfD= 2).
 1st derivatives      : Analytical E(r).r(x)/FMM algorithm (CHGder, D1EAlg=3).
                        Cavity 1st derivative terms included.
 Solvent              : Toluene, Eps=   2.374100 Eps(inf)=   2.238315
 ------------------------------------------------------------------------------
 GePol: Number of generator spheres                  =      25
 GePol: Total number of spheres                      =      25
 GePol: Number of exposed spheres                    =      25 (100.00%)
 GePol: Number of points                             =    2321
 GePol: Average weight of points                     =       0.12
 GePol: Minimum weight of points                     =   0.42D-10
 GePol: Maximum weight of points                     =    0.20615
 GePol: Number of points with low weight             =     110
 GePol: Fraction of low-weight points (<1% of avg)   =       4.74%
 GePol: Cavity surface area                          =    281.659 Ang**2
 GePol: Cavity volume                                =    249.854 Ang**3
 ------------------------------------------------------------------------------
 Atomic radii for non-electrostatic terms: SMD-CDS.
 ------------------------------------------------------------------------------
 PCM non-electrostatic energy =         0.0007436978 Hartrees.
 Nuclear repulsion after PCM non-electrostatic terms =      876.7601962197 Hartrees.
 Leave Link  301 at Tue Oct  4 16:17:32 2022, MaxMem=  2952790016 cpu:               1.8 elap:               0.2
 (Enter /mnt/data/applications/G16/g16/l302.exe)
 NPDir=0 NMtPBC=     1 NCelOv=     1 NCel=       1 NClECP=     1 NCelD=      1
         NCelK=      1 NCelE2=     1 NClLst=     1 CellRange=     0.0.
 One-electron integrals computed using PRISM.
 One-electron integral symmetry used in STVInt
   1 Symmetry operations used in ECPInt.
 ECPInt:  NShTT=   16653 NPrTT=   49115 LenC2=   15841 LenP2D=   35633.
 LDataN:  DoStor=T MaxTD1= 7 Len=  274
 NBasis=   436 RedAO= T EigKep=  1.35D-04  NBF=   436
 NBsUse=   436 1.00D-06 EigRej= -1.00D+00 NBFU=   436
 Precomputing XC quadrature grid using
 IXCGrd= 4 IRadAn=           5 IRanWt=          -1 IRanGd=           0 AccXCQ= 0.00D+00.
 Defaulting to unpruned grid for atomic number  45.
 Generated NRdTot=       0 NPtTot=           0 NUsed=           0 NTot=          32
 NSgBfM=   487   487   487   487   487 MxSgAt=    25 MxSgA2=    25.
 Leave Link  302 at Tue Oct  4 16:17:33 2022, MaxMem=  2952790016 cpu:              15.2 elap:               1.3
 (Enter /mnt/data/applications/G16/g16/l303.exe)
 DipDrv:  MaxL=1.
 Leave Link  303 at Tue Oct  4 16:17:33 2022, MaxMem=  2952790016 cpu:               0.9 elap:               0.1
 (Enter /mnt/data/applications/G16/g16/l401.exe)
 Initial guess from the checkpoint file:  "I3.chk"
 B after Tr=    -0.000000   -0.000000   -0.000000
         Rot=    0.999996   -0.002662    0.000179    0.000176 Ang=  -0.31 deg.
 Guess basis will be translated and rotated to current coordinates.
 JPrj=2 DoOrth=T DoCkMO=T.
 Leave Link  401 at Tue Oct  4 16:17:34 2022, MaxMem=  2952790016 cpu:               8.4 elap:               0.7
 (Enter /mnt/data/applications/G16/g16/l502.exe)
 Integral symmetry usage will be decided dynamically.
 Closed shell SCF:
 Using DIIS extrapolation, IDIIS=  1040.
 NGot=  2952790016 LenX=  2952301307 LenY=  2952061697
 Requested convergence on RMS density matrix=1.00D-08 within 128 cycles.
 Requested convergence on MAX density matrix=1.00D-06.
 Requested convergence on             energy=1.00D-06.
 No special actions if energy rises.
 Fock matrices will be formed incrementally for  20 cycles.

 Cycle   1  Pass 1  IDiag  1:
 FoFJK:  IHMeth= 1 ICntrl=       0 DoSepK=T KAlg= 0 I1Cent=           0 FoldK=F
 IRaf=         1 NMat=       1 IRICut=       1 DoRegI=T DoRafI=F ISym2E= 0 IDoP0=0 IntGTp=1.
 FoFCou: FMM=F IPFlag=           0 FMFlag=      100000 FMFlg1=           0
         NFxFlg=           0 DoJE=T BraDBF=F KetDBF=F FulRan=T
         wScrn=  0.000000 ICntrl=       500 IOpCl=  0 I1Cent=           0 NGrid=           0
         NMat0=    1 NMatS0=      1 NMatT0=    0 NMatD0=    1 NMtDS0=    0 NMtDT0=    0
 Symmetry not used in FoFCou.
 Defaulting to unpruned grid for atomic number  45.
 Defaulting to unpruned grid for atomic number  45.
 Defaulting to unpruned grid for atomic number  45.
 Defaulting to unpruned grid for atomic number  45.
 Defaulting to unpruned grid for atomic number  45.
 Defaulting to unpruned grid for atomic number  45.
 Defaulting to unpruned grid for atomic number  45.
 Defaulting to unpruned grid for atomic number  45.
 Defaulting to unpruned grid for atomic number  45.
 Defaulting to unpruned grid for atomic number  45.
 Defaulting to unpruned grid for atomic number  45.
 Defaulting to unpruned grid for atomic number  45.
 Inv3:  Mode=1 IEnd=    16161123.
 Iteration    1 A*A^-1 deviation from unit magnitude is 4.44D-15 for    497.
 Iteration    1 A*A^-1 deviation from orthogonality  is 1.52D-15 for   1458    419.
 Iteration    1 A^-1*A deviation from unit magnitude is 4.44D-15 for    497.
 Iteration    1 A^-1*A deviation from orthogonality  is 1.16D-15 for   1520    480.
 E= -877.673513082477    
 DIIS: error= 2.37D-04 at cycle   1 NSaved=   1.
 NSaved= 1 IEnMin= 1 EnMin= -877.673513082477     IErMin= 1 ErrMin= 2.37D-04
 ErrMax= 2.37D-04  0.00D+00 EMaxC= 1.00D-01 BMatC= 2.75D-05 BMatP= 2.75D-05
 IDIUse=3 WtCom= 9.98D-01 WtEn= 2.37D-03
 Coeff-Com:  0.100D+01
 Coeff-En:   0.100D+01
 Coeff:      0.100D+01
 Gap=     1.746 Goal=   None    Shift=    0.000
 RMSDP=1.12D-05 MaxDP=6.71D-04              OVMax= 1.15D-03

 Cycle   2  Pass 1  IDiag  1:
 RMSU=  1.12D-05    CP:  1.00D+00
 E= -877.673536331391     Delta-E=       -0.000023248914 Rises=F Damp=F
 DIIS: error= 3.33D-05 at cycle   2 NSaved=   2.
 NSaved= 2 IEnMin= 2 EnMin= -877.673536331391     IErMin= 2 ErrMin= 3.33D-05
 ErrMax= 3.33D-05  0.00D+00 EMaxC= 1.00D-01 BMatC= 6.86D-07 BMatP= 2.75D-05
 IDIUse=1 WtCom= 1.00D+00 WtEn= 0.00D+00
 Coeff-Com: -0.842D-01 0.108D+01
 Coeff:     -0.842D-01 0.108D+01
 Gap=     0.317 Goal=   None    Shift=    0.000
 RMSDP=3.51D-06 MaxDP=1.51D-04 DE=-2.32D-05 OVMax= 4.18D-04

 Cycle   3  Pass 1  IDiag  1:
 RMSU=  3.11D-06    CP:  1.00D+00  1.14D+00
 E= -877.673537842669     Delta-E=       -0.000001511278 Rises=F Damp=F
 DIIS: error= 1.31D-05 at cycle   3 NSaved=   3.
 NSaved= 3 IEnMin= 3 EnMin= -877.673537842669     IErMin= 3 ErrMin= 1.31D-05
 ErrMax= 1.31D-05  0.00D+00 EMaxC= 1.00D-01 BMatC= 1.72D-07 BMatP= 6.86D-07
 IDIUse=1 WtCom= 1.00D+00 WtEn= 0.00D+00
 Coeff-Com: -0.348D-01 0.282D+00 0.753D+00
 Coeff:     -0.348D-01 0.282D+00 0.753D+00
 Gap=     0.317 Goal=   None    Shift=    0.000
 RMSDP=1.68D-06 MaxDP=1.62D-04 DE=-1.51D-06 OVMax= 1.71D-04

 Cycle   4  Pass 1  IDiag  1:
 RMSU=  1.51D-06    CP:  1.00D+00  1.19D+00  8.60D-01
 E= -877.673537923241     Delta-E=       -0.000000080572 Rises=F Damp=F
 DIIS: error= 2.05D-05 at cycle   4 NSaved=   4.
 NSaved= 4 IEnMin= 4 EnMin= -877.673537923241     IErMin= 3 ErrMin= 1.31D-05
 ErrMax= 2.05D-05  0.00D+00 EMaxC= 1.00D-01 BMatC= 1.99D-07 BMatP= 1.72D-07
 IDIUse=1 WtCom= 1.00D+00 WtEn= 0.00D+00
 Coeff-Com: -0.509D-02-0.598D-01 0.548D+00 0.517D+00
 Coeff:     -0.509D-02-0.598D-01 0.548D+00 0.517D+00
 Gap=     0.317 Goal=   None    Shift=    0.000
 RMSDP=1.01D-06 MaxDP=1.26D-04 DE=-8.06D-08 OVMax= 1.03D-04

 Cycle   5  Pass 1  IDiag  1:
 RMSU=  7.96D-07    CP:  1.00D+00  1.20D+00  1.01D+00  7.64D-01
 E= -877.673538059193     Delta-E=       -0.000000135952 Rises=F Damp=F
 DIIS: error= 8.08D-06 at cycle   5 NSaved=   5.
 NSaved= 5 IEnMin= 5 EnMin= -877.673538059193     IErMin= 5 ErrMin= 8.08D-06
 ErrMax= 8.08D-06  0.00D+00 EMaxC= 1.00D-01 BMatC= 4.12D-08 BMatP= 1.72D-07
 IDIUse=1 WtCom= 1.00D+00 WtEn= 0.00D+00
 Coeff-Com:  0.323D-02-0.996D-01 0.243D+00 0.365D+00 0.489D+00
 Coeff:      0.323D-02-0.996D-01 0.243D+00 0.365D+00 0.489D+00
 Gap=     0.317 Goal=   None    Shift=    0.000
 RMSDP=4.08D-07 MaxDP=4.03D-05 DE=-1.36D-07 OVMax= 4.42D-05

 Cycle   6  Pass 1  IDiag  1:
 RMSU=  2.11D-07    CP:  1.00D+00  1.21D+00  1.07D+00  8.96D-01  7.40D-01
 E= -877.673538092754     Delta-E=       -0.000000033561 Rises=F Damp=F
 DIIS: error= 2.50D-06 at cycle   6 NSaved=   6.
 NSaved= 6 IEnMin= 6 EnMin= -877.673538092754     IErMin= 6 ErrMin= 2.50D-06
 ErrMax= 2.50D-06  0.00D+00 EMaxC= 1.00D-01 BMatC= 3.31D-09 BMatP= 4.12D-08
 IDIUse=1 WtCom= 1.00D+00 WtEn= 0.00D+00
 Coeff-Com:  0.252D-02-0.405D-01 0.185D-01 0.838D-01 0.254D+00 0.682D+00
 Coeff:      0.252D-02-0.405D-01 0.185D-01 0.838D-01 0.254D+00 0.682D+00
 Gap=     0.317 Goal=   None    Shift=    0.000
 RMSDP=1.76D-07 MaxDP=1.09D-05 DE=-3.36D-08 OVMax= 2.27D-05

 Cycle   7  Pass 1  IDiag  1:
 RMSU=  9.18D-08    CP:  1.00D+00  1.21D+00  1.11D+00  9.25D-01  8.08D-01
                    CP:  9.82D-01
 E= -877.673538096261     Delta-E=       -0.000000003507 Rises=F Damp=F
 DIIS: error= 8.10D-07 at cycle   7 NSaved=   7.
 NSaved= 7 IEnMin= 7 EnMin= -877.673538096261     IErMin= 7 ErrMin= 8.10D-07
 ErrMax= 8.10D-07  0.00D+00 EMaxC= 1.00D-01 BMatC= 4.29D-10 BMatP= 3.31D-09
 IDIUse=1 WtCom= 1.00D+00 WtEn= 0.00D+00
 Coeff-Com:  0.553D-03 0.676D-03-0.382D-01-0.318D-01 0.277D-01 0.307D+00
 Coeff-Com:  0.734D+00
 Coeff:      0.553D-03 0.676D-03-0.382D-01-0.318D-01 0.277D-01 0.307D+00
 Coeff:      0.734D+00
 Gap=     0.317 Goal=   None    Shift=    0.000
 RMSDP=8.55D-08 MaxDP=6.29D-06 DE=-3.51D-09 OVMax= 1.20D-05

 Cycle   8  Pass 1  IDiag  1:
 RMSU=  3.77D-08    CP:  1.00D+00  1.21D+00  1.11D+00  9.57D-01  8.70D-01
                    CP:  1.11D+00  1.06D+00
 E= -877.673538096864     Delta-E=       -0.000000000603 Rises=F Damp=F
 DIIS: error= 2.43D-07 at cycle   8 NSaved=   8.
 NSaved= 8 IEnMin= 8 EnMin= -877.673538096864     IErMin= 8 ErrMin= 2.43D-07
 ErrMax= 2.43D-07  0.00D+00 EMaxC= 1.00D-01 BMatC= 3.29D-11 BMatP= 4.29D-10
 IDIUse=1 WtCom= 1.00D+00 WtEn= 0.00D+00
 Coeff-Com: -0.202D-03 0.682D-02-0.158D-01-0.234D-01-0.260D-01-0.298D-02
 Coeff-Com:  0.218D+00 0.844D+00
 Coeff:     -0.202D-03 0.682D-02-0.158D-01-0.234D-01-0.260D-01-0.298D-02
 Coeff:      0.218D+00 0.844D+00
 Gap=     0.317 Goal=   None    Shift=    0.000
 RMSDP=3.53D-08 MaxDP=2.16D-06 DE=-6.03D-10 OVMax= 6.68D-06

 Cycle   9  Pass 1  IDiag  1:
 RMSU=  1.41D-08    CP:  1.00D+00  1.21D+00  1.12D+00  9.67D-01  8.88D-01
                    CP:  1.19D+00  1.23D+00  1.16D+00
 E= -877.673538096928     Delta-E=       -0.000000000064 Rises=F Damp=F
 DIIS: error= 5.14D-08 at cycle   9 NSaved=   9.
 NSaved= 9 IEnMin= 9 EnMin= -877.673538096928     IErMin= 9 ErrMin= 5.14D-08
 ErrMax= 5.14D-08  0.00D+00 EMaxC= 1.00D-01 BMatC= 2.98D-12 BMatP= 3.29D-11
 IDIUse=1 WtCom= 1.00D+00 WtEn= 0.00D+00
 Coeff-Com: -0.759D-04 0.105D-02 0.283D-03-0.113D-02-0.495D-02-0.233D-01
 Coeff-Com: -0.297D-01 0.115D+00 0.942D+00
 Coeff:     -0.759D-04 0.105D-02 0.283D-03-0.113D-02-0.495D-02-0.233D-01
 Coeff:     -0.297D-01 0.115D+00 0.942D+00
 Gap=     0.317 Goal=   None    Shift=    0.000
 RMSDP=1.22D-08 MaxDP=5.95D-07 DE=-6.37D-11 OVMax= 2.69D-06

 Cycle  10  Pass 1  IDiag  1:
 RMSU=  6.45D-09    CP:  1.00D+00  1.21D+00  1.12D+00  9.69D-01  8.92D-01
                    CP:  1.21D+00  1.29D+00  1.30D+00  1.14D+00
 E= -877.673538096961     Delta-E=       -0.000000000033 Rises=F Damp=F
 DIIS: error= 2.39D-08 at cycle  10 NSaved=  10.
 NSaved=10 IEnMin=10 EnMin= -877.673538096961     IErMin=10 ErrMin= 2.39D-08
 ErrMax= 2.39D-08  0.00D+00 EMaxC= 1.00D-01 BMatC= 7.42D-13 BMatP= 2.98D-12
 IDIUse=1 WtCom= 1.00D+00 WtEn= 0.00D+00
 Coeff-Com:  0.257D-04-0.141D-02 0.395D-02 0.557D-02 0.509D-02-0.623D-02
 Coeff-Com: -0.654D-01-0.171D+00 0.293D+00 0.937D+00
 Coeff:      0.257D-04-0.141D-02 0.395D-02 0.557D-02 0.509D-02-0.623D-02
 Coeff:     -0.654D-01-0.171D+00 0.293D+00 0.937D+00
 Gap=     0.317 Goal=   None    Shift=    0.000
 RMSDP=7.32D-09 MaxDP=3.69D-07 DE=-3.30D-11 OVMax= 1.61D-06

 Error on total polarization charges =  0.02512
 SCF Done:  E(RwB97XD) =  -877.673538097     A.U. after   10 cycles
            NFock= 10  Conv=0.73D-08     -V/T= 2.0906
 KE= 8.047579137728D+02 PE=-3.791691634963D+03 EE= 1.232499986874D+03
 SMD-CDS (non-electrostatic) energy       (kcal/mol) =       0.47
 (included in total energy above)
 Leave Link  502 at Tue Oct  4 16:25:36 2022, MaxMem=  2952790016 cpu:            5739.5 elap:             482.2
 (Enter /mnt/data/applications/G16/g16/l701.exe)
 ... and contract with generalized density number  0.
 Compute integral first derivatives.
 R6Disp: Adding Grimme-D2 dispersion energy 1st derivatives to the gradient.
   1 Symmetry operations used in ECPInt.
 ECPInt:  NShTT=   16653 NPrTT=   49115 LenC2=   15841 LenP2D=   35633.
 LDataN:  DoStor=T MaxTD1= 8 Len=  415
 D1PCM: PCM CHGder 1st derivatives, ID1Alg=3 FixD1E=F DoIter=F DoCFld=F I1PDM=0.
 GePol: Maximum number of non-zero 1st derivatives   =     420
 Leave Link  701 at Tue Oct  4 16:25:45 2022, MaxMem=  2952790016 cpu:             104.6 elap:               8.8
 (Enter /mnt/data/applications/G16/g16/l702.exe)
 L702 exits ... SP integral derivatives will be done elsewhere.
 Leave Link  702 at Tue Oct  4 16:25:45 2022, MaxMem=  2952790016 cpu:               0.2 elap:               0.0
 (Enter /mnt/data/applications/G16/g16/l703.exe)
 Integral derivatives from FoFJK, PRISM(SPDF).
 Compute integral first derivatives, UseDBF=F ICtDFT=           0.
 Calling FoFJK, ICntrl=      2127 FMM=F ISym2X=0 I1Cent= 0 IOpClX= 0 NMat=1 NMatS=1 NMatT=0.
 FoFJK:  IHMeth= 1 ICntrl=    2127 DoSepK=T KAlg= 0 I1Cent=           0 FoldK=F
 IRaf=         1 NMat=       1 IRICut=       1 DoRegI=T DoRafI=F ISym2E= 0 IDoP0=0 IntGTp=1.
 FoFCou: FMM=F IPFlag=           0 FMFlag=      100000 FMFlg1=         800
         NFxFlg=           0 DoJE=F BraDBF=F KetDBF=F FulRan=T
         wScrn=  0.000000 ICntrl=      2527 IOpCl=  0 I1Cent=           0 NGrid=           0
         NMat0=    1 NMatS0=      1 NMatT0=    0 NMatD0=    1 NMtDS0=    0 NMtDT0=    0
 Symmetry not used in FoFCou.
 Defaulting to unpruned grid for atomic number  45.
 Defaulting to unpruned grid for atomic number  45.
 Defaulting to unpruned grid for atomic number  45.
 Defaulting to unpruned grid for atomic number  45.
 Defaulting to unpruned grid for atomic number  45.
 Defaulting to unpruned grid for atomic number  45.
 Defaulting to unpruned grid for atomic number  45.
 Defaulting to unpruned grid for atomic number  45.
 Defaulting to unpruned grid for atomic number  45.
 Defaulting to unpruned grid for atomic number  45.
 Defaulting to unpruned grid for atomic number  45.
 Defaulting to unpruned grid for atomic number  45.
 Leave Link  703 at Tue Oct  4 16:28:40 2022, MaxMem=  2952790016 cpu:            2102.5 elap:             175.7
 (Enter /mnt/data/applications/G16/g16/l716.exe)
 Dipole        =-1.89263946D+00-4.76765967D-01 1.15912336D-01
 ***** Axes restored to original set *****
 -------------------------------------------------------------------
 Center     Atomic                   Forces (Hartrees/Bohr)
 Number     Number              X              Y              Z
 -------------------------------------------------------------------
      1        1           0.000008295   -0.000047246    0.000183125
      2       45          -0.000106722    0.000104284    0.000064028
      3       15           0.000058866   -0.000022144   -0.000015412
      4        6          -0.000031585   -0.000006809   -0.000004903
      5        6          -0.000031969    0.000003411    0.000003496
      6        6          -0.000057550   -0.000007368    0.000009989
      7        1          -0.000004752   -0.000002040   -0.000003114
      8        1          -0.000010355   -0.000010035    0.000015621
      9        1          -0.000003230   -0.000004100   -0.000003296
     10        1           0.000002822   -0.000000460   -0.000007558
     11        1          -0.000004180    0.000000019   -0.000002814
     12        1          -0.000000574   -0.000004172   -0.000009070
     13        1          -0.000003579    0.000002785    0.000001694
     14        1          -0.000000278   -0.000002449   -0.000002967
     15        1          -0.000005293    0.000001424   -0.000000942
     16        6           0.000117608   -0.000091236   -0.000121410
     17        8           0.000006543   -0.000016828    0.000009576
     18        6           0.000169175    0.000077483   -0.000054300
     19        6           0.000005902   -0.000056209   -0.000023843
     20        1          -0.000013057    0.000014341    0.000034842
     21        1          -0.000012673    0.000041030    0.000004691
     22        1          -0.000020564    0.000034667    0.000000863
     23        1           0.000009454    0.000021566    0.000036346
     24        6          -0.000090350   -0.000083162   -0.000107146
     25        8           0.000018046    0.000053249   -0.000007496
 -------------------------------------------------------------------
 Cartesian Forces:  Max     0.000183125 RMS     0.000050086
 Leave Link  716 at Tue Oct  4 16:28:41 2022, MaxMem=  2952790016 cpu:               0.3 elap:               0.0
 (Enter /mnt/data/applications/G16/g16/l103.exe)

 GradGradGradGradGradGradGradGradGradGradGradGradGradGradGradGradGradGrad
 Berny optimization.
 Using GEDIIS/GDIIS optimizer.
 FormGI is forming the generalized inverse of G from B-inverse, IUseBI=4.
 Internal  Forces:  Max     0.000239627 RMS     0.000044139
 Search for a local minimum.
 Step number   3 out of a maximum of  150
 All quantities printed in internal units (Hartrees-Bohrs-Radians)
 RMS Force = .44139D-04 SwitMx=.10000D-02 MixMth= 2
 Mixed Optimization -- En-DIIS/RFO-DIIS
 Swapping is turned off.
 Update second derivatives using D2CorX and points    1    2    3
 DE= -4.12D-06 DEPred=-2.45D-06 R= 1.68D+00
 TightC=F SS=  1.41D+00  RLast= 1.03D-02 DXNew= 8.4090D-02 3.0801D-02
 Trust test= 1.68D+00 RLast= 1.03D-02 DXMaxT set to 5.00D-02
 ITU=  1  1  0
     Eigenvalues ---    0.00231   0.00627   0.00879   0.00904   0.00910
     Eigenvalues ---    0.01855   0.02881   0.03189   0.03394   0.03521
     Eigenvalues ---    0.03631   0.03672   0.04157   0.05075   0.05176
     Eigenvalues ---    0.05321   0.05878   0.05880   0.05916   0.06156
     Eigenvalues ---    0.06193   0.06225   0.06481   0.06548   0.06867
     Eigenvalues ---    0.07316   0.07718   0.08601   0.08920   0.12008
     Eigenvalues ---    0.13068   0.13230   0.13931   0.14158   0.15090
     Eigenvalues ---    0.15875   0.16000   0.16000   0.16000   0.16000
     Eigenvalues ---    0.16000   0.16000   0.16000   0.16008   0.16022
     Eigenvalues ---    0.17868   0.18062   0.22605   0.24235   0.24449
     Eigenvalues ---    0.24621   0.24659   0.29139   0.34543   0.34551
     Eigenvalues ---    0.34573   0.34671   0.34681   0.34693   0.34727
     Eigenvalues ---    0.34732   0.34746   0.35511   0.35603   0.35652
     Eigenvalues ---    0.35742   0.43608   1.42015   1.44355
 En-DIIS/RFO-DIIS/Sim-DIIS IScMMF=       -3 using points:     3    2    1
 RFO step:  Lambda=-2.30265386D-06.
 NNeg= 0 NGDIIS= 3 SimSw=  2.50D-03 Rises=F DC= -4.12D-06 SmlDif=  1.00D-05
 NRisDI= 0 DoIntr=F SqrtH=F CThrHd= 10.0 CDAdj=  3.0
 RMS Error=  0.6742683664D-03 NUsed= 3 OKEnD=F EnDIS=F
 InvSVX:  RCond= 3.86D-06 Info=           0 Equed=N FErr=  1.93D-14 BErr=  7.38D-17
 DidBck=F Rises=F RFO-DIIS coefs:    1.14206    0.22697   -0.36903
 Iteration  1 RMS(Cart)=  0.00092037 RMS(Int)=  0.00000114
 Iteration  2 RMS(Cart)=  0.00000084 RMS(Int)=  0.00000100
 ITry= 1 IFail=0 DXMaxC= 6.13D-03 DCOld= 1.00D+10 DXMaxT= 5.00D-02 DXLimC= 3.00D+00 Rises=F
 Variable       Old X    -DE/DX   Delta X   Delta X   Delta X     New X
                                 (Linear)    (Quad)   (Total)
    R1        3.01473  -0.00018   0.00053  -0.00129  -0.00076   3.01398
    R2        4.41663   0.00009  -0.00208   0.00080  -0.00128   4.41536
    R3        3.61906  -0.00007   0.00069  -0.00043   0.00026   3.61932
    R4        4.16334  -0.00005   0.00103  -0.00056   0.00047   4.16381
    R5        4.16534   0.00001   0.00083   0.00007   0.00089   4.16623
    R6        3.66688  -0.00012   0.00143  -0.00081   0.00062   3.66750
    R7        3.43742   0.00003  -0.00007   0.00013   0.00006   3.43747
    R8        3.43806   0.00002  -0.00007   0.00011   0.00004   3.43810
    R9        3.44190   0.00005  -0.00012   0.00023   0.00011   3.44201
   R10        2.06124  -0.00000   0.00001  -0.00001   0.00000   2.06124
   R11        2.06096  -0.00000   0.00001  -0.00001  -0.00000   2.06096
   R12        2.06423   0.00000  -0.00001   0.00001   0.00000   2.06423
   R13        2.06117  -0.00000   0.00001  -0.00001   0.00000   2.06117
   R14        2.06185  -0.00000   0.00001  -0.00001  -0.00000   2.06184
   R15        2.06410   0.00000  -0.00001   0.00002   0.00001   2.06411
   R16        2.06214  -0.00000   0.00000  -0.00001  -0.00001   2.06213
   R17        2.06404   0.00001  -0.00002   0.00003   0.00002   2.06405
   R18        2.06202  -0.00000   0.00001  -0.00001  -0.00000   2.06202
   R19        2.15373  -0.00002  -0.00001  -0.00001  -0.00002   2.15371
   R20        2.64852  -0.00009  -0.00002  -0.00023  -0.00025   2.64828
   R21        2.04642   0.00001  -0.00003   0.00003  -0.00000   2.04642
   R22        2.04862   0.00001  -0.00002   0.00003   0.00001   2.04863
   R23        2.04715   0.00001  -0.00003   0.00003   0.00000   2.04715
   R24        2.04520   0.00001  -0.00002   0.00004   0.00001   2.04521
   R25        2.14742  -0.00002  -0.00005  -0.00002  -0.00007   2.14735
    A1        1.40918  -0.00000  -0.00052  -0.00040  -0.00092   1.40826
    A2        1.45775  -0.00003  -0.00026   0.00013  -0.00013   1.45761
    A3        1.48420  -0.00001  -0.00070   0.00010  -0.00060   1.48360
    A4        1.49503   0.00002  -0.00044   0.00033  -0.00011   1.49491
    A5        1.90070   0.00017   0.00042   0.00062   0.00103   1.90173
    A6        1.75704   0.00006   0.00003   0.00024   0.00027   1.75731
    A7        2.38808   0.00005  -0.00020   0.00022   0.00002   2.38810
    A8        1.69683  -0.00003   0.00029  -0.00017   0.00012   1.69695
    A9        2.54779  -0.00024  -0.00107  -0.00082  -0.00189   2.54589
   A10        1.91941  -0.00022  -0.00076  -0.00085  -0.00161   1.91780
   A11        1.73416   0.00005   0.00089   0.00017   0.00106   1.73522
   A12        1.62482   0.00000   0.00019  -0.00006   0.00013   1.62495
   A13        1.64652   0.00000   0.00024   0.00006   0.00030   1.64682
   A14        2.02214   0.00001   0.00009   0.00017   0.00027   2.02241
   A15        1.99510   0.00001   0.00010   0.00010   0.00020   1.99530
   A16        2.04528   0.00002  -0.00027   0.00024  -0.00003   2.04526
   A17        1.79078  -0.00001   0.00003  -0.00020  -0.00017   1.79061
   A18        1.78621  -0.00002   0.00004  -0.00021  -0.00016   1.78605
   A19        1.78876  -0.00002   0.00002  -0.00022  -0.00020   1.78856
   A20        1.90934   0.00000  -0.00001   0.00001   0.00000   1.90934
   A21        1.90658   0.00000  -0.00000   0.00002   0.00002   1.90660
   A22        1.94588   0.00001  -0.00004   0.00005   0.00001   1.94589
   A23        1.88914  -0.00000   0.00001  -0.00001   0.00000   1.88915
   A24        1.90480  -0.00000   0.00001  -0.00001   0.00000   1.90480
   A25        1.90722  -0.00001   0.00002  -0.00006  -0.00004   1.90719
   A26        1.90390   0.00001   0.00003   0.00002   0.00005   1.90395
   A27        1.90558  -0.00000   0.00003  -0.00004  -0.00001   1.90556
   A28        1.95150   0.00001  -0.00008   0.00008   0.00000   1.95150
   A29        1.88600  -0.00000   0.00001  -0.00003  -0.00002   1.88598
   A30        1.90866  -0.00000   0.00000  -0.00002  -0.00002   1.90864
   A31        1.90706  -0.00000   0.00001  -0.00001   0.00000   1.90706
   A32        1.90998  -0.00000   0.00003  -0.00003  -0.00001   1.90998
   A33        1.94788   0.00003  -0.00014   0.00024   0.00010   1.94798
   A34        1.90914  -0.00001   0.00003  -0.00007  -0.00005   1.90909
   A35        1.90329  -0.00001   0.00003  -0.00007  -0.00004   1.90325
   A36        1.88876   0.00000   0.00003  -0.00002   0.00001   1.88878
   A37        1.90384  -0.00001   0.00003  -0.00005  -0.00002   1.90382
   A38        1.92376  -0.00003   0.00026  -0.00039  -0.00013   1.92363
   A39        1.95243  -0.00003  -0.00029  -0.00025  -0.00055   1.95188
   A40        2.09029  -0.00000   0.00001   0.00019   0.00019   2.09048
   A41        2.09087  -0.00002   0.00016  -0.00012   0.00004   2.09091
   A42        2.00019   0.00003  -0.00012   0.00015   0.00003   2.00022
   A43        1.93975  -0.00001  -0.00016  -0.00019  -0.00035   1.93940
   A44        1.91333  -0.00002   0.00030  -0.00033  -0.00003   1.91330
   A45        2.09531   0.00001   0.00008  -0.00002   0.00006   2.09537
   A46        2.09501  -0.00001  -0.00004   0.00020   0.00016   2.09517
   A47        2.00356   0.00002  -0.00015   0.00016   0.00001   2.00358
   A48        3.10602  -0.00003  -0.00023  -0.00057  -0.00081   3.10521
   A49        3.09413   0.00003  -0.00089   0.00086  -0.00003   3.09410
   A50        3.12531   0.00005   0.00017   0.00037   0.00053   3.12584
   A51        3.10076  -0.00001  -0.00058  -0.00009  -0.00067   3.10009
   A52        3.18064  -0.00001  -0.00075   0.00123   0.00048   3.18112
   A53        3.12824   0.00010  -0.00002   0.00087   0.00085   3.12909
    D1        1.01574   0.00001  -0.00017  -0.00051  -0.00068   1.01507
    D2       -1.06148   0.00001  -0.00037  -0.00045  -0.00082  -1.06230
    D3        3.12872   0.00001  -0.00026  -0.00044  -0.00069   3.12803
    D4        2.40897  -0.00007  -0.00074  -0.00066  -0.00141   2.40756
    D5        0.33174  -0.00007  -0.00094  -0.00061  -0.00155   0.33019
    D6       -1.76124  -0.00006  -0.00083  -0.00059  -0.00142  -1.76266
    D7       -0.43487   0.00003   0.00067  -0.00049   0.00019  -0.43469
    D8       -2.51210   0.00002   0.00047  -0.00043   0.00004  -2.51206
    D9        1.67810   0.00003   0.00058  -0.00041   0.00017   1.67827
   D10       -0.26514   0.00001   0.00102  -0.00044   0.00058  -0.26456
   D11       -2.34236   0.00001   0.00082  -0.00038   0.00044  -2.34193
   D12        1.84784   0.00001   0.00093  -0.00036   0.00056   1.84840
   D13       -2.08502   0.00002   0.00041  -0.00042  -0.00001  -2.08502
   D14        2.12094   0.00002   0.00021  -0.00037  -0.00015   2.12079
   D15        0.02796   0.00002   0.00032  -0.00035  -0.00002   0.02794
   D16       -0.46077   0.00002   0.00024   0.00007   0.00032  -0.46045
   D17       -2.70785   0.00003   0.00043   0.00039   0.00082  -2.70703
   D18        0.92832   0.00001  -0.00044  -0.00035  -0.00079   0.92753
   D19       -1.31877   0.00002  -0.00026  -0.00003  -0.00028  -1.31905
   D20       -1.69423  -0.00006   0.00122  -0.00084   0.00037  -1.69386
   D21        2.34187  -0.00005   0.00140  -0.00052   0.00087   2.34275
   D22        2.63785  -0.00001  -0.00010  -0.00052  -0.00062   2.63723
   D23        0.39077  -0.00000   0.00008  -0.00020  -0.00012   0.39065
   D24        2.73336   0.00002   0.00042   0.00031   0.00073   2.73409
   D25        0.49985   0.00002   0.00050   0.00049   0.00100   0.50085
   D26       -2.30135   0.00001  -0.00080  -0.00002  -0.00082  -2.30217
   D27        1.74833   0.00001  -0.00071   0.00016  -0.00055   1.74777
   D28        1.31107   0.00001   0.00077  -0.00006   0.00071   1.31178
   D29       -0.92243   0.00001   0.00085   0.00012   0.00097  -0.92146
   D30       -0.46223  -0.00001  -0.00017  -0.00014  -0.00030  -0.46253
   D31       -2.69573  -0.00001  -0.00008   0.00005  -0.00004  -2.69577
   D32        1.07438   0.00000  -0.00022  -0.00007  -0.00029   1.07409
   D33       -0.99063   0.00000  -0.00023  -0.00008  -0.00031  -0.99094
   D34       -3.10031   0.00000  -0.00023  -0.00005  -0.00028  -3.10059
   D35       -3.02274   0.00001  -0.00001   0.00001   0.00001  -3.02273
   D36        1.19543   0.00001  -0.00002   0.00001  -0.00001   1.19542
   D37       -0.91425   0.00001  -0.00002   0.00004   0.00001  -0.91423
   D38       -1.17257  -0.00002   0.00003  -0.00034  -0.00031  -1.17288
   D39        3.04560  -0.00002   0.00002  -0.00035  -0.00032   3.04528
   D40        0.93592  -0.00001   0.00002  -0.00032  -0.00030   0.93562
   D41        1.00918  -0.00000   0.00023   0.00008   0.00030   1.00948
   D42       -1.04829   0.00000   0.00018   0.00012   0.00030  -1.04798
   D43        3.12248   0.00000   0.00020   0.00011   0.00031   3.12279
   D44       -1.19447  -0.00001   0.00003  -0.00006  -0.00003  -1.19450
   D45        3.03125  -0.00001  -0.00002  -0.00001  -0.00003   3.03122
   D46        0.91883  -0.00001  -0.00000  -0.00002  -0.00002   0.91880
   D47       -3.04267   0.00001  -0.00004   0.00029   0.00025  -3.04243
   D48        1.18304   0.00002  -0.00008   0.00033   0.00025   1.18329
   D49       -0.92938   0.00002  -0.00006   0.00032   0.00026  -0.92912
   D50       -1.04681  -0.00000  -0.00004  -0.00003  -0.00008  -1.04688
   D51        3.12807  -0.00000  -0.00000  -0.00009  -0.00009   3.12798
   D52        1.01963  -0.00001   0.00003  -0.00013  -0.00009   1.01954
   D53        1.18553   0.00001  -0.00007   0.00019   0.00012   1.18566
   D54       -0.92278   0.00001  -0.00003   0.00014   0.00011  -0.92266
   D55       -3.03121   0.00001   0.00001   0.00010   0.00011  -3.03110
   D56        3.03726  -0.00001  -0.00001  -0.00015  -0.00016   3.03710
   D57        0.92895  -0.00001   0.00003  -0.00020  -0.00017   0.92878
   D58       -1.17948  -0.00001   0.00006  -0.00024  -0.00018  -1.17966
   D59       -2.66343  -0.00004   0.00018  -0.00071  -0.00053  -2.66396
   D60        0.01398   0.00001  -0.00014   0.00016   0.00002   0.01400
   D61       -0.01643  -0.00001   0.00024  -0.00017   0.00007  -0.01636
   D62        2.66097   0.00004  -0.00007   0.00070   0.00062   2.66159
         Item               Value     Threshold  Converged?
 Maximum Force            0.000240     0.000450     YES
 RMS     Force            0.000044     0.000300     YES
 Maximum Displacement     0.006131     0.001800     NO 
 RMS     Displacement     0.000920     0.001200     YES
 Predicted change in Energy=-1.033158D-06
 Lowest energy point so far.  Saving SCF results.
 GradGradGradGradGradGradGradGradGradGradGradGradGradGradGradGradGradGrad

 Leave Link  103 at Tue Oct  4 16:28:41 2022, MaxMem=  2952790016 cpu:               0.5 elap:               0.1
 (Enter /mnt/data/applications/G16/g16/l202.exe)
                          Input orientation:                          
 ---------------------------------------------------------------------
 Center     Atomic      Atomic             Coordinates (Angstroms)
 Number     Number       Type             X           Y           Z
 ---------------------------------------------------------------------
      1          1           0        0.272980    0.438213   -1.709964
      2         45           0        0.656236    0.026328   -0.217563
      3         15           0       -1.672418    0.016142   -0.026438
      4          6           0       -2.556766   -1.102375   -1.155920
      5          6           0       -2.458856    1.622046   -0.362097
      6          6           0       -2.372412   -0.433824    1.593797
      7          1           0       -2.053117   -1.442860    1.859672
      8          1           0       -3.463973   -0.396064    1.584927
      9          1           0       -1.997872    0.253867    2.353703
     10          1           0       -2.252133   -2.131082   -0.959137
     11          1           0       -2.290341   -0.858371   -2.184955
     12          1           0       -3.639209   -1.019987   -1.034498
     13          1           0       -2.188522    1.948477   -1.367105
     14          1           0       -2.081609    2.361014    0.346469
     15          1           0       -3.546611    1.566354   -0.279862
     16          6           0        1.281536    1.833475   -0.110568
     17          8           0        1.604988    2.926146   -0.091943
     18          6           0        1.005382   -1.977281   -1.065260
     19          6           0        2.199074   -1.247306   -1.143898
     20          1           0        3.005879   -1.450276   -0.450056
     21          1           0        2.509000   -0.815405   -2.086623
     22          1           0        0.401760   -2.118307   -1.953218
     23          1           0        0.897969   -2.755480   -0.318190
     24          6           0        1.052257   -0.554483    1.591405
     25          8           0        1.266122   -0.908286    2.649861
 ---------------------------------------------------------------------
                    Distance matrix (angstroms):
                    1          2          3          4          5
     1  H    0.000000
     2  Rh   1.594928   0.000000
     3  P    2.607101   2.336506   0.000000
     4  C    3.269226   3.532402   1.819033   0.000000
     5  C    3.268200   3.502998   1.819362   2.839403   0.000000
     6  C    4.321272   3.558859   1.821435   2.835823   2.838942
     7  H    4.657410   3.716721   2.414753   3.076262   3.807168
     8  H    5.051450   4.517024   2.444603   2.972229   2.978914
     9  H    4.658771   3.702360   2.414023   3.803842   3.075710
    10  H    3.679839   3.696344   2.411757   1.090763   3.805937
    11  H    2.911591   3.651799   2.409522   1.090611   3.082803
    12  H    4.229400   4.495887   2.440905   1.092344   2.970806
    13  H    2.908168   3.620601   2.407835   3.080244   1.090724
    14  H    3.670173   3.642071   2.409340   3.804999   1.091080
    15  H    4.231686   4.476547   2.445399   2.978151   1.092280
    16  C    2.349895   1.915261   3.469239   4.944142   3.754797
    17  O    3.253005   3.053662   4.383355   5.889076   4.276504
    18  C    2.605123   2.203394   3.496212   3.669139   5.044852
    19  C    2.621306   2.204675   4.222969   4.758063   5.526364
    20  H    3.552815   2.784823   4.921006   5.618033   6.269787
    21  H    2.590988   2.763085   4.734986   5.158541   5.796098
    22  H    2.571295   2.770689   3.545500   3.228107   4.970415
    23  H    3.539396   2.794105   3.791293   3.920426   5.516605
    24  C    3.534368   1.940758   3.219765   4.568701   4.569613
    25  O    4.669847   3.076945   4.080706   5.397788   5.417558
                    6          7          8          9         10
     6  C    0.000000
     7  H    1.091235   0.000000
     8  H    1.092250   1.778140   0.000000
     9  H    1.091172   1.768051   1.778449   0.000000
    10  H    3.068000   2.908425   3.309246   4.089931   0.000000
    11  H    3.803412   4.093520   3.975318   4.682097   1.767451
    12  H    2.975953   3.327270   2.698402   3.974494   1.778818
    13  H    3.804749   4.683118   3.979716   4.092977   4.100401
    14  H    3.074331   4.093904   3.323581   2.911369   4.681091
    15  H    2.981619   3.982900   2.708385   3.325188   3.975943
    16  C    4.625672   5.073079   5.510482   4.395715   5.378159
    17  O    5.472735   6.023184   6.288349   5.109095   6.419109
    18  C    4.567532   4.265589   5.431287   5.068221   3.262870
    19  C    5.390289   5.209684   6.343596   5.665782   4.541854
    20  H    5.842648   5.561325   6.863783   5.983535   5.326288
    21  H    6.125299   6.064640   7.023712   6.416520   5.066618
    22  H    4.807789   4.584842   5.516202   5.471290   2.833991
    23  H    4.443105   3.895505   5.311802   4.957931   3.274725
    24  C    3.426795   3.241069   4.519013   3.246200   4.462054
    25  O    3.818287   3.453624   4.875475   3.477351   5.186349
                   11         12         13         14         15
    11  H    0.000000
    12  H    1.780201   0.000000
    13  H    2.925345   3.320677   0.000000
    14  H    4.100746   3.970435   1.765773   0.000000
    15  H    3.329697   2.695776   1.781157   1.780451   0.000000
    16  C    4.930256   5.762779   3.692345   3.434811   4.838493
    17  O    5.820383   6.630382   4.119780   3.755340   5.331352
    18  C    3.656155   4.742319   5.069883   5.508475   5.821927
    19  C    4.624923   5.843731   5.432665   5.793567   6.455705
    20  H    5.604478   6.684603   6.274895   6.406475   7.215549
    21  H    4.800541   6.240937   5.497587   6.089603   6.753339
    22  H    2.981367   4.287165   4.857142   5.614268   5.653891
    23  H    4.153210   4.910297   5.723099   5.958034   6.199517
    24  C    5.052347   5.396473   5.051756   4.457702   5.398997
    25  O    6.002197   6.135899   6.019276   5.215481   6.153821
                   16         17         18         19         20
    16  C    0.000000
    17  O    1.139692   0.000000
    18  C    3.938217   5.034924   0.000000
    19  C    3.376516   4.344796   1.401408   0.000000
    20  H    3.724464   4.609101   2.158285   1.083304   0.000000
    21  H    3.525341   4.335342   2.157314   1.082276   1.824363
    22  H    4.448140   5.509865   1.082921   2.154989   3.080129
    23  H    4.609636   5.729916   1.084088   2.156214   2.482787
    24  C    2.941364   3.905630   3.014038   3.045830   2.964228
    25  O    3.890689   4.726012   3.874643   3.921472   3.595830
                   21         22         23         24         25
    21  H    0.000000
    22  H    2.481091   0.000000
    23  H    3.080043   1.823604   0.000000
    24  C    3.964602   3.928492   2.918004   0.000000
    25  O    4.897719   4.837314   3.515251   1.136329   0.000000
 Stoichiometry    C7H14O2PRh
 Framework group  C1[X(C7H14O2PRh)]
 Deg. of freedom    69
 Full point group                 C1      NOp   1
 RotChk:  IX=0 Diff= 3.34D-03
 Largest Abelian subgroup         C1      NOp   1
 Largest concise Abelian subgroup C1      NOp   1
                         Standard orientation:                         
 ---------------------------------------------------------------------
 Center     Atomic      Atomic             Coordinates (Angstroms)
 Number     Number       Type             X           Y           Z
 ---------------------------------------------------------------------
      1          1           0        0.273854    0.453686   -1.707168
      2         45           0        0.657068    0.028065   -0.218617
      3         15           0       -1.671570    0.017265   -0.027335
      4          6           0       -2.556578   -1.090510   -1.166842
      5          6           0       -2.457267    1.626533   -0.348293
      6          6           0       -2.371610   -0.447076    1.588820
      7          1           0       -2.052775   -1.458642    1.845474
      8          1           0       -3.463154   -0.408710    1.580413
      9          1           0       -1.996656    0.233497    2.354905
     10          1           0       -2.252421   -2.121111   -0.979453
     11          1           0       -2.290144   -0.837289   -2.193645
     12          1           0       -3.638968   -1.008707   -1.044557
     13          1           0       -2.186881    1.961958   -1.350321
     14          1           0       -2.079587    2.358847    0.366922
     15          1           0       -3.545039    1.570621   -0.266447
     16          6           0        1.283254    1.833862   -0.095264
     17          8           0        1.607236    2.926162   -0.066741
     18          6           0        1.005156   -1.967923   -1.084534
     19          6           0        2.199192   -1.237839   -1.156663
     20          1           0        3.005973   -1.447499   -0.464785
     21          1           0        2.509227   -0.797535   -2.095456
     22          1           0        0.401372   -2.100579   -1.973670
     23          1           0        0.897446   -2.752831   -0.344558
     24          6           0        1.053001   -0.569361    1.584953
     25          8           0        1.266807   -0.932876    2.640125
 ---------------------------------------------------------------------
 Rotational constants (GHZ):           0.8414307           0.5897883           0.5350158
 Leave Link  202 at Tue Oct  4 16:28:41 2022, MaxMem=  2952790016 cpu:               0.1 elap:               0.0
 (Enter /mnt/data/applications/G16/g16/l301.exe)
 Basis read from rwf:  (5D, 7F)
 Pseudo-potential data read from rwf file.
 There are   489 symmetry adapted cartesian basis functions of A   symmetry.
 There are   436 symmetry adapted basis functions of A   symmetry.
   436 basis functions,   705 primitive gaussians,   489 cartesian basis functions
    52 alpha electrons       52 beta electrons
       nuclear repulsion energy       876.7607469285 Hartrees.
 IExCor= 4639 DFT=T Ex+Corr=wB97XD ExCW=0 ScaHFX=  1.000000
 ScaDFX=  1.000000  1.000000  1.000000  1.000000 ScalE2=  1.000000  1.000000
 IRadAn=      5 IRanWt=     -1 IRanGd=            0 ICorTp=0 IEmpDi=121
 HFx  wShort=  0.000000 wLong=  0.200000 cFull=  0.222036 cShort=  0.000000 cLong=  0.777964
 DFx  wShort=  0.000000 wLong=  0.200000 cFull=  0.000000 cShort=  0.000000 cLong=  1.000000
 NAtoms=   25 NActive=   25 NUniq=   25 SFac= 1.00D+00 NAtFMM=   60 NAOKFM=F Big=F
 Integral buffers will be    131072 words long.
 Raffenetti 2 integral format.
 Two-electron integral symmetry is turned on.
 R6Disp:  Grimme-D2 Dispersion energy=       -0.0206343928 Hartrees.
 Nuclear repulsion after empirical dispersion term =      876.7401125356 Hartrees.
 No density basis found on file   724.
 ------------------------------------------------------------------------------
 Polarizable Continuum Model (PCM)
 =================================
 Model                : PCM.
 Atomic radii         : SMD-Coulomb.
 Polarization charges : Total charges.
 Charge compensation  : None.
 Solution method      : On-the-fly selection.
 Cavity type          : VdW (van der Waals Surface) (Alpha=1.000).
 Cavity algorithm     : GePol (No added spheres)
                        Default sphere list used, NSphG=   25.
                        Lebedev-Laikov grids with approx.  5.0 points / Ang**2.
                        Smoothing algorithm: York/Karplus (Gamma=1.0000).
                        Polarization charges: spherical gaussians, with
                                              point-specific exponents (IZeta= 3).
                        Self-potential: point-specific (ISelfS= 7).
                        Self-field    : sphere-specific E.n sum rule (ISelfD= 2).
 1st derivatives      : Analytical E(r).r(x)/FMM algorithm (CHGder, D1EAlg=3).
                        Cavity 1st derivative terms included.
 Solvent              : Toluene, Eps=   2.374100 Eps(inf)=   2.238315
 ------------------------------------------------------------------------------
 GePol: Number of generator spheres                  =      25
 GePol: Total number of spheres                      =      25
 GePol: Number of exposed spheres                    =      25 (100.00%)
 GePol: Number of points                             =    2323
 GePol: Average weight of points                     =       0.12
 GePol: Minimum weight of points                     =   0.13D-08
 GePol: Maximum weight of points                     =    0.20615
 GePol: Number of points with low weight             =     117
 GePol: Fraction of low-weight points (<1% of avg)   =       5.04%
 GePol: Cavity surface area                          =    281.656 Ang**2
 GePol: Cavity volume                                =    249.848 Ang**3
 ------------------------------------------------------------------------------
 Atomic radii for non-electrostatic terms: SMD-CDS.
 ------------------------------------------------------------------------------
 PCM non-electrostatic energy =         0.0007468432 Hartrees.
 Nuclear repulsion after PCM non-electrostatic terms =      876.7408593788 Hartrees.
 Leave Link  301 at Tue Oct  4 16:28:41 2022, MaxMem=  2952790016 cpu:               1.8 elap:               0.2
 (Enter /mnt/data/applications/G16/g16/l302.exe)
 NPDir=0 NMtPBC=     1 NCelOv=     1 NCel=       1 NClECP=     1 NCelD=      1
         NCelK=      1 NCelE2=     1 NClLst=     1 CellRange=     0.0.
 One-electron integrals computed using PRISM.
 One-electron integral symmetry used in STVInt
   1 Symmetry operations used in ECPInt.
 ECPInt:  NShTT=   16653 NPrTT=   49115 LenC2=   15841 LenP2D=   35633.
 LDataN:  DoStor=T MaxTD1= 7 Len=  274
 NBasis=   436 RedAO= T EigKep=  1.35D-04  NBF=   436
 NBsUse=   436 1.00D-06 EigRej= -1.00D+00 NBFU=   436
 Precomputing XC quadrature grid using
 IXCGrd= 4 IRadAn=           5 IRanWt=          -1 IRanGd=           0 AccXCQ= 0.00D+00.
 Defaulting to unpruned grid for atomic number  45.
 Generated NRdTot=       0 NPtTot=           0 NUsed=           0 NTot=          32
 NSgBfM=   487   487   487   487   487 MxSgAt=    25 MxSgA2=    25.
 Leave Link  302 at Tue Oct  4 16:28:42 2022, MaxMem=  2952790016 cpu:              15.3 elap:               1.3
 (Enter /mnt/data/applications/G16/g16/l303.exe)
 DipDrv:  MaxL=1.
 Leave Link  303 at Tue Oct  4 16:28:42 2022, MaxMem=  2952790016 cpu:               0.9 elap:               0.1
 (Enter /mnt/data/applications/G16/g16/l401.exe)
 Initial guess from the checkpoint file:  "I3.chk"
 B after Tr=     0.000000    0.000000   -0.000000
         Rot=    0.999999   -0.001040    0.000070    0.000271 Ang=  -0.12 deg.
 Guess basis will be translated and rotated to current coordinates.
 JPrj=2 DoOrth=T DoCkMO=T.
 Leave Link  401 at Tue Oct  4 16:28:43 2022, MaxMem=  2952790016 cpu:               8.4 elap:               0.7
 (Enter /mnt/data/applications/G16/g16/l502.exe)
 Integral symmetry usage will be decided dynamically.
 Closed shell SCF:
 Using DIIS extrapolation, IDIIS=  1040.
 NGot=  2952790016 LenX=  2952301307 LenY=  2952061697
 Requested convergence on RMS density matrix=1.00D-08 within 128 cycles.
 Requested convergence on MAX density matrix=1.00D-06.
 Requested convergence on             energy=1.00D-06.
 No special actions if energy rises.
 Fock matrices will be formed incrementally for  20 cycles.

 Cycle   1  Pass 1  IDiag  1:
 FoFJK:  IHMeth= 1 ICntrl=       0 DoSepK=T KAlg= 0 I1Cent=           0 FoldK=F
 IRaf=         1 NMat=       1 IRICut=       1 DoRegI=T DoRafI=F ISym2E= 0 IDoP0=0 IntGTp=1.
 FoFCou: FMM=F IPFlag=           0 FMFlag=      100000 FMFlg1=           0
         NFxFlg=           0 DoJE=T BraDBF=F KetDBF=F FulRan=T
         wScrn=  0.000000 ICntrl=       500 IOpCl=  0 I1Cent=           0 NGrid=           0
         NMat0=    1 NMatS0=      1 NMatT0=    0 NMatD0=    1 NMtDS0=    0 NMtDT0=    0
 Symmetry not used in FoFCou.
 Defaulting to unpruned grid for atomic number  45.
 Defaulting to unpruned grid for atomic number  45.
 Defaulting to unpruned grid for atomic number  45.
 Defaulting to unpruned grid for atomic number  45.
 Defaulting to unpruned grid for atomic number  45.
 Defaulting to unpruned grid for atomic number  45.
 Defaulting to unpruned grid for atomic number  45.
 Defaulting to unpruned grid for atomic number  45.
 Defaulting to unpruned grid for atomic number  45.
 Defaulting to unpruned grid for atomic number  45.
 Defaulting to unpruned grid for atomic number  45.
 Defaulting to unpruned grid for atomic number  45.
 Inv3:  Mode=1 IEnd=    16188987.
 Iteration    1 A*A^-1 deviation from unit magnitude is 2.66D-15 for    492.
 Iteration    1 A*A^-1 deviation from orthogonality  is 1.51D-15 for   1456    459.
 Iteration    1 A^-1*A deviation from unit magnitude is 2.89D-15 for    492.
 Iteration    1 A^-1*A deviation from orthogonality  is 1.33D-15 for   1254    379.
 E= -877.673535880592    
 DIIS: error= 4.76D-05 at cycle   1 NSaved=   1.
 NSaved= 1 IEnMin= 1 EnMin= -877.673535880592     IErMin= 1 ErrMin= 4.76D-05
 ErrMax= 4.76D-05  0.00D+00 EMaxC= 1.00D-01 BMatC= 3.88D-06 BMatP= 3.88D-06
 IDIUse=1 WtCom= 1.00D+00 WtEn= 0.00D+00
 Coeff-Com:  0.100D+01
 Coeff:      0.100D+01
 Gap=     1.745 Goal=   None    Shift=    0.000
 RMSDP=5.02D-06 MaxDP=2.18D-04              OVMax= 4.93D-04

 Cycle   2  Pass 1  IDiag  1:
 RMSU=  5.02D-06    CP:  1.00D+00
 E= -877.673539244504     Delta-E=       -0.000003363912 Rises=F Damp=F
 DIIS: error= 1.27D-05 at cycle   2 NSaved=   2.
 NSaved= 2 IEnMin= 2 EnMin= -877.673539244504     IErMin= 2 ErrMin= 1.27D-05
 ErrMax= 1.27D-05  0.00D+00 EMaxC= 1.00D-01 BMatC= 1.02D-07 BMatP= 3.88D-06
 IDIUse=1 WtCom= 1.00D+00 WtEn= 0.00D+00
 Coeff-Com: -0.732D-01 0.107D+01
 Coeff:     -0.732D-01 0.107D+01
 Gap=     0.317 Goal=   None    Shift=    0.000
 RMSDP=1.79D-06 MaxDP=9.59D-05 DE=-3.36D-06 OVMax= 1.68D-04

 Cycle   3  Pass 1  IDiag  1:
 RMSU=  1.64D-06    CP:  1.00D+00  1.14D+00
 E= -877.673539469494     Delta-E=       -0.000000224990 Rises=F Damp=F
 DIIS: error= 7.72D-06 at cycle   3 NSaved=   3.
 NSaved= 3 IEnMin= 3 EnMin= -877.673539469494     IErMin= 3 ErrMin= 7.72D-06
 ErrMax= 7.72D-06  0.00D+00 EMaxC= 1.00D-01 BMatC= 3.89D-08 BMatP= 1.02D-07
 IDIUse=1 WtCom= 1.00D+00 WtEn= 0.00D+00
 Coeff-Com: -0.381D-01 0.369D+00 0.669D+00
 Coeff:     -0.381D-01 0.369D+00 0.669D+00
 Gap=     0.317 Goal=   None    Shift=    0.000
 RMSDP=7.86D-07 MaxDP=8.84D-05 DE=-2.25D-07 OVMax= 9.32D-05

 Cycle   4  Pass 1  IDiag  1:
 RMSU=  6.98D-07    CP:  1.00D+00  1.19D+00  8.53D-01
 E= -877.673539482615     Delta-E=       -0.000000013121 Rises=F Damp=F
 DIIS: error= 1.04D-05 at cycle   4 NSaved=   4.
 NSaved= 4 IEnMin= 4 EnMin= -877.673539482615     IErMin= 3 ErrMin= 7.72D-06
 ErrMax= 1.04D-05  0.00D+00 EMaxC= 1.00D-01 BMatC= 4.56D-08 BMatP= 3.89D-08
 IDIUse=1 WtCom= 1.00D+00 WtEn= 0.00D+00
 Coeff-Com: -0.886D-02-0.257D-01 0.538D+00 0.496D+00
 Coeff:     -0.886D-02-0.257D-01 0.538D+00 0.496D+00
 Gap=     0.317 Goal=   None    Shift=    0.000
 RMSDP=4.68D-07 MaxDP=5.15D-05 DE=-1.31D-08 OVMax= 4.97D-05

 Cycle   5  Pass 1  IDiag  1:
 RMSU=  3.93D-07    CP:  1.00D+00  1.20D+00  9.63D-01  7.97D-01
 E= -877.673539516287     Delta-E=       -0.000000033672 Rises=F Damp=F
 DIIS: error= 2.36D-06 at cycle   5 NSaved=   5.
 NSaved= 5 IEnMin= 5 EnMin= -877.673539516287     IErMin= 5 ErrMin= 2.36D-06
 ErrMax= 2.36D-06  0.00D+00 EMaxC= 1.00D-01 BMatC= 5.53D-09 BMatP= 3.89D-08
 IDIUse=1 WtCom= 1.00D+00 WtEn= 0.00D+00
 Coeff-Com:  0.276D-02-0.103D+00 0.212D+00 0.320D+00 0.568D+00
 Coeff:      0.276D-02-0.103D+00 0.212D+00 0.320D+00 0.568D+00
 Gap=     0.317 Goal=   None    Shift=    0.000
 RMSDP=1.95D-07 MaxDP=1.18D-05 DE=-3.37D-08 OVMax= 2.87D-05

 Cycle   6  Pass 1  IDiag  1:
 RMSU=  1.03D-07    CP:  1.00D+00  1.21D+00  1.04D+00  9.39D-01  9.27D-01
 E= -877.673539521803     Delta-E=       -0.000000005517 Rises=F Damp=F
 DIIS: error= 1.08D-06 at cycle   6 NSaved=   6.
 NSaved= 6 IEnMin= 6 EnMin= -877.673539521803     IErMin= 6 ErrMin= 1.08D-06
 ErrMax= 1.08D-06  0.00D+00 EMaxC= 1.00D-01 BMatC= 4.18D-10 BMatP= 5.53D-09
 IDIUse=1 WtCom= 1.00D+00 WtEn= 0.00D+00
 Coeff-Com:  0.239D-02-0.423D-01 0.153D-01 0.615D-01 0.249D+00 0.714D+00
 Coeff:      0.239D-02-0.423D-01 0.153D-01 0.615D-01 0.249D+00 0.714D+00
 Gap=     0.317 Goal=   None    Shift=    0.000
 RMSDP=8.96D-08 MaxDP=5.46D-06 DE=-5.52D-09 OVMax= 1.37D-05

 Cycle   7  Pass 1  IDiag  1:
 RMSU=  4.22D-08    CP:  1.00D+00  1.21D+00  1.08D+00  9.87D-01  1.01D+00
                    CP:  1.15D+00
 E= -877.673539522373     Delta-E=       -0.000000000570 Rises=F Damp=F
 DIIS: error= 3.98D-07 at cycle   7 NSaved=   7.
 NSaved= 7 IEnMin= 7 EnMin= -877.673539522373     IErMin= 7 ErrMin= 3.98D-07
 ErrMax= 3.98D-07  0.00D+00 EMaxC= 1.00D-01 BMatC= 8.66D-11 BMatP= 4.18D-10
 IDIUse=1 WtCom= 1.00D+00 WtEn= 0.00D+00
 Coeff-Com:  0.596D-03 0.180D-02-0.377D-01-0.406D-01 0.138D-02 0.341D+00
 Coeff-Com:  0.734D+00
 Coeff:      0.596D-03 0.180D-02-0.377D-01-0.406D-01 0.138D-02 0.341D+00
 Coeff:      0.734D+00
 Gap=     0.317 Goal=   None    Shift=    0.000
 RMSDP=4.86D-08 MaxDP=2.80D-06 DE=-5.70D-10 OVMax= 8.40D-06

 Cycle   8  Pass 1  IDiag  1:
 RMSU=  1.86D-08    CP:  1.00D+00  1.21D+00  1.08D+00  1.02D+00  1.09D+00
                    CP:  1.33D+00  1.15D+00
 E= -877.673539522543     Delta-E=       -0.000000000169 Rises=F Damp=F
 DIIS: error= 1.08D-07 at cycle   8 NSaved=   8.
 NSaved= 8 IEnMin= 8 EnMin= -877.673539522543     IErMin= 8 ErrMin= 1.08D-07
 ErrMax= 1.08D-07  0.00D+00 EMaxC= 1.00D-01 BMatC= 8.45D-12 BMatP= 8.66D-11
 IDIUse=1 WtCom= 1.00D+00 WtEn= 0.00D+00
 Coeff-Com: -0.273D-03 0.924D-02-0.150D-01-0.247D-01-0.437D-01-0.308D-01
 Coeff-Com:  0.208D+00 0.897D+00
 Coeff:     -0.273D-03 0.924D-02-0.150D-01-0.247D-01-0.437D-01-0.308D-01
 Coeff:      0.208D+00 0.897D+00
 Gap=     0.317 Goal=   None    Shift=    0.000
 RMSDP=2.34D-08 MaxDP=1.23D-06 DE=-1.69D-10 OVMax= 5.03D-06

 Cycle   9  Pass 1  IDiag  1:
 RMSU=  7.73D-09    CP:  1.00D+00  1.21D+00  1.09D+00  1.03D+00  1.12D+00
                    CP:  1.45D+00  1.36D+00  1.26D+00
 E= -877.673539522578     Delta-E=       -0.000000000035 Rises=F Damp=F
 DIIS: error= 2.90D-08 at cycle   9 NSaved=   9.
 NSaved= 9 IEnMin= 9 EnMin= -877.673539522578     IErMin= 9 ErrMin= 2.90D-08
 ErrMax= 2.90D-08  0.00D+00 EMaxC= 1.00D-01 BMatC= 9.87D-13 BMatP= 8.45D-12
 IDIUse=1 WtCom= 1.00D+00 WtEn= 0.00D+00
 Coeff-Com: -0.107D-03 0.110D-02 0.210D-02 0.133D-02-0.466D-02-0.452D-01
 Coeff-Com: -0.649D-01 0.111D+00 0.100D+01
 Coeff:     -0.107D-03 0.110D-02 0.210D-02 0.133D-02-0.466D-02-0.452D-01
 Coeff:     -0.649D-01 0.111D+00 0.100D+01
 Gap=     0.317 Goal=   None    Shift=    0.000
 RMSDP=8.59D-09 MaxDP=5.72D-07 DE=-3.50D-11 OVMax= 1.99D-06

 Error on total polarization charges =  0.02510
 SCF Done:  E(RwB97XD) =  -877.673539523     A.U. after    9 cycles
            NFock=  9  Conv=0.86D-08     -V/T= 2.0906
 KE= 8.047584627463D+02 PE=-3.791654731696D+03 EE= 1.232481870049D+03
 SMD-CDS (non-electrostatic) energy       (kcal/mol) =       0.47
 (included in total energy above)
 Leave Link  502 at Tue Oct  4 16:35:58 2022, MaxMem=  2952790016 cpu:            5175.7 elap:             435.0
 (Enter /mnt/data/applications/G16/g16/l701.exe)
 ... and contract with generalized density number  0.
 Compute integral first derivatives.
 R6Disp: Adding Grimme-D2 dispersion energy 1st derivatives to the gradient.
   1 Symmetry operations used in ECPInt.
 ECPInt:  NShTT=   16653 NPrTT=   49115 LenC2=   15841 LenP2D=   35633.
 LDataN:  DoStor=T MaxTD1= 8 Len=  415
 D1PCM: PCM CHGder 1st derivatives, ID1Alg=3 FixD1E=F DoIter=F DoCFld=F I1PDM=0.
 GePol: Maximum number of non-zero 1st derivatives   =     422
 Leave Link  701 at Tue Oct  4 16:36:07 2022, MaxMem=  2952790016 cpu:             105.3 elap:               8.8
 (Enter /mnt/data/applications/G16/g16/l702.exe)
 L702 exits ... SP integral derivatives will be done elsewhere.
 Leave Link  702 at Tue Oct  4 16:36:07 2022, MaxMem=  2952790016 cpu:               0.2 elap:               0.0
 (Enter /mnt/data/applications/G16/g16/l703.exe)
 Integral derivatives from FoFJK, PRISM(SPDF).
 Compute integral first derivatives, UseDBF=F ICtDFT=           0.
 Calling FoFJK, ICntrl=      2127 FMM=F ISym2X=0 I1Cent= 0 IOpClX= 0 NMat=1 NMatS=1 NMatT=0.
 FoFJK:  IHMeth= 1 ICntrl=    2127 DoSepK=T KAlg= 0 I1Cent=           0 FoldK=F
 IRaf=         1 NMat=       1 IRICut=       1 DoRegI=T DoRafI=F ISym2E= 0 IDoP0=0 IntGTp=1.
 FoFCou: FMM=F IPFlag=           0 FMFlag=      100000 FMFlg1=         800
         NFxFlg=           0 DoJE=F BraDBF=F KetDBF=F FulRan=T
         wScrn=  0.000000 ICntrl=      2527 IOpCl=  0 I1Cent=           0 NGrid=           0
         NMat0=    1 NMatS0=      1 NMatT0=    0 NMatD0=    1 NMtDS0=    0 NMtDT0=    0
 Symmetry not used in FoFCou.
 Defaulting to unpruned grid for atomic number  45.
 Defaulting to unpruned grid for atomic number  45.
 Defaulting to unpruned grid for atomic number  45.
 Defaulting to unpruned grid for atomic number  45.
 Defaulting to unpruned grid for atomic number  45.
 Defaulting to unpruned grid for atomic number  45.
 Defaulting to unpruned grid for atomic number  45.
 Defaulting to unpruned grid for atomic number  45.
 Defaulting to unpruned grid for atomic number  45.
 Defaulting to unpruned grid for atomic number  45.
 Defaulting to unpruned grid for atomic number  45.
 Defaulting to unpruned grid for atomic number  45.
 Leave Link  703 at Tue Oct  4 16:39:02 2022, MaxMem=  2952790016 cpu:            2094.6 elap:             175.0
 (Enter /mnt/data/applications/G16/g16/l716.exe)
 Dipole        =-1.89161051D+00-4.77016212D-01 1.12718872D-01
 ***** Axes restored to original set *****
 -------------------------------------------------------------------
 Center     Atomic                   Forces (Hartrees/Bohr)
 Number     Number              X              Y              Z
 -------------------------------------------------------------------
      1        1           0.000010321    0.000010299    0.000116732
      2       45           0.000011564   -0.000021461    0.000034486
      3       15          -0.000070739   -0.000019313    0.000036953
      4        6          -0.000019210   -0.000011167   -0.000010165
      5        6          -0.000021353    0.000011652   -0.000000631
      6        6          -0.000055126   -0.000007777    0.000005788
      7        1          -0.000000992   -0.000003800   -0.000000071
      8        1          -0.000002878   -0.000007344    0.000007652
      9        1          -0.000001860   -0.000003858    0.000000083
     10        1           0.000002873   -0.000002817   -0.000008011
     11        1          -0.000002125   -0.000001320   -0.000005263
     12        1           0.000003572   -0.000001873   -0.000005487
     13        1          -0.000002200    0.000003193    0.000000199
     14        1           0.000001402   -0.000001669   -0.000003439
     15        1          -0.000001899   -0.000002384   -0.000001183
     16        6           0.000065017   -0.000135480   -0.000047629
     17        8           0.000024163    0.000005097   -0.000003250
     18        6           0.000117332    0.000037910   -0.000021163
     19        6           0.000017035   -0.000020147    0.000013924
     20        1          -0.000016526    0.000009491    0.000031412
     21        1          -0.000025382    0.000042593    0.000006223
     22        1          -0.000010547    0.000036005   -0.000001812
     23        1           0.000020260    0.000012644    0.000021783
     24        6          -0.000035310    0.000091545   -0.000213544
     25        8          -0.000007393   -0.000020020    0.000046413
 -------------------------------------------------------------------
 Cartesian Forces:  Max     0.000213544 RMS     0.000042142
 Leave Link  716 at Tue Oct  4 16:39:02 2022, MaxMem=  2952790016 cpu:               0.3 elap:               0.0
 (Enter /mnt/data/applications/G16/g16/l103.exe)

 GradGradGradGradGradGradGradGradGradGradGradGradGradGradGradGradGradGrad
 Berny optimization.
 Using GEDIIS/GDIIS optimizer.
 FormGI is forming the generalized inverse of G from B-inverse, IUseBI=4.
 Internal  Forces:  Max     0.000193446 RMS     0.000040009
 Search for a local minimum.
 Step number   4 out of a maximum of  150
 All quantities printed in internal units (Hartrees-Bohrs-Radians)
 RMS Force = .40009D-04 SwitMx=.10000D-02 MixMth= 2
 Mixed Optimization -- En-DIIS/RFO-DIIS
 Swapping is turned off.
 Update second derivatives using D2CorX and points    1    2    3    4
 DE= -1.43D-06 DEPred=-1.03D-06 R= 1.38D+00
 TightC=F SS=  1.41D+00  RLast= 5.85D-03 DXNew= 8.4090D-02 1.7555D-02
 Trust test= 1.38D+00 RLast= 5.85D-03 DXMaxT set to 5.00D-02
 ITU=  1  1  1  0
     Eigenvalues ---    0.00230   0.00627   0.00879   0.00895   0.00909
     Eigenvalues ---    0.01736   0.02864   0.03190   0.03397   0.03504
     Eigenvalues ---    0.03635   0.03713   0.04158   0.05163   0.05220
     Eigenvalues ---    0.05427   0.05877   0.05880   0.05914   0.06088
     Eigenvalues ---    0.06155   0.06199   0.06225   0.06510   0.06675
     Eigenvalues ---    0.07027   0.08217   0.08845   0.09292   0.12103
     Eigenvalues ---    0.13155   0.13284   0.13932   0.14161   0.15105
     Eigenvalues ---    0.15823   0.16000   0.16000   0.16000   0.16000
     Eigenvalues ---    0.16000   0.16000   0.16004   0.16010   0.16029
     Eigenvalues ---    0.17291   0.18088   0.22613   0.24196   0.24513
     Eigenvalues ---    0.24633   0.24662   0.28608   0.34544   0.34551
     Eigenvalues ---    0.34566   0.34672   0.34681   0.34691   0.34727
     Eigenvalues ---    0.34732   0.34746   0.35505   0.35598   0.35643
     Eigenvalues ---    0.35726   0.43310   1.42072   1.44981
 En-DIIS/RFO-DIIS/Sim-DIIS IScMMF=       -3 using points:     4    3    2    1
 RFO step:  Lambda=-1.71077639D-06.
 NNeg= 0 NGDIIS= 4 SimSw=  2.50D-01 Rises=F DC= -1.43D-06 SmlDif=  1.00D-05
 NRisDI= 0 DoIntr=F SqrtH=F CThrHd= 10.0 CDAdj=  3.0
 RMS Error=  0.5799889893D-03 NUsed= 4 OKEnD=F EnDIS=F
 InvSVX:  RCond= 8.14D-07 Info=           0 Equed=N FErr=  3.99D-14 BErr=  4.70D-17
 DidBck=F Rises=F RFO-DIIS coefs:    1.91015   -0.73103   -0.26856    0.08944
 Iteration  1 RMS(Cart)=  0.00150014 RMS(Int)=  0.00000126
 Iteration  2 RMS(Cart)=  0.00000175 RMS(Int)=  0.00000043
 Iteration  3 RMS(Cart)=  0.00000000 RMS(Int)=  0.00000043
 ITry= 1 IFail=0 DXMaxC= 9.37D-03 DCOld= 1.00D+10 DXMaxT= 5.00D-02 DXLimC= 3.00D+00 Rises=F
 Variable       Old X    -DE/DX   Delta X   Delta X   Delta X     New X
                                 (Linear)    (Quad)   (Total)
    R1        3.01398  -0.00011  -0.00090  -0.00005  -0.00095   3.01303
    R2        4.41536   0.00017  -0.00146   0.00095  -0.00051   4.41485
    R3        3.61932  -0.00010   0.00026  -0.00026   0.00000   3.61932
    R4        4.16381  -0.00003   0.00054   0.00009   0.00063   4.16444
    R5        4.16623  -0.00004   0.00102  -0.00038   0.00064   4.16687
    R6        3.66750  -0.00019   0.00064  -0.00056   0.00008   3.66758
    R7        3.43747   0.00003   0.00005   0.00009   0.00014   3.43761
    R8        3.43810   0.00002   0.00004   0.00006   0.00010   3.43820
    R9        3.44201   0.00004   0.00012   0.00009   0.00021   3.44222
   R10        2.06124   0.00000  -0.00000   0.00001   0.00001   2.06125
   R11        2.06096   0.00000  -0.00001   0.00001   0.00001   2.06096
   R12        2.06423  -0.00000   0.00001  -0.00002  -0.00001   2.06422
   R13        2.06117   0.00000  -0.00000   0.00001   0.00001   2.06118
   R14        2.06184  -0.00000  -0.00001   0.00001  -0.00000   2.06184
   R15        2.06411   0.00000   0.00001  -0.00002  -0.00000   2.06411
   R16        2.06213   0.00000  -0.00001   0.00001   0.00000   2.06214
   R17        2.06405   0.00000   0.00003  -0.00002   0.00000   2.06406
   R18        2.06202   0.00000  -0.00001   0.00002   0.00001   2.06202
   R19        2.15371   0.00001  -0.00002   0.00001  -0.00001   2.15370
   R20        2.64828  -0.00006  -0.00028  -0.00007  -0.00035   2.64793
   R21        2.04642   0.00001   0.00000  -0.00000  -0.00000   2.04642
   R22        2.04863   0.00001   0.00001   0.00000   0.00001   2.04864
   R23        2.04715   0.00000   0.00001  -0.00001  -0.00000   2.04715
   R24        2.04521   0.00000   0.00002  -0.00001   0.00001   2.04521
   R25        2.14735   0.00005  -0.00008   0.00005  -0.00003   2.14732
    A1        1.40826   0.00001  -0.00099   0.00013  -0.00086   1.40740
    A2        1.45761  -0.00003  -0.00012  -0.00031  -0.00042   1.45719
    A3        1.48360   0.00001  -0.00061   0.00032  -0.00028   1.48332
    A4        1.49491   0.00002  -0.00011   0.00028   0.00017   1.49508
    A5        1.90173   0.00012   0.00109   0.00065   0.00174   1.90347
    A6        1.75731   0.00007   0.00030   0.00025   0.00056   1.75786
    A7        2.38810   0.00006   0.00002   0.00029   0.00031   2.38841
    A8        1.69695  -0.00002   0.00016  -0.00008   0.00008   1.69703
    A9        2.54589  -0.00019  -0.00199  -0.00084  -0.00283   2.54306
   A10        1.91780  -0.00019  -0.00169  -0.00087  -0.00256   1.91525
   A11        1.73522   0.00002   0.00101  -0.00012   0.00089   1.73611
   A12        1.62495   0.00002   0.00018   0.00012   0.00030   1.62525
   A13        1.64682   0.00000   0.00033  -0.00000   0.00033   1.64715
   A14        2.02241   0.00001   0.00029   0.00001   0.00031   2.02272
   A15        1.99530  -0.00001   0.00025  -0.00012   0.00013   1.99543
   A16        2.04526   0.00002  -0.00003   0.00016   0.00012   2.04538
   A17        1.79061   0.00000  -0.00020  -0.00001  -0.00021   1.79040
   A18        1.78605  -0.00002  -0.00019  -0.00003  -0.00022   1.78583
   A19        1.78856  -0.00001  -0.00022  -0.00003  -0.00025   1.78831
   A20        1.90934   0.00000  -0.00000   0.00005   0.00005   1.90939
   A21        1.90660   0.00001   0.00002   0.00004   0.00006   1.90666
   A22        1.94589  -0.00000   0.00002  -0.00006  -0.00004   1.94584
   A23        1.88915  -0.00000   0.00000  -0.00002  -0.00001   1.88913
   A24        1.90480  -0.00000  -0.00000   0.00001   0.00001   1.90481
   A25        1.90719  -0.00000  -0.00004  -0.00001  -0.00005   1.90713
   A26        1.90395   0.00001   0.00005   0.00004   0.00008   1.90403
   A27        1.90556  -0.00000  -0.00002   0.00000  -0.00002   1.90554
   A28        1.95150   0.00000   0.00002  -0.00005  -0.00003   1.95147
   A29        1.88598  -0.00000  -0.00002  -0.00004  -0.00005   1.88593
   A30        1.90864  -0.00000  -0.00002   0.00001  -0.00001   1.90863
   A31        1.90706   0.00000  -0.00000   0.00003   0.00003   1.90709
   A32        1.90998   0.00000  -0.00001   0.00002   0.00001   1.90998
   A33        1.94798   0.00002   0.00012   0.00001   0.00013   1.94811
   A34        1.90909  -0.00000  -0.00006   0.00000  -0.00006   1.90904
   A35        1.90325  -0.00001  -0.00005   0.00001  -0.00004   1.90321
   A36        1.88878  -0.00000   0.00002  -0.00004  -0.00002   1.88875
   A37        1.90382  -0.00001  -0.00003   0.00000  -0.00003   1.90379
   A38        1.92363  -0.00003  -0.00015  -0.00015  -0.00030   1.92333
   A39        1.95188   0.00000  -0.00059   0.00004  -0.00055   1.95133
   A40        2.09048   0.00000   0.00021   0.00004   0.00025   2.09073
   A41        2.09091  -0.00001   0.00005  -0.00010  -0.00005   2.09085
   A42        2.00022   0.00002   0.00002   0.00017   0.00019   2.00041
   A43        1.93940  -0.00000  -0.00037  -0.00016  -0.00053   1.93887
   A44        1.91330  -0.00004  -0.00002  -0.00035  -0.00038   1.91293
   A45        2.09537   0.00001   0.00006  -0.00003   0.00003   2.09539
   A46        2.09517  -0.00002   0.00017   0.00005   0.00022   2.09539
   A47        2.00358   0.00002   0.00001   0.00014   0.00015   2.00373
   A48        3.10521  -0.00001  -0.00083   0.00005  -0.00078   3.10443
   A49        3.09410   0.00005   0.00003   0.00083   0.00086   3.09496
   A50        3.12584  -0.00003   0.00020  -0.00082  -0.00062   3.12522
   A51        3.10009   0.00002  -0.00063   0.00046  -0.00017   3.09992
   A52        3.18112   0.00002   0.00131  -0.00051   0.00079   3.18191
   A53        3.12909  -0.00001   0.00020  -0.00050  -0.00030   3.12879
    D1        1.01507   0.00002  -0.00059   0.00003  -0.00056   1.01450
    D2       -1.06230   0.00002  -0.00075   0.00012  -0.00063  -1.06293
    D3        3.12803   0.00002  -0.00063   0.00014  -0.00049   3.12753
    D4        2.40756  -0.00004  -0.00134  -0.00040  -0.00174   2.40582
    D5        0.33019  -0.00004  -0.00149  -0.00031  -0.00181   0.32838
    D6       -1.76266  -0.00004  -0.00137  -0.00030  -0.00167  -1.76434
    D7       -0.43469   0.00002   0.00030  -0.00028   0.00002  -0.43467
    D8       -2.51206   0.00002   0.00014  -0.00019  -0.00005  -2.51211
    D9        1.67827   0.00002   0.00026  -0.00018   0.00009   1.67836
   D10       -0.26456   0.00000   0.00073  -0.00040   0.00033  -0.26423
   D11       -2.34193   0.00000   0.00057  -0.00031   0.00026  -2.34166
   D12        1.84840   0.00000   0.00069  -0.00029   0.00040   1.84880
   D13       -2.08502  -0.00000   0.00004  -0.00043  -0.00039  -2.08541
   D14        2.12079  -0.00000  -0.00012  -0.00034  -0.00046   2.12034
   D15        0.02794  -0.00000   0.00000  -0.00032  -0.00032   0.02762
   D16       -0.46045   0.00002   0.00031   0.00000   0.00031  -0.46013
   D17       -2.70703   0.00002   0.00087  -0.00014   0.00074  -2.70629
   D18        0.92753   0.00002  -0.00087   0.00017  -0.00070   0.92683
   D19       -1.31905   0.00002  -0.00030   0.00003  -0.00027  -1.31932
   D20       -1.69386  -0.00006   0.00028  -0.00044  -0.00017  -1.69402
   D21        2.34275  -0.00006   0.00084  -0.00058   0.00025   2.34300
   D22        2.63723   0.00001  -0.00064   0.00014  -0.00051   2.63672
   D23        0.39065   0.00000  -0.00008  -0.00001  -0.00008   0.39057
   D24        2.73409   0.00000   0.00075  -0.00021   0.00054   2.73462
   D25        0.50085   0.00000   0.00103  -0.00001   0.00103   0.50188
   D26       -2.30217   0.00001  -0.00089   0.00017  -0.00072  -2.30289
   D27        1.74777   0.00001  -0.00060   0.00038  -0.00023   1.74755
   D28        1.31178   0.00000   0.00069  -0.00010   0.00059   1.31237
   D29       -0.92146   0.00000   0.00098   0.00010   0.00108  -0.92038
   D30       -0.46253   0.00001  -0.00027   0.00016  -0.00011  -0.46264
   D31       -2.69577   0.00001   0.00002   0.00037   0.00038  -2.69538
   D32        1.07409   0.00001  -0.00032   0.00002  -0.00030   1.07379
   D33       -0.99094   0.00001  -0.00034  -0.00001  -0.00035  -0.99129
   D34       -3.10059   0.00001  -0.00032   0.00002  -0.00029  -3.10089
   D35       -3.02273   0.00000   0.00002  -0.00012  -0.00010  -3.02283
   D36        1.19542   0.00000   0.00000  -0.00015  -0.00015   1.19527
   D37       -0.91423   0.00000   0.00003  -0.00012  -0.00009  -0.91433
   D38       -1.17288  -0.00001  -0.00033  -0.00017  -0.00049  -1.17337
   D39        3.04528  -0.00001  -0.00034  -0.00020  -0.00054   3.04474
   D40        0.93562  -0.00001  -0.00032  -0.00017  -0.00048   0.93514
   D41        1.00948  -0.00000   0.00031   0.00009   0.00040   1.00989
   D42       -1.04798  -0.00000   0.00032   0.00011   0.00043  -1.04755
   D43        3.12279  -0.00000   0.00033   0.00010   0.00042   3.12321
   D44       -1.19450  -0.00001  -0.00006   0.00015   0.00009  -1.19441
   D45        3.03122  -0.00001  -0.00005   0.00017   0.00012   3.03133
   D46        0.91880  -0.00001  -0.00004   0.00015   0.00011   0.91891
   D47       -3.04243   0.00001   0.00026   0.00019   0.00046  -3.04197
   D48        1.18329   0.00002   0.00027   0.00021   0.00048   1.18377
   D49       -0.92912   0.00001   0.00028   0.00020   0.00048  -0.92864
   D50       -1.04688  -0.00000  -0.00006  -0.00004  -0.00010  -1.04699
   D51        3.12798  -0.00000  -0.00008  -0.00007  -0.00015   3.12783
   D52        1.01954  -0.00001  -0.00008  -0.00008  -0.00016   1.01938
   D53        1.18566   0.00001   0.00014   0.00006   0.00020   1.18586
   D54       -0.92266   0.00000   0.00013   0.00003   0.00016  -0.92251
   D55       -3.03110   0.00000   0.00012   0.00002   0.00015  -3.03096
   D56        3.03710   0.00000  -0.00019   0.00004  -0.00015   3.03695
   D57        0.92878  -0.00000  -0.00020   0.00001  -0.00020   0.92858
   D58       -1.17966  -0.00000  -0.00021  -0.00000  -0.00021  -1.17987
   D59       -2.66396  -0.00003  -0.00057  -0.00037  -0.00094  -2.66490
   D60        0.01400   0.00000   0.00002   0.00007   0.00009   0.01409
   D61       -0.01636  -0.00001   0.00008  -0.00008   0.00000  -0.01636
   D62        2.66159   0.00003   0.00067   0.00036   0.00103   2.66262
         Item               Value     Threshold  Converged?
 Maximum Force            0.000193     0.000450     YES
 RMS     Force            0.000040     0.000300     YES
 Maximum Displacement     0.009372     0.001800     NO 
 RMS     Displacement     0.001500     0.001200     NO 
 Predicted change in Energy=-8.542461D-07
 Lowest energy point so far.  Saving SCF results.
 GradGradGradGradGradGradGradGradGradGradGradGradGradGradGradGradGradGrad

 Leave Link  103 at Tue Oct  4 16:39:02 2022, MaxMem=  2952790016 cpu:               0.5 elap:               0.1
 (Enter /mnt/data/applications/G16/g16/l202.exe)
                          Input orientation:                          
 ---------------------------------------------------------------------
 Center     Atomic      Atomic             Coordinates (Angstroms)
 Number     Number       Type             X           Y           Z
 ---------------------------------------------------------------------
      1          1           0        0.271568    0.437595   -1.708705
      2         45           0        0.655779    0.026315   -0.216919
      3         15           0       -1.672643    0.015976   -0.026269
      4          6           0       -2.557247   -1.102111   -1.156095
      5          6           0       -2.459310    1.621928   -0.361448
      6          6           0       -2.373180   -0.434408    1.593741
      7          1           0       -2.054045   -1.443543    1.859438
      8          1           0       -3.464739   -0.396555    1.584717
      9          1           0       -1.998723    0.253041    2.353912
     10          1           0       -2.252580   -2.130918   -0.959863
     11          1           0       -2.291125   -0.857668   -2.185107
     12          1           0       -3.639655   -1.019759   -1.034375
     13          1           0       -2.189248    1.948671   -1.366433
     14          1           0       -2.081958    2.360772    0.347191
     15          1           0       -3.547039    1.566097   -0.278985
     16          6           0        1.283858    1.832662   -0.112730
     17          8           0        1.609948    2.924583   -0.096525
     18          6           0        1.006427   -1.977093   -1.065338
     19          6           0        2.199530   -1.246481   -1.143685
     20          1           0        3.006226   -1.448776   -0.449521
     21          1           0        2.509247   -0.813686   -2.086073
     22          1           0        0.402595   -2.118088   -1.953157
     23          1           0        0.899284   -2.755193   -0.318119
     24          6           0        1.051654   -0.554327    1.592180
     25          8           0        1.264723   -0.908360    2.650704
 ---------------------------------------------------------------------
                    Distance matrix (angstroms):
                    1          2          3          4          5
     1  H    0.000000
     2  Rh   1.594426   0.000000
     3  P    2.605438   2.336236   0.000000
     4  C    3.267761   3.532553   1.819107   0.000000
     5  C    3.267329   3.502948   1.819415   2.839268   0.000000
     6  C    4.319864   3.558840   1.821546   2.835720   2.838785
     7  H    4.656049   3.716838   2.414861   3.076236   3.807058
     8  H    5.049992   4.517010   2.444805   2.972104   2.978712
     9  H    4.657589   3.702291   2.414082   3.803753   3.075577
    10  H    3.678226   3.696508   2.411862   1.090767   3.805876
    11  H    2.910680   3.652319   2.409638   1.090614   3.082598
    12  H    4.228033   4.495916   2.440935   1.092339   2.970615
    13  H    2.907941   3.620913   2.407951   3.080087   1.090728
    14  H    3.669388   3.641856   2.409374   3.804909   1.091080
    15  H    4.230765   4.476433   2.445425   2.977977   1.092278
    16  C    2.349060   1.915262   3.471127   4.945260   3.757337
    17  O    3.251998   3.053668   4.386379   5.890879   4.280882
    18  C    2.604737   2.203727   3.497056   3.670640   5.045765
    19  C    2.621526   2.205011   4.223285   4.758983   5.526704
    20  H    3.552787   2.784708   4.921022   5.618866   6.269694
    21  H    2.591393   2.763093   4.734905   5.159206   5.795955
    22  H    2.570688   2.770757   3.545947   3.229269   4.971092
    23  H    3.538594   2.793980   3.792012   3.922051   5.517356
    24  C    3.533876   1.940799   3.219692   4.569163   4.569422
    25  O    4.669303   3.076961   4.080281   5.397843   5.416995
                    6          7          8          9         10
     6  C    0.000000
     7  H    1.091236   0.000000
     8  H    1.092252   1.778121   0.000000
     9  H    1.091175   1.768039   1.778437   0.000000
    10  H    3.068157   2.908670   3.309416   4.090087   0.000000
    11  H    3.803364   4.093630   3.975119   4.682080   1.767449
    12  H    2.975498   3.326847   2.697893   3.974062   1.778821
    13  H    3.804671   4.683123   3.979478   4.092973   4.100288
    14  H    3.074366   4.093957   3.323614   2.911424   4.681110
    15  H    2.981118   3.982439   2.707797   3.324687   3.975820
    16  C    4.628777   5.075880   5.513611   4.399417   5.379033
    17  O    5.477693   6.027533   6.293566   5.115104   6.420480
    18  C    4.568623   4.266787   5.432515   5.069092   3.264339
    19  C    5.390978   5.210612   6.344328   5.666311   4.542829
    20  H    5.843105   5.562163   6.864305   5.983723   5.327364
    21  H    6.125600   6.065262   7.024045   6.416632   5.067390
    22  H    4.808346   4.585408   5.516929   5.471693   2.834916
    23  H    4.444127   3.896707   5.313064   4.958595   3.276552
    24  C    3.426934   3.241527   4.519154   3.246057   4.462794
    25  O    3.817871   3.453511   4.875046   3.476639   5.186738
                   11         12         13         14         15
    11  H    0.000000
    12  H    1.780166   0.000000
    13  H    2.925088   3.320469   0.000000
    14  H    4.100566   3.970282   1.765742   0.000000
    15  H    3.329453   2.695522   1.781151   1.780469   0.000000
    16  C    4.930834   5.764262   3.694279   3.437898   4.841102
    17  O    5.821164   6.632927   4.122979   3.760975   5.336036
    18  C    3.657983   4.743788   5.070958   5.509123   5.822937
    19  C    4.626199   5.844607   5.433230   5.793628   6.456110
    20  H    5.605675   6.685345   6.275056   6.406015   7.215527
    21  H    4.801594   6.241596   5.497668   6.089098   6.753335
    22  H    2.983049   4.288388   4.858027   5.614695   5.654704
    23  H    4.155112   4.911896   5.724013   5.958484   6.200392
    24  C    5.053126   5.396647   5.051914   4.457278   5.398651
    25  O    6.002640   6.135563   6.019130   5.214755   6.152972
                   16         17         18         19         20
    16  C    0.000000
    17  O    1.139687   0.000000
    18  C    3.936834   5.032818   0.000000
    19  C    3.373788   4.340728   1.401223   0.000000
    20  H    3.721266   4.604397   2.158135   1.083303   0.000000
    21  H    3.521196   4.329167   2.157286   1.082281   1.824454
    22  H    4.446597   5.507569   1.082920   2.154976   3.080227
    23  H    4.608524   5.728350   1.084092   2.156017   2.482579
    24  C    2.942508   3.907202   3.014749   3.046581   2.964613
    25  O    3.892317   4.728414   3.875290   3.922445   3.596704
                   21         22         23         24         25
    21  H    0.000000
    22  H    2.481354   0.000000
    23  H    3.080113   1.823720   0.000000
    24  C    3.965020   3.928873   2.918265   0.000000
    25  O    4.898455   4.837587   3.515429   1.136315   0.000000
 Stoichiometry    C7H14O2PRh
 Framework group  C1[X(C7H14O2PRh)]
 Deg. of freedom    69
 Full point group                 C1      NOp   1
 RotChk:  IX=0 Diff= 4.92D-03
 Largest Abelian subgroup         C1      NOp   1
 Largest concise Abelian subgroup C1      NOp   1
                         Standard orientation:                         
 ---------------------------------------------------------------------
 Center     Atomic      Atomic             Coordinates (Angstroms)
 Number     Number       Type             X           Y           Z
 ---------------------------------------------------------------------
      1          1           0        0.273691    0.458541   -1.704269
      2         45           0        0.656681    0.028254   -0.217539
      3         15           0       -1.671833    0.018887   -0.027980
      4          6           0       -2.557552   -1.083843   -1.171938
      5          6           0       -2.456066    1.629995   -0.343548
      6          6           0       -2.373700   -0.450538    1.586038
      7          1           0       -2.056118   -1.463345    1.839336
      8          1           0       -3.465200   -0.411013    1.577040
      9          1           0       -1.998586    0.226899    2.354824
     10          1           0       -2.254436   -2.115439   -0.988349
     11          1           0       -2.290644   -0.827046   -2.197733
     12          1           0       -3.639893   -1.001456   -1.049647
     13          1           0       -2.185112    1.968781   -1.344295
     14          1           0       -2.077961    2.359458    0.374349
     15          1           0       -3.543908    1.574703   -0.262226
     16          6           0        1.287293    1.832270   -0.090713
     17          8           0        1.614933    2.923437   -0.060842
     18          6           0        1.004831   -1.964984   -1.090583
     19          6           0        2.199009   -1.235167   -1.159382
     20          1           0        3.005120   -1.447206   -0.467450
     21          1           0        2.509743   -0.791169   -2.096207
     22          1           0        0.401175   -2.094100   -1.980327
     23          1           0        0.896260   -2.752132   -0.353109
     24          6           0        1.050960   -0.575332    1.584384
     25          8           0        1.263073   -0.942763    2.638526
 ---------------------------------------------------------------------
 Rotational constants (GHZ):           0.8416666           0.5894860           0.5348947
 Leave Link  202 at Tue Oct  4 16:39:02 2022, MaxMem=  2952790016 cpu:               0.1 elap:               0.0
 (Enter /mnt/data/applications/G16/g16/l301.exe)
 Basis read from rwf:  (5D, 7F)
 Pseudo-potential data read from rwf file.
 There are   489 symmetry adapted cartesian basis functions of A   symmetry.
 There are   436 symmetry adapted basis functions of A   symmetry.
   436 basis functions,   705 primitive gaussians,   489 cartesian basis functions
    52 alpha electrons       52 beta electrons
       nuclear repulsion energy       876.7085541540 Hartrees.
 IExCor= 4639 DFT=T Ex+Corr=wB97XD ExCW=0 ScaHFX=  1.000000
 ScaDFX=  1.000000  1.000000  1.000000  1.000000 ScalE2=  1.000000  1.000000
 IRadAn=      5 IRanWt=     -1 IRanGd=            0 ICorTp=0 IEmpDi=121
 HFx  wShort=  0.000000 wLong=  0.200000 cFull=  0.222036 cShort=  0.000000 cLong=  0.777964
 DFx  wShort=  0.000000 wLong=  0.200000 cFull=  0.000000 cShort=  0.000000 cLong=  1.000000
 NAtoms=   25 NActive=   25 NUniq=   25 SFac= 1.00D+00 NAtFMM=   60 NAOKFM=F Big=F
 Integral buffers will be    131072 words long.
 Raffenetti 2 integral format.
 Two-electron integral symmetry is turned on.
 R6Disp:  Grimme-D2 Dispersion energy=       -0.0206316044 Hartrees.
 Nuclear repulsion after empirical dispersion term =      876.6879225496 Hartrees.
 No density basis found on file   724.
 ------------------------------------------------------------------------------
 Polarizable Continuum Model (PCM)
 =================================
 Model                : PCM.
 Atomic radii         : SMD-Coulomb.
 Polarization charges : Total charges.
 Charge compensation  : None.
 Solution method      : On-the-fly selection.
 Cavity type          : VdW (van der Waals Surface) (Alpha=1.000).
 Cavity algorithm     : GePol (No added spheres)
                        Default sphere list used, NSphG=   25.
                        Lebedev-Laikov grids with approx.  5.0 points / Ang**2.
                        Smoothing algorithm: York/Karplus (Gamma=1.0000).
                        Polarization charges: spherical gaussians, with
                                              point-specific exponents (IZeta= 3).
                        Self-potential: point-specific (ISelfS= 7).
                        Self-field    : sphere-specific E.n sum rule (ISelfD= 2).
 1st derivatives      : Analytical E(r).r(x)/FMM algorithm (CHGder, D1EAlg=3).
                        Cavity 1st derivative terms included.
 Solvent              : Toluene, Eps=   2.374100 Eps(inf)=   2.238315
 ------------------------------------------------------------------------------
 GePol: Number of generator spheres                  =      25
 GePol: Total number of spheres                      =      25
 GePol: Number of exposed spheres                    =      25 (100.00%)
 GePol: Number of points                             =    2324
 GePol: Average weight of points                     =       0.12
 GePol: Minimum weight of points                     =   0.30D-10
 GePol: Maximum weight of points                     =    0.20615
 GePol: Number of points with low weight             =     117
 GePol: Fraction of low-weight points (<1% of avg)   =       5.03%
 GePol: Cavity surface area                          =    281.651 Ang**2
 GePol: Cavity volume                                =    249.845 Ang**3
 ------------------------------------------------------------------------------
 Atomic radii for non-electrostatic terms: SMD-CDS.
 ------------------------------------------------------------------------------
 PCM non-electrostatic energy =         0.0007502675 Hartrees.
 Nuclear repulsion after PCM non-electrostatic terms =      876.6886728171 Hartrees.
 Leave Link  301 at Tue Oct  4 16:39:03 2022, MaxMem=  2952790016 cpu:               1.8 elap:               0.2
 (Enter /mnt/data/applications/G16/g16/l302.exe)
 NPDir=0 NMtPBC=     1 NCelOv=     1 NCel=       1 NClECP=     1 NCelD=      1
         NCelK=      1 NCelE2=     1 NClLst=     1 CellRange=     0.0.
 One-electron integrals computed using PRISM.
 One-electron integral symmetry used in STVInt
   1 Symmetry operations used in ECPInt.
 ECPInt:  NShTT=   16653 NPrTT=   49115 LenC2=   15841 LenP2D=   35629.
 LDataN:  DoStor=T MaxTD1= 7 Len=  274
 NBasis=   436 RedAO= T EigKep=  1.35D-04  NBF=   436
 NBsUse=   436 1.00D-06 EigRej= -1.00D+00 NBFU=   436
 Precomputing XC quadrature grid using
 IXCGrd= 4 IRadAn=           5 IRanWt=          -1 IRanGd=           0 AccXCQ= 0.00D+00.
 Defaulting to unpruned grid for atomic number  45.
 Generated NRdTot=       0 NPtTot=           0 NUsed=           0 NTot=          32
 NSgBfM=   487   487   487   487   487 MxSgAt=    25 MxSgA2=    25.
 Leave Link  302 at Tue Oct  4 16:39:04 2022, MaxMem=  2952790016 cpu:              15.2 elap:               1.3
 (Enter /mnt/data/applications/G16/g16/l303.exe)
 DipDrv:  MaxL=1.
 Leave Link  303 at Tue Oct  4 16:39:04 2022, MaxMem=  2952790016 cpu:               0.9 elap:               0.1
 (Enter /mnt/data/applications/G16/g16/l401.exe)
 Initial guess from the checkpoint file:  "I3.chk"
 B after Tr=     0.000000    0.000000    0.000000
         Rot=    0.999999   -0.001495    0.000258    0.000592 Ang=  -0.19 deg.
 Guess basis will be translated and rotated to current coordinates.
 JPrj=2 DoOrth=T DoCkMO=T.
 Leave Link  401 at Tue Oct  4 16:39:05 2022, MaxMem=  2952790016 cpu:               8.4 elap:               0.7
 (Enter /mnt/data/applications/G16/g16/l502.exe)
 Integral symmetry usage will be decided dynamically.
 Closed shell SCF:
 Using DIIS extrapolation, IDIIS=  1040.
 NGot=  2952790016 LenX=  2952301307 LenY=  2952061697
 Requested convergence on RMS density matrix=1.00D-08 within 128 cycles.
 Requested convergence on MAX density matrix=1.00D-06.
 Requested convergence on             energy=1.00D-06.
 No special actions if energy rises.
 Fock matrices will be formed incrementally for  20 cycles.

 Cycle   1  Pass 1  IDiag  1:
 FoFJK:  IHMeth= 1 ICntrl=       0 DoSepK=T KAlg= 0 I1Cent=           0 FoldK=F
 IRaf=         1 NMat=       1 IRICut=       1 DoRegI=T DoRafI=F ISym2E= 0 IDoP0=0 IntGTp=1.
 FoFCou: FMM=F IPFlag=           0 FMFlag=      100000 FMFlg1=           0
         NFxFlg=           0 DoJE=T BraDBF=F KetDBF=F FulRan=T
         wScrn=  0.000000 ICntrl=       500 IOpCl=  0 I1Cent=           0 NGrid=           0
         NMat0=    1 NMatS0=      1 NMatT0=    0 NMatD0=    1 NMtDS0=    0 NMtDT0=    0
 Symmetry not used in FoFCou.
 Defaulting to unpruned grid for atomic number  45.
 Defaulting to unpruned grid for atomic number  45.
 Defaulting to unpruned grid for atomic number  45.
 Defaulting to unpruned grid for atomic number  45.
 Defaulting to unpruned grid for atomic number  45.
 Defaulting to unpruned grid for atomic number  45.
 Defaulting to unpruned grid for atomic number  45.
 Defaulting to unpruned grid for atomic number  45.
 Defaulting to unpruned grid for atomic number  45.
 Defaulting to unpruned grid for atomic number  45.
 Defaulting to unpruned grid for atomic number  45.
 Defaulting to unpruned grid for atomic number  45.
 Inv3:  Mode=1 IEnd=    16202928.
 Iteration    1 A*A^-1 deviation from unit magnitude is 2.11D-15 for    481.
 Iteration    1 A*A^-1 deviation from orthogonality  is 1.47D-15 for   1460    464.
 Iteration    1 A^-1*A deviation from unit magnitude is 2.11D-15 for    481.
 Iteration    1 A^-1*A deviation from orthogonality  is 1.18D-15 for    824    209.
 E= -877.673531748863    
 DIIS: error= 8.21D-05 at cycle   1 NSaved=   1.
 NSaved= 1 IEnMin= 1 EnMin= -877.673531748863     IErMin= 1 ErrMin= 8.21D-05
 ErrMax= 8.21D-05  0.00D+00 EMaxC= 1.00D-01 BMatC= 7.59D-06 BMatP= 7.59D-06
 IDIUse=1 WtCom= 1.00D+00 WtEn= 0.00D+00
 Coeff-Com:  0.100D+01
 Coeff:      0.100D+01
 Gap=     1.746 Goal=   None    Shift=    0.000
 RMSDP=7.21D-06 MaxDP=3.03D-04              OVMax= 8.48D-04

 Cycle   2  Pass 1  IDiag  1:
 RMSU=  7.21D-06    CP:  1.00D+00
 E= -877.673540461906     Delta-E=       -0.000008713042 Rises=F Damp=F
 DIIS: error= 2.22D-05 at cycle   2 NSaved=   2.
 NSaved= 2 IEnMin= 2 EnMin= -877.673540461906     IErMin= 2 ErrMin= 2.22D-05
 ErrMax= 2.22D-05  0.00D+00 EMaxC= 1.00D-01 BMatC= 2.50D-07 BMatP= 7.59D-06
 IDIUse=1 WtCom= 1.00D+00 WtEn= 0.00D+00
 Coeff-Com: -0.117D+00 0.112D+01
 Coeff:     -0.117D+00 0.112D+01
 Gap=     0.317 Goal=   None    Shift=    0.000
 RMSDP=2.61D-06 MaxDP=1.24D-04 DE=-8.71D-06 OVMax= 2.97D-04

 Cycle   3  Pass 1  IDiag  1:
 RMSU=  2.18D-06    CP:  1.00D+00  1.20D+00
 E= -877.673541015176     Delta-E=       -0.000000553271 Rises=F Damp=F
 DIIS: error= 1.37D-05 at cycle   3 NSaved=   3.
 NSaved= 3 IEnMin= 3 EnMin= -877.673541015176     IErMin= 3 ErrMin= 1.37D-05
 ErrMax= 1.37D-05  0.00D+00 EMaxC= 1.00D-01 BMatC= 1.03D-07 BMatP= 2.50D-07
 IDIUse=1 WtCom= 1.00D+00 WtEn= 0.00D+00
 Coeff-Com: -0.590D-01 0.447D+00 0.612D+00
 Coeff:     -0.590D-01 0.447D+00 0.612D+00
 Gap=     0.317 Goal=   None    Shift=    0.000
 RMSDP=1.16D-06 MaxDP=1.47D-04 DE=-5.53D-07 OVMax= 1.40D-04

 Cycle   4  Pass 1  IDiag  1:
 RMSU=  1.04D-06    CP:  1.00D+00  1.23D+00  8.10D-01
 E= -877.673541030069     Delta-E=       -0.000000014893 Rises=F Damp=F
 DIIS: error= 1.69D-05 at cycle   4 NSaved=   4.
 NSaved= 4 IEnMin= 4 EnMin= -877.673541030069     IErMin= 3 ErrMin= 1.37D-05
 ErrMax= 1.69D-05  0.00D+00 EMaxC= 1.00D-01 BMatC= 1.26D-07 BMatP= 1.03D-07
 IDIUse=1 WtCom= 1.00D+00 WtEn= 0.00D+00
 Coeff-Com: -0.445D-02-0.630D-01 0.554D+00 0.513D+00
 Coeff:     -0.445D-02-0.630D-01 0.554D+00 0.513D+00
 Gap=     0.317 Goal=   None    Shift=    0.000
 RMSDP=6.87D-07 MaxDP=7.55D-05 DE=-1.49D-08 OVMax= 8.20D-05

 Cycle   5  Pass 1  IDiag  1:
 RMSU=  5.50D-07    CP:  1.00D+00  1.25D+00  9.31D-01  7.50D-01
 E= -877.673541127260     Delta-E=       -0.000000097191 Rises=F Damp=F
 DIIS: error= 1.59D-06 at cycle   5 NSaved=   5.
 NSaved= 5 IEnMin= 5 EnMin= -877.673541127260     IErMin= 5 ErrMin= 1.59D-06
 ErrMax= 1.59D-06  0.00D+00 EMaxC= 1.00D-01 BMatC= 4.16D-09 BMatP= 1.03D-07
 IDIUse=1 WtCom= 1.00D+00 WtEn= 0.00D+00
 Coeff-Com:  0.617D-02-0.968D-01 0.177D+00 0.231D+00 0.683D+00
 Coeff:      0.617D-02-0.968D-01 0.177D+00 0.231D+00 0.683D+00
 Gap=     0.317 Goal=   None    Shift=    0.000
 RMSDP=2.60D-07 MaxDP=1.52D-05 DE=-9.72D-08 OVMax= 2.82D-05

 Cycle   6  Pass 1  IDiag  1:
 RMSU=  1.28D-07    CP:  1.00D+00  1.26D+00  1.02D+00  8.38D-01  9.46D-01
 E= -877.673541132738     Delta-E=       -0.000000005477 Rises=F Damp=F
 DIIS: error= 5.43D-07 at cycle   6 NSaved=   6.
 NSaved= 6 IEnMin= 6 EnMin= -877.673541132738     IErMin= 6 ErrMin= 5.43D-07
 ErrMax= 5.43D-07  0.00D+00 EMaxC= 1.00D-01 BMatC= 3.09D-10 BMatP= 4.16D-09
 IDIUse=1 WtCom= 1.00D+00 WtEn= 0.00D+00
 Coeff-Com:  0.243D-02-0.214D-01-0.198D-01-0.274D-02 0.195D+00 0.846D+00
 Coeff:      0.243D-02-0.214D-01-0.198D-01-0.274D-02 0.195D+00 0.846D+00
 Gap=     0.317 Goal=   None    Shift=    0.000
 RMSDP=9.59D-08 MaxDP=6.85D-06 DE=-5.48D-09 OVMax= 1.19D-05

 Cycle   7  Pass 1  IDiag  1:
 RMSU=  4.39D-08    CP:  1.00D+00  1.26D+00  1.04D+00  8.77D-01  1.05D+00
                    CP:  1.18D+00
 E= -877.673541133357     Delta-E=       -0.000000000619 Rises=F Damp=F
 DIIS: error= 2.30D-07 at cycle   7 NSaved=   7.
 NSaved= 7 IEnMin= 7 EnMin= -877.673541133357     IErMin= 7 ErrMin= 2.30D-07
 ErrMax= 2.30D-07  0.00D+00 EMaxC= 1.00D-01 BMatC= 5.26D-11 BMatP= 3.09D-10
 IDIUse=1 WtCom= 1.00D+00 WtEn= 0.00D+00
 Coeff-Com:  0.192D-03 0.385D-02-0.277D-01-0.284D-01-0.744D-02 0.305D+00
 Coeff-Com:  0.754D+00
 Coeff:      0.192D-03 0.385D-02-0.277D-01-0.284D-01-0.744D-02 0.305D+00
 Coeff:      0.754D+00
 Gap=     0.317 Goal=   None    Shift=    0.000
 RMSDP=3.95D-08 MaxDP=2.49D-06 DE=-6.19D-10 OVMax= 5.27D-06

 Cycle   8  Pass 1  IDiag  1:
 RMSU=  1.89D-08    CP:  1.00D+00  1.26D+00  1.04D+00  8.91D-01  1.10D+00
                    CP:  1.32D+00  1.13D+00
 E= -877.673541133489     Delta-E=       -0.000000000133 Rises=F Damp=F
 DIIS: error= 1.56D-07 at cycle   8 NSaved=   8.
 NSaved= 8 IEnMin= 8 EnMin= -877.673541133489     IErMin= 8 ErrMin= 1.56D-07
 ErrMax= 1.56D-07  0.00D+00 EMaxC= 1.00D-01 BMatC= 1.85D-11 BMatP= 5.26D-11
 IDIUse=1 WtCom= 1.00D+00 WtEn= 0.00D+00
 Coeff-Com: -0.356D-03 0.647D-02-0.118D-01-0.157D-01-0.401D-01 0.368D-02
 Coeff-Com:  0.413D+00 0.644D+00
 Coeff:     -0.356D-03 0.647D-02-0.118D-01-0.157D-01-0.401D-01 0.368D-02
 Coeff:      0.413D+00 0.644D+00
 Gap=     0.317 Goal=   None    Shift=    0.000
 RMSDP=1.67D-08 MaxDP=8.37D-07 DE=-1.33D-10 OVMax= 2.74D-06

 Cycle   9  Pass 1  IDiag  1:
 RMSU=  7.51D-09    CP:  1.00D+00  1.26D+00  1.05D+00  8.96D-01  1.11D+00
                    CP:  1.38D+00  1.29D+00  1.10D+00
 E= -877.673541133451     Delta-E=        0.000000000038 Rises=F Damp=F
 DIIS: error= 3.30D-08 at cycle   9 NSaved=   9.
 NSaved= 9 IEnMin= 8 EnMin= -877.673541133489     IErMin= 9 ErrMin= 3.30D-08
 ErrMax= 3.30D-08  0.00D+00 EMaxC= 1.00D-01 BMatC= 1.45D-12 BMatP= 1.85D-11
 IDIUse=1 WtCom= 1.00D+00 WtEn= 0.00D+00
 Coeff-Com: -0.109D-03 0.760D-03 0.225D-02 0.120D-02-0.668D-02-0.539D-01
 Coeff-Com: -0.425D-01 0.130D+00 0.969D+00
 Coeff:     -0.109D-03 0.760D-03 0.225D-02 0.120D-02-0.668D-02-0.539D-01
 Coeff:     -0.425D-01 0.130D+00 0.969D+00
 Gap=     0.317 Goal=   None    Shift=    0.000
 RMSDP=9.73D-09 MaxDP=5.76D-07 DE= 3.82D-11 OVMax= 1.68D-06

 Error on total polarization charges =  0.02508
 SCF Done:  E(RwB97XD) =  -877.673541133     A.U. after    9 cycles
            NFock=  9  Conv=0.97D-08     -V/T= 2.0906
 KE= 8.047590465222D+02 PE=-3.791552538458D+03 EE= 1.232431277985D+03
 SMD-CDS (non-electrostatic) energy       (kcal/mol) =       0.47
 (included in total energy above)
 Leave Link  502 at Tue Oct  4 16:46:21 2022, MaxMem=  2952790016 cpu:            5193.0 elap:             436.6
 (Enter /mnt/data/applications/G16/g16/l701.exe)
 ... and contract with generalized density number  0.
 Compute integral first derivatives.
 R6Disp: Adding Grimme-D2 dispersion energy 1st derivatives to the gradient.
   1 Symmetry operations used in ECPInt.
 ECPInt:  NShTT=   16653 NPrTT=   49115 LenC2=   15841 LenP2D=   35629.
 LDataN:  DoStor=T MaxTD1= 8 Len=  415
 D1PCM: PCM CHGder 1st derivatives, ID1Alg=3 FixD1E=F DoIter=F DoCFld=F I1PDM=0.
 GePol: Maximum number of non-zero 1st derivatives   =     421
 Leave Link  701 at Tue Oct  4 16:46:30 2022, MaxMem=  2952790016 cpu:             104.9 elap:               8.8
 (Enter /mnt/data/applications/G16/g16/l702.exe)
 L702 exits ... SP integral derivatives will be done elsewhere.
 Leave Link  702 at Tue Oct  4 16:46:30 2022, MaxMem=  2952790016 cpu:               0.2 elap:               0.0
 (Enter /mnt/data/applications/G16/g16/l703.exe)
 Integral derivatives from FoFJK, PRISM(SPDF).
 Compute integral first derivatives, UseDBF=F ICtDFT=           0.
 Calling FoFJK, ICntrl=      2127 FMM=F ISym2X=0 I1Cent= 0 IOpClX= 0 NMat=1 NMatS=1 NMatT=0.
 FoFJK:  IHMeth= 1 ICntrl=    2127 DoSepK=T KAlg= 0 I1Cent=           0 FoldK=F
 IRaf=         1 NMat=       1 IRICut=       1 DoRegI=T DoRafI=F ISym2E= 0 IDoP0=0 IntGTp=1.
 FoFCou: FMM=F IPFlag=           0 FMFlag=      100000 FMFlg1=         800
         NFxFlg=           0 DoJE=F BraDBF=F KetDBF=F FulRan=T
         wScrn=  0.000000 ICntrl=      2527 IOpCl=  0 I1Cent=           0 NGrid=           0
         NMat0=    1 NMatS0=      1 NMatT0=    0 NMatD0=    1 NMtDS0=    0 NMtDT0=    0
 Symmetry not used in FoFCou.
 Defaulting to unpruned grid for atomic number  45.
 Defaulting to unpruned grid for atomic number  45.
 Defaulting to unpruned grid for atomic number  45.
 Defaulting to unpruned grid for atomic number  45.
 Defaulting to unpruned grid for atomic number  45.
 Defaulting to unpruned grid for atomic number  45.
 Defaulting to unpruned grid for atomic number  45.
 Defaulting to unpruned grid for atomic number  45.
 Defaulting to unpruned grid for atomic number  45.
 Defaulting to unpruned grid for atomic number  45.
 Defaulting to unpruned grid for atomic number  45.
 Defaulting to unpruned grid for atomic number  45.
 Leave Link  703 at Tue Oct  4 16:49:26 2022, MaxMem=  2952790016 cpu:            2100.1 elap:             175.5
 (Enter /mnt/data/applications/G16/g16/l716.exe)
 Dipole        =-1.89011787D+00-4.75618884D-01 1.08210788D-01
 ***** Axes restored to original set *****
 -------------------------------------------------------------------
 Center     Atomic                   Forces (Hartrees/Bohr)
 Number     Number              X              Y              Z
 -------------------------------------------------------------------
      1        1          -0.000011215    0.000040867    0.000002871
      2       45           0.000131529   -0.000038187    0.000030633
      3       15          -0.000165469   -0.000027620    0.000088844
      4        6           0.000005130   -0.000010004   -0.000013002
      5        6           0.000002771    0.000014875   -0.000005620
      6        6          -0.000026731   -0.000005659   -0.000006267
      7        1           0.000002041   -0.000002824    0.000000716
      8        1           0.000002587   -0.000003693   -0.000004778
      9        1          -0.000001798   -0.000005087    0.000001681
     10        1           0.000004132   -0.000001601   -0.000005242
     11        1           0.000003135   -0.000001085   -0.000004052
     12        1           0.000003505   -0.000000251   -0.000002382
     13        1          -0.000000491   -0.000000556   -0.000000060
     14        1           0.000001648   -0.000002950   -0.000002836
     15        1          -0.000001163   -0.000005265   -0.000001543
     16        6           0.000021901   -0.000118761    0.000010176
     17        8           0.000026946    0.000011539   -0.000008550
     18        6           0.000036735   -0.000007913    0.000022462
     19        6           0.000043082    0.000030928    0.000033720
     20        1          -0.000011661    0.000002907    0.000016877
     21        1          -0.000026113    0.000026525    0.000005034
     22        1           0.000003579    0.000027904   -0.000002735
     23        1           0.000021905    0.000000164   -0.000000033
     24        6          -0.000088875    0.000104812   -0.000250045
     25        8           0.000022891   -0.000029063    0.000094130
 -------------------------------------------------------------------
 Cartesian Forces:  Max     0.000250045 RMS     0.000048353
 Leave Link  716 at Tue Oct  4 16:49:26 2022, MaxMem=  2952790016 cpu:               0.3 elap:               0.0
 (Enter /mnt/data/applications/G16/g16/l103.exe)

 GradGradGradGradGradGradGradGradGradGradGradGradGradGradGradGradGradGrad
 Berny optimization.
 Using GEDIIS/GDIIS optimizer.
 FormGI is forming the generalized inverse of G from B-inverse, IUseBI=4.
 Internal  Forces:  Max     0.000183983 RMS     0.000032688
 Search for a local minimum.
 Step number   5 out of a maximum of  150
 All quantities printed in internal units (Hartrees-Bohrs-Radians)
 RMS Force = .32688D-04 SwitMx=.10000D-02 MixMth= 2
 Mixed Optimization -- En-DIIS/RFO-DIIS
 Swapping is turned off.
 Update second derivatives using D2CorX and points    1    2    3    4    5
 DE= -1.61D-06 DEPred=-8.54D-07 R= 1.89D+00
 TightC=F SS=  1.41D+00  RLast= 6.82D-03 DXNew= 8.4090D-02 2.0460D-02
 Trust test= 1.89D+00 RLast= 6.82D-03 DXMaxT set to 5.00D-02
 ITU=  1  1  1  1  0
     Eigenvalues ---    0.00230   0.00629   0.00878   0.00882   0.00910
     Eigenvalues ---    0.01739   0.02827   0.03186   0.03298   0.03436
     Eigenvalues ---    0.03640   0.03698   0.04157   0.04700   0.05222
     Eigenvalues ---    0.05261   0.05876   0.05880   0.05915   0.06079
     Eigenvalues ---    0.06161   0.06194   0.06227   0.06528   0.06644
     Eigenvalues ---    0.07347   0.08271   0.08892   0.08985   0.11939
     Eigenvalues ---    0.13199   0.13344   0.13937   0.14171   0.14651
     Eigenvalues ---    0.15321   0.16000   0.16000   0.16000   0.16000
     Eigenvalues ---    0.16000   0.16001   0.16003   0.16004   0.16031
     Eigenvalues ---    0.16131   0.19740   0.22404   0.23373   0.24462
     Eigenvalues ---    0.24627   0.24655   0.25027   0.34544   0.34551
     Eigenvalues ---    0.34577   0.34672   0.34682   0.34692   0.34727
     Eigenvalues ---    0.34732   0.34747   0.35508   0.35601   0.35645
     Eigenvalues ---    0.35733   0.43581   1.42079   1.45743
 En-DIIS/RFO-DIIS/Sim-DIIS IScMMF=       -3 using points:     5    4    3    2    1
 RFO step:  Lambda=-1.53594620D-06.
 NNeg= 0 NGDIIS= 5 SimSw=  2.50D-01 Rises=F DC= -1.61D-06 SmlDif=  1.00D-05
 NRisDI= 0 DoIntr=F SqrtH=F CThrHd= 10.0 CDAdj=  3.0
 RMS Error=  0.5888922558D-03 NUsed= 5 OKEnD=F EnDIS=F
 InvSVX:  RCond= 1.66D-07 Info=           0 Equed=N FErr=  3.02D-13 BErr=  3.98D-17
 DidBck=F Rises=F RFO-DIIS coefs:    1.66740   -0.17276   -0.52304   -0.21273    0.24114
 Iteration  1 RMS(Cart)=  0.00181003 RMS(Int)=  0.00000211
 Iteration  2 RMS(Cart)=  0.00000250 RMS(Int)=  0.00000098
 Iteration  3 RMS(Cart)=  0.00000000 RMS(Int)=  0.00000098
 ITry= 1 IFail=0 DXMaxC= 1.31D-02 DCOld= 1.00D+10 DXMaxT= 5.00D-02 DXLimC= 3.00D+00 Rises=F
 Variable       Old X    -DE/DX   Delta X   Delta X   Delta X     New X
                                 (Linear)    (Quad)   (Total)
    R1        3.01303   0.00001  -0.00138   0.00086  -0.00052   3.01251
    R2        4.41485   0.00017   0.00015   0.00043   0.00057   4.41542
    R3        3.61932  -0.00009  -0.00026  -0.00004  -0.00031   3.61901
    R4        4.16444  -0.00001   0.00009   0.00056   0.00065   4.16509
    R5        4.16687  -0.00005   0.00045  -0.00027   0.00018   4.16705
    R6        3.66758  -0.00018  -0.00045  -0.00021  -0.00066   3.66692
    R7        3.43761   0.00001   0.00016  -0.00004   0.00013   3.43774
    R8        3.43820   0.00001   0.00013  -0.00003   0.00010   3.43830
    R9        3.44222   0.00001   0.00027  -0.00011   0.00016   3.44239
   R10        2.06125   0.00000  -0.00000   0.00001   0.00001   2.06126
   R11        2.06096   0.00000  -0.00000   0.00001   0.00001   2.06097
   R12        2.06422  -0.00000   0.00000  -0.00001  -0.00001   2.06421
   R13        2.06118   0.00000  -0.00000   0.00001   0.00001   2.06118
   R14        2.06184  -0.00000  -0.00001   0.00001  -0.00000   2.06184
   R15        2.06411  -0.00000   0.00001  -0.00002  -0.00001   2.06410
   R16        2.06214   0.00000  -0.00000   0.00001   0.00001   2.06214
   R17        2.06406  -0.00000   0.00002  -0.00004  -0.00002   2.06404
   R18        2.06202   0.00000  -0.00000   0.00002   0.00001   2.06203
   R19        2.15370   0.00002  -0.00001   0.00001   0.00000   2.15370
   R20        2.64793  -0.00000  -0.00036   0.00006  -0.00030   2.64763
   R21        2.04642  -0.00000   0.00002  -0.00003  -0.00001   2.04641
   R22        2.04864  -0.00000   0.00002  -0.00002  -0.00000   2.04864
   R23        2.04715  -0.00000   0.00002  -0.00003  -0.00001   2.04713
   R24        2.04521  -0.00000   0.00003  -0.00003  -0.00000   2.04521
   R25        2.14732   0.00010  -0.00003   0.00008   0.00005   2.14737
    A1        1.40740   0.00002  -0.00077   0.00022  -0.00055   1.40685
    A2        1.45719  -0.00002  -0.00019  -0.00010  -0.00029   1.45690
    A3        1.48332   0.00001  -0.00010   0.00027   0.00018   1.48350
    A4        1.49508   0.00002   0.00031   0.00020   0.00051   1.49560
    A5        1.90347   0.00007   0.00147   0.00059   0.00206   1.90553
    A6        1.75786   0.00006   0.00051   0.00024   0.00074   1.75861
    A7        2.38841   0.00006   0.00033   0.00027   0.00060   2.38900
    A8        1.69703  -0.00004  -0.00004  -0.00035  -0.00039   1.69664
    A9        2.54306  -0.00012  -0.00228  -0.00065  -0.00293   2.54013
   A10        1.91525  -0.00013  -0.00213  -0.00070  -0.00283   1.91241
   A11        1.73611   0.00000   0.00062  -0.00013   0.00048   1.73660
   A12        1.62525   0.00002   0.00017   0.00006   0.00024   1.62549
   A13        1.64715   0.00002   0.00025   0.00011   0.00036   1.64751
   A14        2.02272  -0.00001   0.00030  -0.00014   0.00016   2.02288
   A15        1.99543  -0.00002   0.00015  -0.00026  -0.00011   1.99532
   A16        2.04538   0.00002   0.00022   0.00005   0.00027   2.04565
   A17        1.79040   0.00001  -0.00025   0.00013  -0.00012   1.79028
   A18        1.78583  -0.00001  -0.00026   0.00013  -0.00013   1.78570
   A19        1.78831   0.00000  -0.00029   0.00016  -0.00013   1.78818
   A20        1.90939   0.00000   0.00004   0.00001   0.00005   1.90943
   A21        1.90666   0.00000   0.00005   0.00001   0.00006   1.90672
   A22        1.94584  -0.00001   0.00000  -0.00008  -0.00008   1.94576
   A23        1.88913  -0.00000  -0.00001  -0.00000  -0.00001   1.88912
   A24        1.90481   0.00000  -0.00001   0.00003   0.00002   1.90483
   A25        1.90713   0.00000  -0.00007   0.00004  -0.00003   1.90710
   A26        1.90403   0.00000   0.00006  -0.00000   0.00006   1.90410
   A27        1.90554  -0.00000  -0.00004   0.00000  -0.00004   1.90551
   A28        1.95147  -0.00000   0.00003  -0.00007  -0.00004   1.95143
   A29        1.88593  -0.00000  -0.00005  -0.00001  -0.00006   1.88587
   A30        1.90863   0.00000  -0.00002   0.00003   0.00001   1.90863
   A31        1.90709   0.00000   0.00001   0.00005   0.00007   1.90716
   A32        1.90998   0.00000  -0.00001   0.00004   0.00002   1.91001
   A33        1.94811  -0.00000   0.00023  -0.00017   0.00006   1.94817
   A34        1.90904   0.00000  -0.00008   0.00005  -0.00003   1.90901
   A35        1.90321   0.00000  -0.00006   0.00007   0.00000   1.90321
   A36        1.88875  -0.00000  -0.00003  -0.00003  -0.00006   1.88869
   A37        1.90379   0.00000  -0.00005   0.00004  -0.00001   1.90378
   A38        1.92333  -0.00002  -0.00043   0.00004  -0.00038   1.92294
   A39        1.95133   0.00003  -0.00050   0.00023  -0.00027   1.95106
   A40        2.09073  -0.00001   0.00027  -0.00011   0.00016   2.09090
   A41        2.09085   0.00000  -0.00010  -0.00001  -0.00011   2.09074
   A42        2.00041   0.00001   0.00021   0.00009   0.00030   2.00071
   A43        1.93887   0.00001  -0.00045  -0.00003  -0.00048   1.93839
   A44        1.91293  -0.00004  -0.00044  -0.00017  -0.00061   1.91232
   A45        2.09539   0.00000   0.00000  -0.00002  -0.00002   2.09538
   A46        2.09539  -0.00002   0.00026  -0.00010   0.00016   2.09555
   A47        2.00373   0.00002   0.00019   0.00007   0.00026   2.00399
   A48        3.10443  -0.00002  -0.00081  -0.00013  -0.00094   3.10349
   A49        3.09496   0.00006   0.00109   0.00069   0.00178   3.09674
   A50        3.12522   0.00002  -0.00034   0.00048   0.00014   3.12536
   A51        3.09992   0.00003  -0.00012   0.00032   0.00020   3.10012
   A52        3.18191   0.00003   0.00146  -0.00019   0.00127   3.18318
   A53        3.12879   0.00000   0.00006   0.00000   0.00006   3.12886
    D1        1.01450   0.00001  -0.00061   0.00030  -0.00031   1.01419
    D2       -1.06293   0.00002  -0.00061   0.00044  -0.00018  -1.06311
    D3        3.12753   0.00002  -0.00052   0.00040  -0.00012   3.12741
    D4        2.40582  -0.00001  -0.00145   0.00014  -0.00131   2.40451
    D5        0.32838  -0.00001  -0.00145   0.00027  -0.00118   0.32720
    D6       -1.76434  -0.00001  -0.00136   0.00024  -0.00112  -1.76546
    D7       -0.43467   0.00001  -0.00025   0.00001  -0.00024  -0.43491
    D8       -2.51211   0.00001  -0.00025   0.00015  -0.00011  -2.51221
    D9        1.67836   0.00001  -0.00016   0.00011  -0.00005   1.67831
   D10       -0.26423  -0.00000  -0.00003  -0.00014  -0.00017  -0.26439
   D11       -2.34166  -0.00000  -0.00003  -0.00000  -0.00004  -2.34170
   D12        1.84880  -0.00000   0.00006  -0.00004   0.00002   1.84883
   D13       -2.08541  -0.00001  -0.00049  -0.00002  -0.00051  -2.08592
   D14        2.12034  -0.00001  -0.00050   0.00012  -0.00038   2.11996
   D15        0.02762  -0.00001  -0.00040   0.00008  -0.00032   0.02730
   D16       -0.46013   0.00002   0.00023   0.00017   0.00040  -0.45973
   D17       -2.70629   0.00001   0.00069  -0.00016   0.00053  -2.70576
   D18        0.92683   0.00003  -0.00064   0.00043  -0.00022   0.92662
   D19       -1.31932   0.00002  -0.00019   0.00010  -0.00009  -1.31942
   D20       -1.69402  -0.00004  -0.00065  -0.00046  -0.00111  -1.69513
   D21        2.34300  -0.00005  -0.00020  -0.00079  -0.00098   2.34202
   D22        2.63672   0.00000  -0.00061   0.00010  -0.00051   2.63621
   D23        0.39057  -0.00001  -0.00015  -0.00023  -0.00038   0.39018
   D24        2.73462  -0.00000   0.00050  -0.00025   0.00025   2.73487
   D25        0.50188  -0.00000   0.00092  -0.00019   0.00073   0.50261
   D26       -2.30289   0.00002  -0.00047   0.00020  -0.00027  -2.30316
   D27        1.74755   0.00002  -0.00004   0.00026   0.00022   1.74776
   D28        1.31237  -0.00001   0.00031  -0.00031  -0.00000   1.31236
   D29       -0.92038  -0.00001   0.00073  -0.00025   0.00048  -0.91990
   D30       -0.46264   0.00000  -0.00012  -0.00011  -0.00023  -0.46286
   D31       -2.69538   0.00000   0.00030  -0.00005   0.00026  -2.69513
   D32        1.07379   0.00001  -0.00024   0.00012  -0.00011   1.07368
   D33       -0.99129   0.00001  -0.00027   0.00011  -0.00015  -0.99144
   D34       -3.10089   0.00001  -0.00022   0.00011  -0.00010  -3.10099
   D35       -3.02283  -0.00001  -0.00006  -0.00019  -0.00024  -3.02308
   D36        1.19527  -0.00001  -0.00009  -0.00020  -0.00029   1.19499
   D37       -0.91433  -0.00001  -0.00004  -0.00020  -0.00024  -0.91456
   D38       -1.17337  -0.00000  -0.00051   0.00005  -0.00046  -1.17383
   D39        3.04474  -0.00000  -0.00055   0.00005  -0.00050   3.04424
   D40        0.93514  -0.00000  -0.00050   0.00005  -0.00045   0.93469
   D41        1.00989  -0.00001   0.00030   0.00005   0.00035   1.01024
   D42       -1.04755  -0.00001   0.00035   0.00006   0.00041  -1.04714
   D43        3.12321  -0.00001   0.00034   0.00004   0.00038   3.12359
   D44       -1.19441   0.00000   0.00002   0.00029   0.00031  -1.19411
   D45        3.03133   0.00000   0.00007   0.00030   0.00036   3.03170
   D46        0.91891   0.00000   0.00006   0.00028   0.00033   0.91925
   D47       -3.04197   0.00001   0.00046   0.00007   0.00052  -3.04145
   D48        1.18377   0.00001   0.00051   0.00008   0.00058   1.18436
   D49       -0.92864   0.00001   0.00050   0.00005   0.00055  -0.92809
   D50       -1.04699  -0.00000  -0.00008  -0.00002  -0.00010  -1.04708
   D51        3.12783  -0.00000  -0.00014  -0.00002  -0.00016   3.12768
   D52        1.01938  -0.00000  -0.00017   0.00000  -0.00017   1.01921
   D53        1.18586  -0.00000   0.00024  -0.00006   0.00018   1.18605
   D54       -0.92251  -0.00000   0.00018  -0.00006   0.00013  -0.92238
   D55       -3.03096  -0.00001   0.00015  -0.00004   0.00011  -3.03085
   D56        3.03695   0.00001  -0.00019   0.00016  -0.00002   3.03692
   D57        0.92858   0.00001  -0.00025   0.00016  -0.00008   0.92850
   D58       -1.17987   0.00001  -0.00028   0.00018  -0.00010  -1.17997
   D59       -2.66490  -0.00002  -0.00102   0.00004  -0.00097  -2.66587
   D60        0.01409   0.00000   0.00015  -0.00006   0.00009   0.01418
   D61       -0.01636  -0.00001  -0.00010   0.00000  -0.00009  -0.01646
   D62        2.66262   0.00001   0.00107  -0.00010   0.00097   2.66360
         Item               Value     Threshold  Converged?
 Maximum Force            0.000184     0.000450     YES
 RMS     Force            0.000033     0.000300     YES
 Maximum Displacement     0.013082     0.001800     NO 
 RMS     Displacement     0.001810     0.001200     NO 
 Predicted change in Energy=-7.567391D-07
 Lowest energy point so far.  Saving SCF results.
 GradGradGradGradGradGradGradGradGradGradGradGradGradGradGradGradGradGrad

 Leave Link  103 at Tue Oct  4 16:49:26 2022, MaxMem=  2952790016 cpu:               0.5 elap:               0.1
 (Enter /mnt/data/applications/G16/g16/l202.exe)
                          Input orientation:                          
 ---------------------------------------------------------------------
 Center     Atomic      Atomic             Coordinates (Angstroms)
 Number     Number       Type             X           Y           Z
 ---------------------------------------------------------------------
      1          1           0        0.270299    0.437528   -1.707962
      2         45           0        0.655361    0.026305   -0.216672
      3         15           0       -1.673359    0.015695   -0.025967
      4          6           0       -2.558172   -1.102003   -1.156124
      5          6           0       -2.460029    1.621782   -0.360788
      6          6           0       -2.374312   -0.435024    1.593868
      7          1           0       -2.055307   -1.444238    1.859436
      8          1           0       -3.465858   -0.397065    1.584696
      9          1           0       -1.999904    0.252209    2.354267
     10          1           0       -2.253448   -2.130898   -0.960418
     11          1           0       -2.292338   -0.857134   -2.185115
     12          1           0       -3.640543   -1.019683   -1.034094
     13          1           0       -2.190280    1.948646   -1.365820
     14          1           0       -2.082342    2.360522    0.347780
     15          1           0       -3.547730    1.565989   -0.277969
     16          6           0        1.286751    1.831444   -0.114592
     17          8           0        1.616870    2.922188   -0.100820
     18          6           0        1.007877   -1.976971   -1.065520
     19          6           0        2.200230   -1.245380   -1.143331
     20          1           0        3.006721   -1.446856   -0.448700
     21          1           0        2.509704   -0.811549   -2.085320
     22          1           0        0.404075   -2.117969   -1.953354
     23          1           0        0.901179   -2.755089   -0.318257
     24          6           0        1.050520   -0.553975    1.592324
     25          8           0        1.263381   -0.907800    2.650989
 ---------------------------------------------------------------------
                    Distance matrix (angstroms):
                    1          2          3          4          5
     1  H    0.000000
     2  Rh   1.594153   0.000000
     3  P    2.604776   2.336540   0.000000
     4  C    3.267251   3.533050   1.819175   0.000000
     5  C    3.266807   3.503137   1.819470   2.839224   0.000000
     6  C    4.319421   3.559466   1.821634   2.835687   2.838745
     7  H    4.655729   3.717585   2.414960   3.076296   3.807055
     8  H    5.049457   4.517590   2.444925   2.972024   2.978648
     9  H    4.657238   3.702862   2.414143   3.803735   3.075543
    10  H    3.677627   3.697006   2.411962   1.090772   3.805895
    11  H    2.910487   3.652966   2.409748   1.090619   3.082420
    12  H    4.227558   4.496338   2.440930   1.092334   2.970570
    13  H    2.907746   3.621272   2.408052   3.079899   1.090731
    14  H    3.668637   3.641729   2.409392   3.804895   1.091079
    15  H    4.230325   4.476645   2.445441   2.978013   1.092275
    16  C    2.348404   1.915098   3.473766   4.947053   3.760708
    17  O    3.251107   3.053533   4.390777   5.893960   4.287161
    18  C    2.605103   2.204070   3.498630   3.672939   5.047181
    19  C    2.622141   2.205108   4.224157   4.760579   5.527296
    20  H    3.553119   2.784409   4.921474   5.620268   6.269738
    21  H    2.591820   2.762686   4.735323   5.160537   5.795978
    22  H    2.570735   2.770761   3.547263   3.231512   4.972433
    23  H    3.538658   2.794083   3.793537   3.924516   5.518744
    24  C    3.533230   1.940449   3.219147   4.569132   4.568645
    25  O    4.668680   3.076641   4.079629   5.397785   5.416028
                    6          7          8          9         10
     6  C    0.000000
     7  H    1.091240   0.000000
     8  H    1.092244   1.778119   0.000000
     9  H    1.091182   1.768011   1.778432   0.000000
    10  H    3.068383   2.909009   3.309640   4.090308   0.000000
    11  H    3.803368   4.093808   3.974957   4.682109   1.767447
    12  H    2.975122   3.326520   2.697448   3.973713   1.778836
    13  H    3.804669   4.683178   3.979323   4.093066   4.100125
    14  H    3.074583   4.094147   3.323909   2.911661   4.681188
    15  H    2.980727   3.982121   2.707361   3.324221   3.975912
    16  C    4.632396   5.078999   5.517348   4.403561   5.380389
    17  O    5.483829   6.032675   6.300202   5.122236   6.422769
    18  C    4.570465   4.268755   5.434524   5.070595   3.266647
    19  C    5.392159   5.212077   6.345575   5.667194   4.544541
    20  H    5.843920   5.563418   6.865205   5.984124   5.329085
    21  H    6.126322   6.066360   7.024825   6.417015   5.068897
    22  H    4.809836   4.586920   5.518667   5.472884   2.836991
    23  H    4.446097   3.898909   5.315311   4.960092   3.279277
    24  C    3.426898   3.241925   4.519110   3.245855   4.463114
    25  O    3.817569   3.453695   4.874785   3.476016   5.187129
                   11         12         13         14         15
    11  H    0.000000
    12  H    1.780147   0.000000
    13  H    2.924733   3.320283   0.000000
    14  H    4.100362   3.970309   1.765706   0.000000
    15  H    3.329375   2.695559   1.781156   1.780508   0.000000
    16  C    4.932078   5.766509   3.697168   3.441583   4.844518
    17  O    5.823184   6.636998   4.128245   3.768406   5.342636
    18  C    3.660457   4.746071   5.072362   5.510056   5.824633
    19  C    4.628090   5.846152   5.433957   5.793648   6.456910
    20  H    5.607400   6.686649   6.275298   6.405393   7.215761
    21  H    4.803296   6.242911   5.497837   6.088423   6.753644
    22  H    2.985643   4.290711   4.859345   5.615547   5.656432
    23  H    4.157637   4.914397   5.725350   5.959403   6.202107
    24  C    5.053282   5.396390   5.051388   4.456233   5.397791
    25  O    6.002799   6.135211   6.018456   5.213498   6.151846
                   16         17         18         19         20
    16  C    0.000000
    17  O    1.139689   0.000000
    18  C    3.935233   5.030236   0.000000
    19  C    3.370400   4.335408   1.401066   0.000000
    20  H    3.717147   4.597962   2.157977   1.083297   0.000000
    21  H    3.516361   4.321595   2.157240   1.082279   1.824601
    22  H    4.445000   5.505083   1.082915   2.154929   3.080282
    23  H    4.607216   5.726340   1.084091   2.155806   2.482296
    24  C    2.942719   3.907839   3.015107   3.046913   2.964749
    25  O    3.892614   4.729294   3.875673   3.922819   3.596927
                   21         22         23         24         25
    21  H    0.000000
    22  H    2.481496   0.000000
    23  H    3.080132   1.823890   0.000000
    24  C    3.964925   3.928842   2.918481   0.000000
    25  O    4.898491   4.837652   3.515692   1.136342   0.000000
 Stoichiometry    C7H14O2PRh
 Framework group  C1[X(C7H14O2PRh)]
 Deg. of freedom    69
 Full point group                 C1      NOp   1
 RotChk:  IX=0 Diff= 4.35D-03
 Largest Abelian subgroup         C1      NOp   1
 Largest concise Abelian subgroup C1      NOp   1
                         Standard orientation:                         
 ---------------------------------------------------------------------
 Center     Atomic      Atomic             Coordinates (Angstroms)
 Number     Number       Type             X           Y           Z
 ---------------------------------------------------------------------
      1          1           0        0.274096    0.462848   -1.701962
      2         45           0        0.656329    0.028113   -0.216625
      3         15           0       -1.672628    0.020996   -0.028675
      4          6           0       -2.559181   -1.077093   -1.176551
      5          6           0       -2.454544    1.634100   -0.340082
      6          6           0       -2.376660   -0.452198    1.583397
      7          1           0       -2.060704   -1.466174    1.834052
      8          1           0       -3.468087   -0.411120    1.573593
      9          1           0       -2.001255    0.222454    2.354496
     10          1           0       -2.257480   -2.109654   -0.996062
     11          1           0       -2.291503   -0.817450   -2.201434
     12          1           0       -3.641463   -0.993663   -1.054488
     13          1           0       -2.182756    1.975356   -1.339767
     14          1           0       -2.075662    2.361027    0.379973
     15          1           0       -3.542487    1.580039   -0.259316
     16          6           0        1.292507    1.829772   -0.086611
     17          8           0        1.625575    2.919277   -0.056010
     18          6           0        1.004370   -1.963081   -1.095226
     19          6           0        2.198796   -1.233664   -1.160667
     20          1           0        3.003940   -1.447806   -0.468266
     21          1           0        2.510528   -0.786514   -2.095658
     22          1           0        0.401205   -2.089011   -1.985753
     23          1           0        0.894701   -2.752094   -0.359913
     24          6           0        1.047837   -0.580481    1.583841
     25          8           0        1.258521   -0.950825    2.637278
 ---------------------------------------------------------------------
 Rotational constants (GHZ):           0.8421448           0.5890219           0.5346938
 Leave Link  202 at Tue Oct  4 16:49:26 2022, MaxMem=  2952790016 cpu:               0.1 elap:               0.0
 (Enter /mnt/data/applications/G16/g16/l301.exe)
 Basis read from rwf:  (5D, 7F)
 Pseudo-potential data read from rwf file.
 There are   489 symmetry adapted cartesian basis functions of A   symmetry.
 There are   436 symmetry adapted basis functions of A   symmetry.
   436 basis functions,   705 primitive gaussians,   489 cartesian basis functions
    52 alpha electrons       52 beta electrons
       nuclear repulsion energy       876.6372352749 Hartrees.
 IExCor= 4639 DFT=T Ex+Corr=wB97XD ExCW=0 ScaHFX=  1.000000
 ScaDFX=  1.000000  1.000000  1.000000  1.000000 ScalE2=  1.000000  1.000000
 IRadAn=      5 IRanWt=     -1 IRanGd=            0 ICorTp=0 IEmpDi=121
 HFx  wShort=  0.000000 wLong=  0.200000 cFull=  0.222036 cShort=  0.000000 cLong=  0.777964
 DFx  wShort=  0.000000 wLong=  0.200000 cFull=  0.000000 cShort=  0.000000 cLong=  1.000000
 NAtoms=   25 NActive=   25 NUniq=   25 SFac= 1.00D+00 NAtFMM=   60 NAOKFM=F Big=F
 Integral buffers will be    131072 words long.
 Raffenetti 2 integral format.
 Two-electron integral symmetry is turned on.
 R6Disp:  Grimme-D2 Dispersion energy=       -0.0206254402 Hartrees.
 Nuclear repulsion after empirical dispersion term =      876.6166098347 Hartrees.
 No density basis found on file   724.
 ------------------------------------------------------------------------------
 Polarizable Continuum Model (PCM)
 =================================
 Model                : PCM.
 Atomic radii         : SMD-Coulomb.
 Polarization charges : Total charges.
 Charge compensation  : None.
 Solution method      : On-the-fly selection.
 Cavity type          : VdW (van der Waals Surface) (Alpha=1.000).
 Cavity algorithm     : GePol (No added spheres)
                        Default sphere list used, NSphG=   25.
                        Lebedev-Laikov grids with approx.  5.0 points / Ang**2.
                        Smoothing algorithm: York/Karplus (Gamma=1.0000).
                        Polarization charges: spherical gaussians, with
                                              point-specific exponents (IZeta= 3).
                        Self-potential: point-specific (ISelfS= 7).
                        Self-field    : sphere-specific E.n sum rule (ISelfD= 2).
 1st derivatives      : Analytical E(r).r(x)/FMM algorithm (CHGder, D1EAlg=3).
                        Cavity 1st derivative terms included.
 Solvent              : Toluene, Eps=   2.374100 Eps(inf)=   2.238315
 ------------------------------------------------------------------------------
 GePol: Number of generator spheres                  =      25
 GePol: Total number of spheres                      =      25
 GePol: Number of exposed spheres                    =      25 (100.00%)
 GePol: Number of points                             =    2325
 GePol: Average weight of points                     =       0.12
 GePol: Minimum weight of points                     =   0.22D-09
 GePol: Maximum weight of points                     =    0.20615
 GePol: Number of points with low weight             =     119
 GePol: Fraction of low-weight points (<1% of avg)   =       5.12%
 GePol: Cavity surface area                          =    281.657 Ang**2
 GePol: Cavity volume                                =    249.846 Ang**3
 ------------------------------------------------------------------------------
 Atomic radii for non-electrostatic terms: SMD-CDS.
 ------------------------------------------------------------------------------
 PCM non-electrostatic energy =         0.0007519301 Hartrees.
 Nuclear repulsion after PCM non-electrostatic terms =      876.6173617648 Hartrees.
 Leave Link  301 at Tue Oct  4 16:49:26 2022, MaxMem=  2952790016 cpu:               1.8 elap:               0.2
 (Enter /mnt/data/applications/G16/g16/l302.exe)
 NPDir=0 NMtPBC=     1 NCelOv=     1 NCel=       1 NClECP=     1 NCelD=      1
         NCelK=      1 NCelE2=     1 NClLst=     1 CellRange=     0.0.
 One-electron integrals computed using PRISM.
 One-electron integral symmetry used in STVInt
   1 Symmetry operations used in ECPInt.
 ECPInt:  NShTT=   16653 NPrTT=   49115 LenC2=   15842 LenP2D=   35624.
 LDataN:  DoStor=T MaxTD1= 7 Len=  274
 NBasis=   436 RedAO= T EigKep=  1.35D-04  NBF=   436
 NBsUse=   436 1.00D-06 EigRej= -1.00D+00 NBFU=   436
 Precomputing XC quadrature grid using
 IXCGrd= 4 IRadAn=           5 IRanWt=          -1 IRanGd=           0 AccXCQ= 0.00D+00.
 Defaulting to unpruned grid for atomic number  45.
 Generated NRdTot=       0 NPtTot=           0 NUsed=           0 NTot=          32
 NSgBfM=   487   487   487   487   487 MxSgAt=    25 MxSgA2=    25.
 Leave Link  302 at Tue Oct  4 16:49:28 2022, MaxMem=  2952790016 cpu:              15.2 elap:               1.3
 (Enter /mnt/data/applications/G16/g16/l303.exe)
 DipDrv:  MaxL=1.
 Leave Link  303 at Tue Oct  4 16:49:28 2022, MaxMem=  2952790016 cpu:               0.9 elap:               0.1
 (Enter /mnt/data/applications/G16/g16/l401.exe)
 Initial guess from the checkpoint file:  "I3.chk"
 B after Tr=    -0.000000   -0.000000    0.000000
         Rot=    0.999999   -0.001192    0.000335    0.000806 Ang=  -0.17 deg.
 Guess basis will be translated and rotated to current coordinates.
 JPrj=2 DoOrth=T DoCkMO=T.
 Leave Link  401 at Tue Oct  4 16:49:29 2022, MaxMem=  2952790016 cpu:               8.4 elap:               0.7
 (Enter /mnt/data/applications/G16/g16/l502.exe)
 Integral symmetry usage will be decided dynamically.
 Closed shell SCF:
 Using DIIS extrapolation, IDIIS=  1040.
 NGot=  2952790016 LenX=  2952301307 LenY=  2952061697
 Requested convergence on RMS density matrix=1.00D-08 within 128 cycles.
 Requested convergence on MAX density matrix=1.00D-06.
 Requested convergence on             energy=1.00D-06.
 No special actions if energy rises.
 Fock matrices will be formed incrementally for  20 cycles.

 Cycle   1  Pass 1  IDiag  1:
 FoFJK:  IHMeth= 1 ICntrl=       0 DoSepK=T KAlg= 0 I1Cent=           0 FoldK=F
 IRaf=         1 NMat=       1 IRICut=       1 DoRegI=T DoRafI=F ISym2E= 0 IDoP0=0 IntGTp=1.
 FoFCou: FMM=F IPFlag=           0 FMFlag=      100000 FMFlg1=           0
         NFxFlg=           0 DoJE=T BraDBF=F KetDBF=F FulRan=T
         wScrn=  0.000000 ICntrl=       500 IOpCl=  0 I1Cent=           0 NGrid=           0
         NMat0=    1 NMatS0=      1 NMatT0=    0 NMatD0=    1 NMtDS0=    0 NMtDT0=    0
 Symmetry not used in FoFCou.
 Defaulting to unpruned grid for atomic number  45.
 Defaulting to unpruned grid for atomic number  45.
 Defaulting to unpruned grid for atomic number  45.
 Defaulting to unpruned grid for atomic number  45.
 Defaulting to unpruned grid for atomic number  45.
 Defaulting to unpruned grid for atomic number  45.
 Defaulting to unpruned grid for atomic number  45.
 Defaulting to unpruned grid for atomic number  45.
 Defaulting to unpruned grid for atomic number  45.
 Defaulting to unpruned grid for atomic number  45.
 Defaulting to unpruned grid for atomic number  45.
 Defaulting to unpruned grid for atomic number  45.
 Inv3:  Mode=1 IEnd=    16216875.
 Iteration    1 A*A^-1 deviation from unit magnitude is 2.44D-15 for   1022.
 Iteration    1 A*A^-1 deviation from orthogonality  is 1.55D-15 for    866    249.
 Iteration    1 A^-1*A deviation from unit magnitude is 2.44D-15 for   1022.
 Iteration    1 A^-1*A deviation from orthogonality  is 1.14D-15 for   1473    762.
 E= -877.673527791594    
 DIIS: error= 1.19D-04 at cycle   1 NSaved=   1.
 NSaved= 1 IEnMin= 1 EnMin= -877.673527791594     IErMin= 1 ErrMin= 1.19D-04
 ErrMax= 1.19D-04  0.00D+00 EMaxC= 1.00D-01 BMatC= 1.16D-05 BMatP= 1.16D-05
 IDIUse=3 WtCom= 9.99D-01 WtEn= 1.19D-03
 Coeff-Com:  0.100D+01
 Coeff-En:   0.100D+01
 Coeff:      0.100D+01
 Gap=     1.747 Goal=   None    Shift=    0.000
 RMSDP=8.57D-06 MaxDP=4.68D-04              OVMax= 1.08D-03

 Cycle   2  Pass 1  IDiag  1:
 RMSU=  8.57D-06    CP:  1.00D+00
 E= -877.673541261674     Delta-E=       -0.000013470080 Rises=F Damp=F
 DIIS: error= 2.87D-05 at cycle   2 NSaved=   2.
 NSaved= 2 IEnMin= 2 EnMin= -877.673541261674     IErMin= 2 ErrMin= 2.87D-05
 ErrMax= 2.87D-05  0.00D+00 EMaxC= 1.00D-01 BMatC= 3.77D-07 BMatP= 1.16D-05
 IDIUse=1 WtCom= 1.00D+00 WtEn= 0.00D+00
 Coeff-Com: -0.125D+00 0.112D+01
 Coeff:     -0.125D+00 0.112D+01
 Gap=     0.317 Goal=   None    Shift=    0.000
 RMSDP=2.85D-06 MaxDP=1.35D-04 DE=-1.35D-05 OVMax= 3.75D-04

 Cycle   3  Pass 1  IDiag  1:
 RMSU=  2.11D-06    CP:  1.00D+00  1.22D+00
 E= -877.673542096434     Delta-E=       -0.000000834760 Rises=F Damp=F
 DIIS: error= 1.63D-05 at cycle   3 NSaved=   3.
 NSaved= 3 IEnMin= 3 EnMin= -877.673542096434     IErMin= 3 ErrMin= 1.63D-05
 ErrMax= 1.63D-05  0.00D+00 EMaxC= 1.00D-01 BMatC= 1.67D-07 BMatP= 3.77D-07
 IDIUse=1 WtCom= 1.00D+00 WtEn= 0.00D+00
 Coeff-Com: -0.653D-01 0.484D+00 0.581D+00
 Coeff:     -0.653D-01 0.484D+00 0.581D+00
 Gap=     0.317 Goal=   None    Shift=    0.000
 RMSDP=1.27D-06 MaxDP=1.67D-04 DE=-8.35D-07 OVMax= 1.59D-04

 Cycle   4  Pass 1  IDiag  1:
 RMSU=  1.18D-06    CP:  1.00D+00  1.25D+00  8.27D-01
 E= -877.673542131586     Delta-E=       -0.000000035152 Rises=F Damp=F
 DIIS: error= 1.90D-05 at cycle   4 NSaved=   4.
 NSaved= 4 IEnMin= 4 EnMin= -877.673542131586     IErMin= 3 ErrMin= 1.63D-05
 ErrMax= 1.90D-05  0.00D+00 EMaxC= 1.00D-01 BMatC= 1.72D-07 BMatP= 1.67D-07
 IDIUse=1 WtCom= 1.00D+00 WtEn= 0.00D+00
 Coeff-Com:  0.621D-03-0.997D-01 0.539D+00 0.560D+00
 Coeff:      0.621D-03-0.997D-01 0.539D+00 0.560D+00
 Gap=     0.317 Goal=   None    Shift=    0.000
 RMSDP=8.06D-07 MaxDP=8.73D-05 DE=-3.52D-08 OVMax= 1.06D-04

 Cycle   5  Pass 1  IDiag  1:
 RMSU=  5.50D-07    CP:  1.00D+00  1.27D+00  1.04D+00  7.23D-01
 E= -877.673542267163     Delta-E=       -0.000000135577 Rises=F Damp=F
 DIIS: error= 2.67D-06 at cycle   5 NSaved=   5.
 NSaved= 5 IEnMin= 5 EnMin= -877.673542267163     IErMin= 5 ErrMin= 2.67D-06
 ErrMax= 2.67D-06  0.00D+00 EMaxC= 1.00D-01 BMatC= 6.19D-09 BMatP= 1.67D-07
 IDIUse=1 WtCom= 1.00D+00 WtEn= 0.00D+00
 Coeff-Com:  0.646D-02-0.976D-01 0.204D+00 0.266D+00 0.622D+00
 Coeff:      0.646D-02-0.976D-01 0.204D+00 0.266D+00 0.622D+00
 Gap=     0.317 Goal=   None    Shift=    0.000
 RMSDP=2.48D-07 MaxDP=1.68D-05 DE=-1.36D-07 OVMax= 2.85D-05

 Cycle   6  Pass 1  IDiag  1:
 RMSU=  1.51D-07    CP:  1.00D+00  1.27D+00  1.10D+00  8.24D-01  9.07D-01
 E= -877.673542273459     Delta-E=       -0.000000006296 Rises=F Damp=F
 DIIS: error= 1.51D-06 at cycle   6 NSaved=   6.
 NSaved= 6 IEnMin= 6 EnMin= -877.673542273459     IErMin= 6 ErrMin= 1.51D-06
 ErrMax= 1.51D-06  0.00D+00 EMaxC= 1.00D-01 BMatC= 1.14D-09 BMatP= 6.19D-09
 IDIUse=1 WtCom= 1.00D+00 WtEn= 0.00D+00
 Coeff-Com:  0.312D-02-0.299D-01-0.924D-02 0.161D-01 0.313D+00 0.706D+00
 Coeff:      0.312D-02-0.299D-01-0.924D-02 0.161D-01 0.313D+00 0.706D+00
 Gap=     0.317 Goal=   None    Shift=    0.000
 RMSDP=1.12D-07 MaxDP=7.18D-06 DE=-6.30D-09 OVMax= 1.47D-05

 Cycle   7  Pass 1  IDiag  1:
 RMSU=  5.81D-08    CP:  1.00D+00  1.27D+00  1.14D+00  8.46D-01  1.01D+00
                    CP:  1.10D+00
 E= -877.673542274763     Delta-E=       -0.000000001304 Rises=F Damp=F
 DIIS: error= 3.21D-07 at cycle   7 NSaved=   7.
 NSaved= 7 IEnMin= 7 EnMin= -877.673542274763     IErMin= 7 ErrMin= 3.21D-07
 ErrMax= 3.21D-07  0.00D+00 EMaxC= 1.00D-01 BMatC= 1.06D-10 BMatP= 1.14D-09
 IDIUse=1 WtCom= 1.00D+00 WtEn= 0.00D+00
 Coeff-Com:  0.332D-03 0.269D-02-0.329D-01-0.312D-01 0.377D-01 0.267D+00
 Coeff-Com:  0.757D+00
 Coeff:      0.332D-03 0.269D-02-0.329D-01-0.312D-01 0.377D-01 0.267D+00
 Coeff:      0.757D+00
 Gap=     0.317 Goal=   None    Shift=    0.000
 RMSDP=5.27D-08 MaxDP=4.05D-06 DE=-1.30D-09 OVMax= 7.66D-06

 Cycle   8  Pass 1  IDiag  1:
 RMSU=  2.50D-08    CP:  1.00D+00  1.27D+00  1.14D+00  8.66D-01  1.08D+00
                    CP:  1.20D+00  1.13D+00
 E= -877.673542274925     Delta-E=       -0.000000000163 Rises=F Damp=F
 DIIS: error= 1.33D-07 at cycle   8 NSaved=   8.
 NSaved= 8 IEnMin= 8 EnMin= -877.673542274925     IErMin= 8 ErrMin= 1.33D-07
 ErrMax= 1.33D-07  0.00D+00 EMaxC= 1.00D-01 BMatC= 1.42D-11 BMatP= 1.06D-10
 IDIUse=1 WtCom= 1.00D+00 WtEn= 0.00D+00
 Coeff-Com: -0.392D-03 0.628D-02-0.113D-01-0.150D-01-0.358D-01-0.156D-01
 Coeff-Com:  0.263D+00 0.809D+00
 Coeff:     -0.392D-03 0.628D-02-0.113D-01-0.150D-01-0.358D-01-0.156D-01
 Coeff:      0.263D+00 0.809D+00
 Gap=     0.317 Goal=   None    Shift=    0.000
 RMSDP=2.32D-08 MaxDP=1.32D-06 DE=-1.63D-10 OVMax= 4.29D-06

 Cycle   9  Pass 1  IDiag  1:
 RMSU=  8.54D-09    CP:  1.00D+00  1.27D+00  1.14D+00  8.71D-01  1.09D+00
                    CP:  1.27D+00  1.33D+00  1.22D+00
 E= -877.673542274987     Delta-E=       -0.000000000062 Rises=F Damp=F
 DIIS: error= 3.99D-08 at cycle   9 NSaved=   9.
 NSaved= 9 IEnMin= 9 EnMin= -877.673542274987     IErMin= 9 ErrMin= 3.99D-08
 ErrMax= 3.99D-08  0.00D+00 EMaxC= 1.00D-01 BMatC= 1.19D-12 BMatP= 1.42D-11
 IDIUse=1 WtCom= 1.00D+00 WtEn= 0.00D+00
 Coeff-Com: -0.438D-04-0.273D-03 0.359D-02 0.303D-02-0.292D-02-0.284D-01
 Coeff-Com: -0.964D-01-0.981D-02 0.113D+01
 Coeff:     -0.438D-04-0.273D-03 0.359D-02 0.303D-02-0.292D-02-0.284D-01
 Coeff:     -0.964D-01-0.981D-02 0.113D+01
 Gap=     0.317 Goal=   None    Shift=    0.000
 RMSDP=1.19D-08 MaxDP=8.64D-07 DE=-6.18D-11 OVMax= 2.14D-06

 Cycle  10  Pass 1  IDiag  1:
 RMSU=  4.44D-09    CP:  1.00D+00  1.27D+00  1.14D+00  8.72D-01  1.10D+00
                    CP:  1.30D+00  1.42D+00  1.46D+00  1.44D+00
 E= -877.673542275030     Delta-E=       -0.000000000042 Rises=F Damp=F
 DIIS: error= 1.69D-08 at cycle  10 NSaved=  10.
 NSaved=10 IEnMin=10 EnMin= -877.673542275030     IErMin=10 ErrMin= 1.69D-08
 ErrMax= 1.69D-08  0.00D+00 EMaxC= 1.00D-01 BMatC= 2.81D-13 BMatP= 1.19D-12
 IDIUse=1 WtCom= 1.00D+00 WtEn= 0.00D+00
 Coeff-Com:  0.487D-04-0.116D-02 0.316D-02 0.352D-02 0.531D-02-0.769D-02
 Coeff-Com: -0.766D-01-0.136D+00 0.411D+00 0.799D+00
 Coeff:      0.487D-04-0.116D-02 0.316D-02 0.352D-02 0.531D-02-0.769D-02
 Coeff:     -0.766D-01-0.136D+00 0.411D+00 0.799D+00
 Gap=     0.317 Goal=   None    Shift=    0.000
 RMSDP=4.01D-09 MaxDP=2.38D-07 DE=-4.23D-11 OVMax= 7.08D-07

 Error on total polarization charges =  0.02505
 SCF Done:  E(RwB97XD) =  -877.673542275     A.U. after   10 cycles
            NFock= 10  Conv=0.40D-08     -V/T= 2.0906
 KE= 8.047593537592D+02 PE=-3.791411314991D+03 EE= 1.232361057192D+03
 SMD-CDS (non-electrostatic) energy       (kcal/mol) =       0.47
 (included in total energy above)
 Leave Link  502 at Tue Oct  4 16:57:30 2022, MaxMem=  2952790016 cpu:            5730.1 elap:             481.4
 (Enter /mnt/data/applications/G16/g16/l701.exe)
 ... and contract with generalized density number  0.
 Compute integral first derivatives.
 R6Disp: Adding Grimme-D2 dispersion energy 1st derivatives to the gradient.
   1 Symmetry operations used in ECPInt.
 ECPInt:  NShTT=   16653 NPrTT=   49115 LenC2=   15842 LenP2D=   35624.
 LDataN:  DoStor=T MaxTD1= 8 Len=  415
 D1PCM: PCM CHGder 1st derivatives, ID1Alg=3 FixD1E=F DoIter=F DoCFld=F I1PDM=0.
 GePol: Maximum number of non-zero 1st derivatives   =     422
 Leave Link  701 at Tue Oct  4 16:57:39 2022, MaxMem=  2952790016 cpu:             104.8 elap:               8.8
 (Enter /mnt/data/applications/G16/g16/l702.exe)
 L702 exits ... SP integral derivatives will be done elsewhere.
 Leave Link  702 at Tue Oct  4 16:57:39 2022, MaxMem=  2952790016 cpu:               0.2 elap:               0.0
 (Enter /mnt/data/applications/G16/g16/l703.exe)
 Integral derivatives from FoFJK, PRISM(SPDF).
 Compute integral first derivatives, UseDBF=F ICtDFT=           0.
 Calling FoFJK, ICntrl=      2127 FMM=F ISym2X=0 I1Cent= 0 IOpClX= 0 NMat=1 NMatS=1 NMatT=0.
 FoFJK:  IHMeth= 1 ICntrl=    2127 DoSepK=T KAlg= 0 I1Cent=           0 FoldK=F
 IRaf=         1 NMat=       1 IRICut=       1 DoRegI=T DoRafI=F ISym2E= 0 IDoP0=0 IntGTp=1.
 FoFCou: FMM=F IPFlag=           0 FMFlag=      100000 FMFlg1=         800
         NFxFlg=           0 DoJE=F BraDBF=F KetDBF=F FulRan=T
         wScrn=  0.000000 ICntrl=      2527 IOpCl=  0 I1Cent=           0 NGrid=           0
         NMat0=    1 NMatS0=      1 NMatT0=    0 NMatD0=    1 NMtDS0=    0 NMtDT0=    0
 Symmetry not used in FoFCou.
 Defaulting to unpruned grid for atomic number  45.
 Defaulting to unpruned grid for atomic number  45.
 Defaulting to unpruned grid for atomic number  45.
 Defaulting to unpruned grid for atomic number  45.
 Defaulting to unpruned grid for atomic number  45.
 Defaulting to unpruned grid for atomic number  45.
 Defaulting to unpruned grid for atomic number  45.
 Defaulting to unpruned grid for atomic number  45.
 Defaulting to unpruned grid for atomic number  45.
 Defaulting to unpruned grid for atomic number  45.
 Defaulting to unpruned grid for atomic number  45.
 Defaulting to unpruned grid for atomic number  45.
 Leave Link  703 at Tue Oct  4 17:00:34 2022, MaxMem=  2952790016 cpu:            2095.8 elap:             175.1
 (Enter /mnt/data/applications/G16/g16/l716.exe)
 Dipole        =-1.89030260D+00-4.73511058D-01 1.04669223D-01
 ***** Axes restored to original set *****
 -------------------------------------------------------------------
 Center     Atomic                   Forces (Hartrees/Bohr)
 Number     Number              X              Y              Z
 -------------------------------------------------------------------
      1        1          -0.000006788    0.000049956   -0.000087767
      2       45           0.000041275   -0.000064058    0.000057901
      3       15          -0.000163522   -0.000024949    0.000081909
      4        6           0.000024220   -0.000004473   -0.000009729
      5        6           0.000023116    0.000009478   -0.000005191
      6        6           0.000016073   -0.000001720   -0.000015896
      7        1           0.000001578   -0.000001999   -0.000001213
      8        1           0.000003550   -0.000001569   -0.000014100
      9        1          -0.000004228   -0.000005421    0.000000862
     10        1           0.000004935    0.000000028   -0.000001714
     11        1           0.000008670    0.000000189    0.000000475
     12        1           0.000000873   -0.000001856   -0.000002313
     13        1           0.000001080   -0.000006866    0.000000961
     14        1          -0.000000709   -0.000004181   -0.000001062
     15        1          -0.000002667   -0.000004725   -0.000001653
     16        6           0.000024570   -0.000053082    0.000007940
     17        8           0.000006146    0.000012815    0.000010054
     18        6          -0.000030463   -0.000023678    0.000042281
     19        6           0.000061931    0.000073874    0.000035512
     20        1           0.000001958   -0.000002091   -0.000001967
     21        1          -0.000012165    0.000002262    0.000001664
     22        1           0.000013351    0.000009511   -0.000002735
     23        1           0.000010516   -0.000008004   -0.000016776
     24        6          -0.000024073    0.000074794   -0.000162689
     25        8           0.000000773   -0.000024234    0.000085246
 -------------------------------------------------------------------
 Cartesian Forces:  Max     0.000163522 RMS     0.000039130
 Leave Link  716 at Tue Oct  4 17:00:34 2022, MaxMem=  2952790016 cpu:               0.2 elap:               0.0
 (Enter /mnt/data/applications/G16/g16/l103.exe)

 GradGradGradGradGradGradGradGradGradGradGradGradGradGradGradGradGradGrad
 Berny optimization.
 Using GEDIIS/GDIIS optimizer.
 FormGI is forming the generalized inverse of G from B-inverse, IUseBI=4.
 Internal  Forces:  Max     0.000097899 RMS     0.000021311
 Search for a local minimum.
 Step number   6 out of a maximum of  150
 All quantities printed in internal units (Hartrees-Bohrs-Radians)
 RMS Force = .21311D-04 SwitMx=.10000D-02 MixMth= 2
 Mixed Optimization -- En-DIIS/RFO-DIIS
 Swapping is turned off.
 Update second derivatives using D2CorX and points    1    2    3    4    5
                                                      6
 DE= -1.14D-06 DEPred=-7.57D-07 R= 1.51D+00
 TightC=F SS=  1.41D+00  RLast= 6.76D-03 DXNew= 8.4090D-02 2.0269D-02
 Trust test= 1.51D+00 RLast= 6.76D-03 DXMaxT set to 5.00D-02
 ITU=  1  1  1  1  1  0
     Eigenvalues ---    0.00230   0.00628   0.00877   0.00879   0.00911
     Eigenvalues ---    0.01906   0.02675   0.03069   0.03220   0.03416
     Eigenvalues ---    0.03635   0.03705   0.04144   0.04167   0.05211
     Eigenvalues ---    0.05486   0.05876   0.05880   0.05905   0.05920
     Eigenvalues ---    0.06158   0.06194   0.06226   0.06537   0.06641
     Eigenvalues ---    0.07145   0.08294   0.08882   0.09097   0.11446
     Eigenvalues ---    0.12648   0.13187   0.13374   0.13940   0.14176
     Eigenvalues ---    0.15179   0.15951   0.16000   0.16000   0.16000
     Eigenvalues ---    0.16000   0.16000   0.16001   0.16005   0.16036
     Eigenvalues ---    0.16044   0.20159   0.21540   0.23019   0.24332
     Eigenvalues ---    0.24603   0.24657   0.25703   0.34544   0.34552
     Eigenvalues ---    0.34583   0.34672   0.34683   0.34693   0.34728
     Eigenvalues ---    0.34733   0.34749   0.35514   0.35604   0.35653
     Eigenvalues ---    0.35747   0.44281   1.42071   1.45224
 En-DIIS/RFO-DIIS/Sim-DIIS IScMMF=       -3 using points:     6    5    4    3    2    1
 RFO step:  Lambda=-6.09656381D-07.
 NNeg= 0 NGDIIS= 6 SimSw=  2.50D-01 Rises=F DC= -1.14D-06 SmlDif=  1.00D-05
 NRisDI= 0 DoIntr=F SqrtH=F CThrHd= 10.0 CDAdj=  3.0
 RMS Error=  0.3243689363D-03 NUsed= 6 OKEnD=F EnDIS=F
 InvSVX:  RCond= 7.23D-08 Info=           0 Equed=N FErr=  2.52D-13 BErr=  7.83D-17
 DIIS inversion failure, remove point   6.
 InvSVX:  RCond= 1.40D-07 Info=           0 Equed=N FErr=  2.01D-13 BErr=  3.91D-17
 RFO-DIIS uses    5 points instead of    6
 DidBck=F Rises=F RFO-DIIS coefs:    1.62494   -0.59361   -0.39373    0.28505    0.07734
                  RFO-DIIS coefs:    0.00000
 Iteration  1 RMS(Cart)=  0.00102732 RMS(Int)=  0.00000104
 Iteration  2 RMS(Cart)=  0.00000081 RMS(Int)=  0.00000087
 ITry= 1 IFail=0 DXMaxC= 7.56D-03 DCOld= 1.00D+10 DXMaxT= 5.00D-02 DXLimC= 3.00D+00 Rises=F
 Variable       Old X    -DE/DX   Delta X   Delta X   Delta X     New X
                                 (Linear)    (Quad)   (Total)
    R1        3.01251   0.00010  -0.00005   0.00045   0.00041   3.01292
    R2        4.41542   0.00008   0.00109  -0.00020   0.00089   4.41631
    R3        3.61901  -0.00003  -0.00036   0.00008  -0.00028   3.61873
    R4        4.16509  -0.00000   0.00012   0.00004   0.00017   4.16525
    R5        4.16705  -0.00003  -0.00034   0.00018  -0.00016   4.16689
    R6        3.66692  -0.00009  -0.00079  -0.00001  -0.00080   3.66612
    R7        3.43774  -0.00001   0.00007  -0.00009  -0.00002   3.43772
    R8        3.43830  -0.00001   0.00006  -0.00007  -0.00001   3.43829
    R9        3.44239  -0.00003   0.00007  -0.00015  -0.00008   3.44231
   R10        2.06126  -0.00000   0.00001  -0.00001  -0.00000   2.06126
   R11        2.06097  -0.00000   0.00001  -0.00001  -0.00001   2.06097
   R12        2.06421   0.00000  -0.00001   0.00001   0.00001   2.06422
   R13        2.06118  -0.00000   0.00000  -0.00001  -0.00001   2.06117
   R14        2.06184  -0.00000   0.00000  -0.00001  -0.00001   2.06183
   R15        2.06410   0.00000  -0.00001   0.00001   0.00000   2.06411
   R16        2.06214  -0.00000   0.00001  -0.00001  -0.00000   2.06214
   R17        2.06404  -0.00001  -0.00002  -0.00000  -0.00002   2.06402
   R18        2.06203   0.00000   0.00001  -0.00001   0.00000   2.06204
   R19        2.15370   0.00001   0.00001  -0.00000   0.00001   2.15371
   R20        2.64763   0.00005  -0.00009   0.00008  -0.00000   2.64763
   R21        2.04641  -0.00000  -0.00000  -0.00001  -0.00001   2.04640
   R22        2.04864  -0.00001  -0.00000  -0.00001  -0.00002   2.04862
   R23        2.04713  -0.00000  -0.00001  -0.00000  -0.00001   2.04713
   R24        2.04521  -0.00000  -0.00001  -0.00000  -0.00001   2.04520
   R25        2.14737   0.00009   0.00007   0.00002   0.00008   2.14746
    A1        1.40685   0.00003   0.00006   0.00024   0.00030   1.40715
    A2        1.45690  -0.00001  -0.00013   0.00006  -0.00007   1.45684
    A3        1.48350   0.00000   0.00040   0.00001   0.00042   1.48392
    A4        1.49560   0.00000   0.00041  -0.00008   0.00033   1.49593
    A5        1.90553   0.00003   0.00088   0.00032   0.00120   1.90673
    A6        1.75861   0.00003   0.00036   0.00014   0.00050   1.75911
    A7        2.38900   0.00005   0.00039   0.00016   0.00055   2.38956
    A8        1.69664  -0.00003  -0.00033  -0.00016  -0.00048   1.69616
    A9        2.54013  -0.00005  -0.00104  -0.00034  -0.00139   2.53875
   A10        1.91241  -0.00007  -0.00112  -0.00039  -0.00152   1.91090
   A11        1.73660  -0.00001  -0.00015  -0.00008  -0.00023   1.73636
   A12        1.62549   0.00001   0.00007  -0.00003   0.00004   1.62553
   A13        1.64751   0.00001   0.00008   0.00002   0.00010   1.64761
   A14        2.02288  -0.00001  -0.00001  -0.00009  -0.00010   2.02277
   A15        1.99532  -0.00002  -0.00017  -0.00015  -0.00032   1.99500
   A16        2.04565   0.00001   0.00021  -0.00005   0.00015   2.04580
   A17        1.79028   0.00002  -0.00001   0.00012   0.00012   1.79040
   A18        1.78570   0.00000  -0.00002   0.00011   0.00009   1.78579
   A19        1.78818   0.00001  -0.00001   0.00012   0.00011   1.78829
   A20        1.90943  -0.00000   0.00003  -0.00005  -0.00002   1.90942
   A21        1.90672  -0.00001   0.00003  -0.00007  -0.00004   1.90668
   A22        1.94576  -0.00000  -0.00006   0.00004  -0.00001   1.94575
   A23        1.88912   0.00000  -0.00001   0.00001   0.00000   1.88912
   A24        1.90483   0.00000   0.00002   0.00002   0.00003   1.90487
   A25        1.90710   0.00000  -0.00001   0.00004   0.00003   1.90714
   A26        1.90410  -0.00001   0.00002  -0.00008  -0.00006   1.90404
   A27        1.90551  -0.00000  -0.00002  -0.00002  -0.00004   1.90546
   A28        1.95143   0.00000  -0.00003   0.00004   0.00002   1.95145
   A29        1.88587   0.00000  -0.00003   0.00003  -0.00001   1.88586
   A30        1.90863   0.00000   0.00001   0.00002   0.00003   1.90866
   A31        1.90716   0.00000   0.00004   0.00001   0.00006   1.90721
   A32        1.91001   0.00000   0.00002   0.00001   0.00002   1.91003
   A33        1.94817  -0.00002   0.00001  -0.00010  -0.00009   1.94808
   A34        1.90901   0.00001  -0.00000   0.00004   0.00004   1.90904
   A35        1.90321   0.00001   0.00002   0.00002   0.00004   1.90325
   A36        1.88869  -0.00000  -0.00005   0.00002  -0.00003   1.88867
   A37        1.90378   0.00000   0.00000   0.00002   0.00002   1.90380
   A38        1.92294  -0.00001  -0.00021   0.00002  -0.00020   1.92275
   A39        1.95106   0.00003   0.00007   0.00007   0.00015   1.95120
   A40        2.09090  -0.00001   0.00002  -0.00009  -0.00007   2.09083
   A41        2.09074   0.00001  -0.00010   0.00009  -0.00002   2.09072
   A42        2.00071  -0.00001   0.00020  -0.00006   0.00014   2.00085
   A43        1.93839   0.00002  -0.00016   0.00013  -0.00003   1.93836
   A44        1.91232  -0.00002  -0.00041   0.00011  -0.00030   1.91201
   A45        2.09538   0.00000  -0.00004   0.00003  -0.00001   2.09536
   A46        2.09555  -0.00001   0.00004  -0.00011  -0.00007   2.09548
   A47        2.00399   0.00000   0.00018  -0.00001   0.00017   2.00416
   A48        3.10349   0.00000  -0.00027   0.00008  -0.00018   3.10331
   A49        3.09674   0.00002   0.00121  -0.00023   0.00098   3.09772
   A50        3.12536  -0.00003  -0.00003  -0.00058  -0.00062   3.12474
   A51        3.10012   0.00002   0.00042   0.00000   0.00042   3.10054
   A52        3.18318  -0.00001   0.00039  -0.00019   0.00020   3.18338
   A53        3.12886   0.00000  -0.00007   0.00056   0.00049   3.12935
    D1        1.01419   0.00001   0.00004   0.00012   0.00016   1.01436
    D2       -1.06311   0.00001   0.00020   0.00015   0.00035  -1.06276
    D3        3.12741   0.00001   0.00018   0.00015   0.00034   3.12775
    D4        2.40451   0.00000  -0.00028   0.00020  -0.00007   2.40444
    D5        0.32720   0.00001  -0.00012   0.00023   0.00011   0.32732
    D6       -1.76546   0.00000  -0.00014   0.00023   0.00010  -1.76536
    D7       -0.43491   0.00000  -0.00032   0.00008  -0.00024  -0.43514
    D8       -2.51221   0.00000  -0.00016   0.00011  -0.00006  -2.51227
    D9        1.67831   0.00000  -0.00018   0.00011  -0.00007   1.67824
   D10       -0.26439  -0.00000  -0.00047   0.00004  -0.00043  -0.26482
   D11       -2.34170  -0.00000  -0.00031   0.00007  -0.00024  -2.34194
   D12        1.84883  -0.00000  -0.00032   0.00007  -0.00026   1.84857
   D13       -2.08592  -0.00001  -0.00038   0.00012  -0.00026  -2.08618
   D14        2.11996  -0.00001  -0.00022   0.00015  -0.00007   2.11988
   D15        0.02730  -0.00001  -0.00024   0.00015  -0.00009   0.02721
   D16       -0.45973   0.00000   0.00012  -0.00006   0.00006  -0.45968
   D17       -2.70576  -0.00001  -0.00003  -0.00005  -0.00008  -2.70585
   D18        0.92662   0.00003   0.00022   0.00017   0.00039   0.92701
   D19       -1.31942   0.00002   0.00007   0.00018   0.00025  -1.31917
   D20       -1.69513  -0.00002  -0.00092  -0.00040  -0.00131  -1.69644
   D21        2.34202  -0.00003  -0.00106  -0.00039  -0.00145   2.34057
   D22        2.63621   0.00001  -0.00007   0.00002  -0.00005   2.63616
   D23        0.39018  -0.00000  -0.00022   0.00002  -0.00019   0.38999
   D24        2.73487  -0.00001  -0.00016  -0.00012  -0.00028   2.73459
   D25        0.50261  -0.00001   0.00004  -0.00028  -0.00024   0.50236
   D26       -2.30316   0.00002   0.00023   0.00009   0.00032  -2.30284
   D27        1.74776   0.00001   0.00043  -0.00007   0.00036   1.74812
   D28        1.31236  -0.00001  -0.00032  -0.00020  -0.00053   1.31183
   D29       -0.91990  -0.00001  -0.00013  -0.00037  -0.00049  -0.92039
   D30       -0.46286   0.00001  -0.00002  -0.00006  -0.00009  -0.46295
   D31       -2.69513   0.00000   0.00017  -0.00023  -0.00005  -2.69518
   D32        1.07368   0.00001   0.00007   0.00009   0.00016   1.07384
   D33       -0.99144   0.00001   0.00005   0.00014   0.00019  -0.99125
   D34       -3.10099   0.00001   0.00007   0.00011   0.00018  -3.10081
   D35       -3.02308  -0.00001  -0.00016  -0.00006  -0.00022  -3.02330
   D36        1.19499  -0.00001  -0.00018  -0.00001  -0.00020   1.19479
   D37       -0.91456  -0.00001  -0.00016  -0.00005  -0.00020  -0.91477
   D38       -1.17383   0.00000  -0.00018   0.00014  -0.00004  -1.17387
   D39        3.04424   0.00001  -0.00020   0.00019  -0.00001   3.04422
   D40        0.93469   0.00001  -0.00017   0.00015  -0.00002   0.93467
   D41        1.01024  -0.00001   0.00009   0.00005   0.00014   1.01038
   D42       -1.04714  -0.00000   0.00013   0.00008   0.00021  -1.04693
   D43        3.12359  -0.00001   0.00010   0.00005   0.00015   3.12375
   D44       -1.19411   0.00001   0.00021   0.00017   0.00038  -1.19372
   D45        3.03170   0.00001   0.00025   0.00020   0.00045   3.03215
   D46        0.91925   0.00001   0.00023   0.00017   0.00040   0.91964
   D47       -3.04145  -0.00000   0.00024  -0.00002   0.00022  -3.04122
   D48        1.18436  -0.00000   0.00028   0.00001   0.00029   1.18464
   D49       -0.92809  -0.00000   0.00026  -0.00002   0.00023  -0.92786
   D50       -1.04708  -0.00000  -0.00003  -0.00002  -0.00006  -1.04714
   D51        3.12768  -0.00000  -0.00007   0.00001  -0.00006   3.12761
   D52        1.01921  -0.00000  -0.00008   0.00003  -0.00006   1.01915
   D53        1.18605  -0.00001   0.00007  -0.00009  -0.00002   1.18603
   D54       -0.92238  -0.00001   0.00004  -0.00006  -0.00002  -0.92240
   D55       -3.03085  -0.00001   0.00003  -0.00004  -0.00001  -3.03086
   D56        3.03692   0.00001   0.00006   0.00011   0.00017   3.03709
   D57        0.92850   0.00001   0.00002   0.00014   0.00016   0.92866
   D58       -1.17997   0.00001   0.00001   0.00016   0.00017  -1.17980
   D59       -2.66587   0.00000  -0.00043   0.00018  -0.00025  -2.66612
   D60        0.01418  -0.00000   0.00007  -0.00006   0.00001   0.01419
   D61       -0.01646  -0.00000  -0.00011   0.00002  -0.00009  -0.01654
   D62        2.66360  -0.00001   0.00038  -0.00022   0.00017   2.66376
         Item               Value     Threshold  Converged?
 Maximum Force            0.000098     0.000450     YES
 RMS     Force            0.000021     0.000300     YES
 Maximum Displacement     0.007560     0.001800     NO 
 RMS     Displacement     0.001028     0.001200     YES
 Predicted change in Energy=-2.858614D-07
 Lowest energy point so far.  Saving SCF results.
 GradGradGradGradGradGradGradGradGradGradGradGradGradGradGradGradGradGrad

 Leave Link  103 at Tue Oct  4 17:00:34 2022, MaxMem=  2952790016 cpu:               0.5 elap:               0.1
 (Enter /mnt/data/applications/G16/g16/l202.exe)
                          Input orientation:                          
 ---------------------------------------------------------------------
 Center     Atomic      Atomic             Coordinates (Angstroms)
 Number     Number       Type             X           Y           Z
 ---------------------------------------------------------------------
      1          1           0        0.270075    0.438021   -1.708382
      2         45           0        0.655084    0.026285   -0.216989
      3         15           0       -1.674062    0.015456   -0.025730
      4          6           0       -2.558866   -1.102198   -1.155917
      5          6           0       -2.460432    1.621686   -0.360536
      6          6           0       -2.374858   -0.435242    1.594133
      7          1           0       -2.055842   -1.444454    1.859699
      8          1           0       -3.466393   -0.397252    1.584962
      9          1           0       -2.000406    0.251978    2.354523
     10          1           0       -2.254069   -2.131085   -0.960288
     11          1           0       -2.293047   -0.857232   -2.184886
     12          1           0       -3.641236   -1.019917   -1.033833
     13          1           0       -2.190844    1.948307   -1.365685
     14          1           0       -2.082299    2.360405    0.347812
     15          1           0       -3.548127    1.566188   -0.277410
     16          6           0        1.288459    1.830587   -0.115164
     17          8           0        1.620871    2.920642   -0.101654
     18          6           0        1.008722   -1.976916   -1.065775
     19          6           0        2.200700   -1.244676   -1.143198
     20          1           0        3.007086   -1.445761   -0.448338
     21          1           0        2.510033   -0.810457   -2.085049
     22          1           0        0.405190   -2.117961   -1.953778
     23          1           0        0.902277   -2.755178   -0.318638
     24          6           0        1.049700   -0.553666    1.591779
     25          8           0        1.261631   -0.906887    2.650879
 ---------------------------------------------------------------------
                    Distance matrix (angstroms):
                    1          2          3          4          5
     1  H    0.000000
     2  Rh   1.594368   0.000000
     3  P    2.605676   2.337010   0.000000
     4  C    3.268088   3.533345   1.819162   0.000000
     5  C    3.267021   3.503192   1.819464   2.839342   0.000000
     6  C    4.320285   3.560016   1.821592   2.835747   2.838839
     7  H    4.656695   3.718175   2.414940   3.076380   3.807145
     8  H    5.050246   4.518073   2.444812   2.972032   2.978763
     9  H    4.657993   3.703409   2.414135   3.803796   3.075593
    10  H    3.678485   3.697284   2.411938   1.090771   3.805992
    11  H    2.911071   3.653039   2.409706   1.090617   3.082418
    12  H    4.228352   4.496681   2.440911   1.092337   2.970807
    13  H    2.907667   3.621185   2.407999   3.079776   1.090726
    14  H    3.668400   3.641481   2.409352   3.804988   1.091076
    15  H    4.230734   4.476822   2.445451   2.978371   1.092277
    16  C    2.348337   1.914951   3.475518   4.948363   3.762716
    17  O    3.251097   3.053417   4.393456   5.896178   4.290844
    18  C    2.605852   2.204158   3.499796   3.674362   5.048002
    19  C    2.622635   2.205024   4.224979   4.761715   5.527635
    20  H    3.553529   2.784305   4.922083   5.621256   6.269824
    21  H    2.591908   2.762358   4.735988   5.161602   5.796101
    22  H    2.571287   2.770680   3.548539   3.233262   4.973447
    23  H    3.539433   2.794275   3.794698   3.925925   5.519648
    24  C    3.533032   1.940027   3.218557   4.568639   4.567791
    25  O    4.668524   3.076260   4.078387   5.396855   5.414430
                    6          7          8          9         10
     6  C    0.000000
     7  H    1.091240   0.000000
     8  H    1.092234   1.778135   0.000000
     9  H    1.091183   1.767994   1.778438   0.000000
    10  H    3.068474   2.909138   3.309713   4.090392   0.000000
    11  H    3.803386   4.093869   3.974931   4.682117   1.767445
    12  H    2.975191   3.326595   2.697475   3.973789   1.778858
    13  H    3.804693   4.683178   3.979320   4.093134   4.099973
    14  H    3.074826   4.094320   3.324294   2.911883   4.681251
    15  H    2.980764   3.982225   2.707435   3.324103   3.976272
    16  C    4.634174   5.080386   5.519266   4.405450   5.381317
    17  O    5.486666   6.034832   6.303439   5.125254   6.424357
    18  C    4.571704   4.270067   5.435843   5.071613   3.268134
    19  C    5.392948   5.213008   6.346410   5.667744   4.545783
    20  H    5.844497   5.564196   6.865829   5.984424   5.330245
    21  H    6.126934   6.067142   7.025481   6.417369   5.070091
    22  H    4.811224   4.588344   5.520206   5.474026   2.838812
    23  H    4.447517   3.900465   5.316840   4.961285   3.280812
    24  C    3.426605   3.241863   4.518805   3.245611   4.462755
    25  O    3.816177   3.452618   4.873409   3.474432   5.186456
                   11         12         13         14         15
    11  H    0.000000
    12  H    1.780169   0.000000
    13  H    2.924480   3.320259   0.000000
    14  H    4.100263   3.970618   1.765695   0.000000
    15  H    3.329663   2.696069   1.781172   1.780543   0.000000
    16  C    4.933082   5.768121   3.699082   3.443408   4.846524
    17  O    5.825027   6.639785   4.131874   3.772182   5.346398
    18  C    3.661664   4.747523   5.072923   5.510444   5.825803
    19  C    4.629146   5.847281   5.434179   5.793428   6.457520
    20  H    5.608331   6.687625   6.275325   6.404889   7.216084
    21  H    4.804346   6.243961   5.497864   6.087914   6.754059
    22  H    2.987195   4.292501   4.860019   5.616109   5.657904
    23  H    4.158748   4.915908   5.725948   5.959953   6.203387
    24  C    5.052653   5.395935   5.050504   4.455186   5.397005
    25  O    6.001902   6.134166   6.017018   5.211640   6.150183
                   16         17         18         19         20
    16  C    0.000000
    17  O    1.139694   0.000000
    18  C    3.934335   5.028950   0.000000
    19  C    3.368424   4.332539   1.401064   0.000000
    20  H    3.714719   4.594264   2.157965   1.083293   0.000000
    21  H    3.513944   4.318051   2.157193   1.082274   1.824690
    22  H    4.444287   5.504159   1.082909   2.154883   3.080269
    23  H    4.606493   5.725242   1.084083   2.155787   2.482260
    24  C    2.941993   3.907016   3.014948   3.046702   2.964670
    25  O    3.891719   4.728158   3.875880   3.923133   3.597520
                   21         22         23         24         25
    21  H    0.000000
    22  H    2.481363   0.000000
    23  H    3.080102   1.823958   0.000000
    24  C    3.964540   3.928534   2.918575   0.000000
    25  O    4.898655   4.837671   3.516155   1.136386   0.000000
 Stoichiometry    C7H14O2PRh
 Framework group  C1[X(C7H14O2PRh)]
 Deg. of freedom    69
 Full point group                 C1      NOp   1
 RotChk:  IX=0 Diff= 1.45D-03
 Largest Abelian subgroup         C1      NOp   1
 Largest concise Abelian subgroup C1      NOp   1
                         Standard orientation:                         
 ---------------------------------------------------------------------
 Center     Atomic      Atomic             Coordinates (Angstroms)
 Number     Number       Type             X           Y           Z
 ---------------------------------------------------------------------
      1          1           0        0.275222    0.463425   -1.702009
      2         45           0        0.656220    0.027637   -0.216432
      3         15           0       -1.673271    0.022278   -0.029193
      4          6           0       -2.560139   -1.074840   -1.177735
      5          6           0       -2.453327    1.636241   -0.340779
      6          6           0       -2.378426   -0.450517    1.582457
      7          1           0       -2.063471   -1.464797    1.833140
      8          1           0       -3.469801   -0.408463    1.572070
      9          1           0       -2.002815    0.223690    2.353847
     10          1           0       -2.259354   -2.107678   -0.997305
     11          1           0       -2.291698   -0.815188   -2.202413
     12          1           0       -3.642415   -0.990534   -1.056193
     13          1           0       -2.180864    1.977162   -1.340390
     14          1           0       -2.073762    2.362720    0.379364
     15          1           0       -3.541353    1.583398   -0.260299
     16          6           0        1.295864    1.827888   -0.086083
     17          8           0        1.632145    2.916408   -0.055418
     18          6           0        1.004141   -1.963662   -1.095061
     19          6           0        2.198858   -1.234622   -1.159355
     20          1           0        3.003338   -1.449168   -0.466314
     21          1           0        2.511342   -0.787223   -2.093969
     22          1           0        0.401621   -2.088992   -1.986101
     23          1           0        0.893646   -2.752826   -0.360045
     24          6           0        1.045685   -0.581214    1.583936
     25          8           0        1.254551   -0.951285    2.637878
 ---------------------------------------------------------------------
 Rotational constants (GHZ):           0.8424982           0.5887523           0.5346141
 Leave Link  202 at Tue Oct  4 17:00:34 2022, MaxMem=  2952790016 cpu:               0.1 elap:               0.0
 (Enter /mnt/data/applications/G16/g16/l301.exe)
 Basis read from rwf:  (5D, 7F)
 Pseudo-potential data read from rwf file.
 There are   489 symmetry adapted cartesian basis functions of A   symmetry.
 There are   436 symmetry adapted basis functions of A   symmetry.
   436 basis functions,   705 primitive gaussians,   489 cartesian basis functions
    52 alpha electrons       52 beta electrons
       nuclear repulsion energy       876.6086121114 Hartrees.
 IExCor= 4639 DFT=T Ex+Corr=wB97XD ExCW=0 ScaHFX=  1.000000
 ScaDFX=  1.000000  1.000000  1.000000  1.000000 ScalE2=  1.000000  1.000000
 IRadAn=      5 IRanWt=     -1 IRanGd=            0 ICorTp=0 IEmpDi=121
 HFx  wShort=  0.000000 wLong=  0.200000 cFull=  0.222036 cShort=  0.000000 cLong=  0.777964
 DFx  wShort=  0.000000 wLong=  0.200000 cFull=  0.000000 cShort=  0.000000 cLong=  1.000000
 NAtoms=   25 NActive=   25 NUniq=   25 SFac= 1.00D+00 NAtFMM=   60 NAOKFM=F Big=F
 Integral buffers will be    131072 words long.
 Raffenetti 2 integral format.
 Two-electron integral symmetry is turned on.
 R6Disp:  Grimme-D2 Dispersion energy=       -0.0206214434 Hartrees.
 Nuclear repulsion after empirical dispersion term =      876.5879906680 Hartrees.
 No density basis found on file   724.
 ------------------------------------------------------------------------------
 Polarizable Continuum Model (PCM)
 =================================
 Model                : PCM.
 Atomic radii         : SMD-Coulomb.
 Polarization charges : Total charges.
 Charge compensation  : None.
 Solution method      : On-the-fly selection.
 Cavity type          : VdW (van der Waals Surface) (Alpha=1.000).
 Cavity algorithm     : GePol (No added spheres)
                        Default sphere list used, NSphG=   25.
                        Lebedev-Laikov grids with approx.  5.0 points / Ang**2.
                        Smoothing algorithm: York/Karplus (Gamma=1.0000).
                        Polarization charges: spherical gaussians, with
                                              point-specific exponents (IZeta= 3).
                        Self-potential: point-specific (ISelfS= 7).
                        Self-field    : sphere-specific E.n sum rule (ISelfD= 2).
 1st derivatives      : Analytical E(r).r(x)/FMM algorithm (CHGder, D1EAlg=3).
                        Cavity 1st derivative terms included.
 Solvent              : Toluene, Eps=   2.374100 Eps(inf)=   2.238315
 ------------------------------------------------------------------------------
 GePol: Number of generator spheres                  =      25
 GePol: Total number of spheres                      =      25
 GePol: Number of exposed spheres                    =      25 (100.00%)
 GePol: Number of points                             =    2326
 GePol: Average weight of points                     =       0.12
 GePol: Minimum weight of points                     =   0.72D-09
 GePol: Maximum weight of points                     =    0.20615
 GePol: Number of points with low weight             =     119
 GePol: Fraction of low-weight points (<1% of avg)   =       5.12%
 GePol: Cavity surface area                          =    281.655 Ang**2
 GePol: Cavity volume                                =    249.849 Ang**3
 ------------------------------------------------------------------------------
 Atomic radii for non-electrostatic terms: SMD-CDS.
 ------------------------------------------------------------------------------
 PCM non-electrostatic energy =         0.0007513245 Hartrees.
 Nuclear repulsion after PCM non-electrostatic terms =      876.5887419926 Hartrees.
 Leave Link  301 at Tue Oct  4 17:00:34 2022, MaxMem=  2952790016 cpu:               1.9 elap:               0.2
 (Enter /mnt/data/applications/G16/g16/l302.exe)
 NPDir=0 NMtPBC=     1 NCelOv=     1 NCel=       1 NClECP=     1 NCelD=      1
         NCelK=      1 NCelE2=     1 NClLst=     1 CellRange=     0.0.
 One-electron integrals computed using PRISM.
 One-electron integral symmetry used in STVInt
   1 Symmetry operations used in ECPInt.
 ECPInt:  NShTT=   16653 NPrTT=   49115 LenC2=   15842 LenP2D=   35624.
 LDataN:  DoStor=T MaxTD1= 7 Len=  274
 NBasis=   436 RedAO= T EigKep=  1.35D-04  NBF=   436
 NBsUse=   436 1.00D-06 EigRej= -1.00D+00 NBFU=   436
 Precomputing XC quadrature grid using
 IXCGrd= 4 IRadAn=           5 IRanWt=          -1 IRanGd=           0 AccXCQ= 0.00D+00.
 Defaulting to unpruned grid for atomic number  45.
 Generated NRdTot=       0 NPtTot=           0 NUsed=           0 NTot=          32
 NSgBfM=   487   487   487   487   487 MxSgAt=    25 MxSgA2=    25.
 Leave Link  302 at Tue Oct  4 17:00:36 2022, MaxMem=  2952790016 cpu:              15.3 elap:               1.3
 (Enter /mnt/data/applications/G16/g16/l303.exe)
 DipDrv:  MaxL=1.
 Leave Link  303 at Tue Oct  4 17:00:36 2022, MaxMem=  2952790016 cpu:               0.9 elap:               0.1
 (Enter /mnt/data/applications/G16/g16/l401.exe)
 Initial guess from the checkpoint file:  "I3.chk"
 B after Tr=     0.000000    0.000000   -0.000000
         Rot=    1.000000   -0.000018    0.000276    0.000521 Ang=  -0.07 deg.
 Guess basis will be translated and rotated to current coordinates.
 JPrj=2 DoOrth=T DoCkMO=T.
 Leave Link  401 at Tue Oct  4 17:00:37 2022, MaxMem=  2952790016 cpu:               8.5 elap:               0.7
 (Enter /mnt/data/applications/G16/g16/l502.exe)
 Integral symmetry usage will be decided dynamically.
 Closed shell SCF:
 Using DIIS extrapolation, IDIIS=  1040.
 NGot=  2952790016 LenX=  2952301307 LenY=  2952061697
 Requested convergence on RMS density matrix=1.00D-08 within 128 cycles.
 Requested convergence on MAX density matrix=1.00D-06.
 Requested convergence on             energy=1.00D-06.
 No special actions if energy rises.
 Fock matrices will be formed incrementally for  20 cycles.

 Cycle   1  Pass 1  IDiag  1:
 FoFJK:  IHMeth= 1 ICntrl=       0 DoSepK=T KAlg= 0 I1Cent=           0 FoldK=F
 IRaf=         1 NMat=       1 IRICut=       1 DoRegI=T DoRafI=F ISym2E= 0 IDoP0=0 IntGTp=1.
 FoFCou: FMM=F IPFlag=           0 FMFlag=      100000 FMFlg1=           0
         NFxFlg=           0 DoJE=T BraDBF=F KetDBF=F FulRan=T
         wScrn=  0.000000 ICntrl=       500 IOpCl=  0 I1Cent=           0 NGrid=           0
         NMat0=    1 NMatS0=      1 NMatT0=    0 NMatD0=    1 NMtDS0=    0 NMtDT0=    0
 Symmetry not used in FoFCou.
 Defaulting to unpruned grid for atomic number  45.
 Defaulting to unpruned grid for atomic number  45.
 Defaulting to unpruned grid for atomic number  45.
 Defaulting to unpruned grid for atomic number  45.
 Defaulting to unpruned grid for atomic number  45.
 Defaulting to unpruned grid for atomic number  45.
 Defaulting to unpruned grid for atomic number  45.
 Defaulting to unpruned grid for atomic number  45.
 Defaulting to unpruned grid for atomic number  45.
 Defaulting to unpruned grid for atomic number  45.
 Defaulting to unpruned grid for atomic number  45.
 Defaulting to unpruned grid for atomic number  45.
 Inv3:  Mode=1 IEnd=    16230828.
 Iteration    1 A*A^-1 deviation from unit magnitude is 2.22D-15 for    452.
 Iteration    1 A*A^-1 deviation from orthogonality  is 2.27D-15 for   1064    197.
 Iteration    1 A^-1*A deviation from unit magnitude is 2.11D-15 for   1003.
 Iteration    1 A^-1*A deviation from orthogonality  is 1.01D-15 for   1523    483.
 E= -877.673538003490    
 DIIS: error= 6.11D-05 at cycle   1 NSaved=   1.
 NSaved= 1 IEnMin= 1 EnMin= -877.673538003490     IErMin= 1 ErrMin= 6.11D-05
 ErrMax= 6.11D-05  0.00D+00 EMaxC= 1.00D-01 BMatC= 4.26D-06 BMatP= 4.26D-06
 IDIUse=1 WtCom= 1.00D+00 WtEn= 0.00D+00
 Coeff-Com:  0.100D+01
 Coeff:      0.100D+01
 Gap=     1.748 Goal=   None    Shift=    0.000
 RMSDP=5.05D-06 MaxDP=2.64D-04              OVMax= 5.80D-04

 Cycle   2  Pass 1  IDiag  1:
 RMSU=  5.05D-06    CP:  1.00D+00
 E= -877.673542237065     Delta-E=       -0.000004233575 Rises=F Damp=F
 DIIS: error= 1.30D-05 at cycle   2 NSaved=   2.
 NSaved= 2 IEnMin= 2 EnMin= -877.673542237065     IErMin= 2 ErrMin= 1.30D-05
 ErrMax= 1.30D-05  0.00D+00 EMaxC= 1.00D-01 BMatC= 1.19D-07 BMatP= 4.26D-06
 IDIUse=1 WtCom= 1.00D+00 WtEn= 0.00D+00
 Coeff-Com: -0.102D+00 0.110D+01
 Coeff:     -0.102D+00 0.110D+01
 Gap=     0.318 Goal=   None    Shift=    0.000
 RMSDP=1.44D-06 MaxDP=5.99D-05 DE=-4.23D-06 OVMax= 1.89D-04

 Cycle   3  Pass 1  IDiag  1:
 RMSU=  1.02D-06    CP:  1.00D+00  1.20D+00
 E= -877.673542499476     Delta-E=       -0.000000262411 Rises=F Damp=F
 DIIS: error= 9.09D-06 at cycle   3 NSaved=   3.
 NSaved= 3 IEnMin= 3 EnMin= -877.673542499476     IErMin= 3 ErrMin= 9.09D-06
 ErrMax= 9.09D-06  0.00D+00 EMaxC= 1.00D-01 BMatC= 5.53D-08 BMatP= 1.19D-07
 IDIUse=1 WtCom= 1.00D+00 WtEn= 0.00D+00
 Coeff-Com: -0.545D-01 0.458D+00 0.597D+00
 Coeff:     -0.545D-01 0.458D+00 0.597D+00
 Gap=     0.318 Goal=   None    Shift=    0.000
 RMSDP=6.75D-07 MaxDP=8.51D-05 DE=-2.62D-07 OVMax= 8.19D-05

 Cycle   4  Pass 1  IDiag  1:
 RMSU=  6.53D-07    CP:  1.00D+00  1.22D+00  8.99D-01
 E= -877.673542512724     Delta-E=       -0.000000013247 Rises=F Damp=F
 DIIS: error= 1.01D-05 at cycle   4 NSaved=   4.
 NSaved= 4 IEnMin= 4 EnMin= -877.673542512724     IErMin= 3 ErrMin= 9.09D-06
 ErrMax= 1.01D-05  0.00D+00 EMaxC= 1.00D-01 BMatC= 5.36D-08 BMatP= 5.53D-08
 IDIUse=1 WtCom= 1.00D+00 WtEn= 0.00D+00
 Coeff-Com: -0.114D-02-0.995D-01 0.532D+00 0.569D+00
 Coeff:     -0.114D-02-0.995D-01 0.532D+00 0.569D+00
 Gap=     0.318 Goal=   None    Shift=    0.000
 RMSDP=4.67D-07 MaxDP=5.49D-05 DE=-1.32D-08 OVMax= 6.10D-05

 Cycle   5  Pass 1  IDiag  1:
 RMSU=  2.56D-07    CP:  1.00D+00  1.24D+00  1.20D+00  6.71D-01
 E= -877.673542553980     Delta-E=       -0.000000041256 Rises=F Damp=F
 DIIS: error= 2.59D-06 at cycle   5 NSaved=   5.
 NSaved= 5 IEnMin= 5 EnMin= -877.673542553980     IErMin= 5 ErrMin= 2.59D-06
 ErrMax= 2.59D-06  0.00D+00 EMaxC= 1.00D-01 BMatC= 4.60D-09 BMatP= 5.36D-08
 IDIUse=1 WtCom= 1.00D+00 WtEn= 0.00D+00
 Coeff-Com:  0.514D-02-0.112D+00 0.254D+00 0.346D+00 0.507D+00
 Coeff:      0.514D-02-0.112D+00 0.254D+00 0.346D+00 0.507D+00
 Gap=     0.318 Goal=   None    Shift=    0.000
 RMSDP=1.38D-07 MaxDP=1.54D-05 DE=-4.13D-08 OVMax= 1.52D-05

 Cycle   6  Pass 1  IDiag  1:
 RMSU=  9.13D-08    CP:  1.00D+00  1.24D+00  1.23D+00  8.02D-01  8.45D-01
 E= -877.673542557761     Delta-E=       -0.000000003781 Rises=F Damp=F
 DIIS: error= 6.90D-07 at cycle   6 NSaved=   6.
 NSaved= 6 IEnMin= 6 EnMin= -877.673542557761     IErMin= 6 ErrMin= 6.90D-07
 ErrMax= 6.90D-07  0.00D+00 EMaxC= 1.00D-01 BMatC= 3.05D-10 BMatP= 4.60D-09
 IDIUse=1 WtCom= 1.00D+00 WtEn= 0.00D+00
 Coeff-Com:  0.221D-02-0.234D-01-0.206D-01 0.106D-01 0.200D+00 0.831D+00
 Coeff:      0.221D-02-0.234D-01-0.206D-01 0.106D-01 0.200D+00 0.831D+00
 Gap=     0.318 Goal=   None    Shift=    0.000
 RMSDP=7.13D-08 MaxDP=4.83D-06 DE=-3.78D-09 OVMax= 8.70D-06

 Cycle   7  Pass 1  IDiag  1:
 RMSU=  3.48D-08    CP:  1.00D+00  1.24D+00  1.28D+00  8.30D-01  9.76D-01
                    CP:  1.12D+00
 E= -877.673542558177     Delta-E=       -0.000000000416 Rises=F Damp=F
 DIIS: error= 1.38D-07 at cycle   7 NSaved=   7.
 NSaved= 7 IEnMin= 7 EnMin= -877.673542558177     IErMin= 7 ErrMin= 1.38D-07
 ErrMax= 1.38D-07  0.00D+00 EMaxC= 1.00D-01 BMatC= 2.34D-11 BMatP= 3.05D-10
 IDIUse=1 WtCom= 1.00D+00 WtEn= 0.00D+00
 Coeff-Com:  0.764D-04 0.647D-02-0.354D-01-0.351D-01 0.272D-02 0.234D+00
 Coeff-Com:  0.827D+00
 Coeff:      0.764D-04 0.647D-02-0.354D-01-0.351D-01 0.272D-02 0.234D+00
 Coeff:      0.827D+00
 Gap=     0.318 Goal=   None    Shift=    0.000
 RMSDP=2.86D-08 MaxDP=2.26D-06 DE=-4.16D-10 OVMax= 3.93D-06

 Cycle   8  Pass 1  IDiag  1:
 RMSU=  1.39D-08    CP:  1.00D+00  1.24D+00  1.29D+00  8.49D-01  1.04D+00
                    CP:  1.23D+00  1.15D+00
 E= -877.673542558247     Delta-E=       -0.000000000070 Rises=F Damp=F
 DIIS: error= 6.15D-08 at cycle   8 NSaved=   8.
 NSaved= 8 IEnMin= 8 EnMin= -877.673542558247     IErMin= 8 ErrMin= 6.15D-08
 ErrMax= 6.15D-08  0.00D+00 EMaxC= 1.00D-01 BMatC= 3.79D-12 BMatP= 2.34D-11
 IDIUse=1 WtCom= 1.00D+00 WtEn= 0.00D+00
 Coeff-Com: -0.261D-03 0.590D-02-0.118D-01-0.157D-01-0.241D-01-0.122D-01
 Coeff-Com:  0.300D+00 0.758D+00
 Coeff:     -0.261D-03 0.590D-02-0.118D-01-0.157D-01-0.241D-01-0.122D-01
 Coeff:      0.300D+00 0.758D+00
 Gap=     0.318 Goal=   None    Shift=    0.000
 RMSDP=1.07D-08 MaxDP=6.44D-07 DE=-7.00D-11 OVMax= 1.66D-06

 Cycle   9  Pass 1  IDiag  1:
 RMSU=  4.46D-09    CP:  1.00D+00  1.24D+00  1.29D+00  8.52D-01  1.05D+00
                    CP:  1.28D+00  1.34D+00  1.13D+00
 E= -877.673542558226     Delta-E=        0.000000000020 Rises=F Damp=F
 DIIS: error= 2.02D-08 at cycle   9 NSaved=   9.
 NSaved= 9 IEnMin= 8 EnMin= -877.673542558247     IErMin= 9 ErrMin= 2.02D-08
 ErrMax= 2.02D-08  0.00D+00 EMaxC= 1.00D-01 BMatC= 3.04D-13 BMatP= 3.79D-12
 IDIUse=1 WtCom= 1.00D+00 WtEn= 0.00D+00
 Coeff-Com: -0.139D-04-0.816D-03 0.426D-02 0.412D-02 0.931D-03-0.254D-01
 Coeff-Com: -0.118D+00-0.243D-01 0.116D+01
 Coeff:     -0.139D-04-0.816D-03 0.426D-02 0.412D-02 0.931D-03-0.254D-01
 Coeff:     -0.118D+00-0.243D-01 0.116D+01
 Gap=     0.318 Goal=   None    Shift=    0.000
 RMSDP=6.27D-09 MaxDP=5.07D-07 DE= 2.05D-11 OVMax= 9.93D-07

 Error on total polarization charges =  0.02505
 SCF Done:  E(RwB97XD) =  -877.673542558     A.U. after    9 cycles
            NFock=  9  Conv=0.63D-08     -V/T= 2.0906
 KE= 8.047592009338D+02 PE=-3.791354274934D+03 EE= 1.232332789450D+03
 SMD-CDS (non-electrostatic) energy       (kcal/mol) =       0.47
 (included in total energy above)
 Leave Link  502 at Tue Oct  4 17:07:52 2022, MaxMem=  2952790016 cpu:            5178.7 elap:             435.3
 (Enter /mnt/data/applications/G16/g16/l701.exe)
 ... and contract with generalized density number  0.
 Compute integral first derivatives.
 R6Disp: Adding Grimme-D2 dispersion energy 1st derivatives to the gradient.
   1 Symmetry operations used in ECPInt.
 ECPInt:  NShTT=   16653 NPrTT=   49115 LenC2=   15842 LenP2D=   35624.
 LDataN:  DoStor=T MaxTD1= 8 Len=  415
 D1PCM: PCM CHGder 1st derivatives, ID1Alg=3 FixD1E=F DoIter=F DoCFld=F I1PDM=0.
 GePol: Maximum number of non-zero 1st derivatives   =     421
 Leave Link  701 at Tue Oct  4 17:08:01 2022, MaxMem=  2952790016 cpu:             105.3 elap:               8.8
 (Enter /mnt/data/applications/G16/g16/l702.exe)
 L702 exits ... SP integral derivatives will be done elsewhere.
 Leave Link  702 at Tue Oct  4 17:08:01 2022, MaxMem=  2952790016 cpu:               0.2 elap:               0.0
 (Enter /mnt/data/applications/G16/g16/l703.exe)
 Integral derivatives from FoFJK, PRISM(SPDF).
 Compute integral first derivatives, UseDBF=F ICtDFT=           0.
 Calling FoFJK, ICntrl=      2127 FMM=F ISym2X=0 I1Cent= 0 IOpClX= 0 NMat=1 NMatS=1 NMatT=0.
 FoFJK:  IHMeth= 1 ICntrl=    2127 DoSepK=T KAlg= 0 I1Cent=           0 FoldK=F
 IRaf=         1 NMat=       1 IRICut=       1 DoRegI=T DoRafI=F ISym2E= 0 IDoP0=0 IntGTp=1.
 FoFCou: FMM=F IPFlag=           0 FMFlag=      100000 FMFlg1=         800
         NFxFlg=           0 DoJE=F BraDBF=F KetDBF=F FulRan=T
         wScrn=  0.000000 ICntrl=      2527 IOpCl=  0 I1Cent=           0 NGrid=           0
         NMat0=    1 NMatS0=      1 NMatT0=    0 NMatD0=    1 NMtDS0=    0 NMtDT0=    0
 Symmetry not used in FoFCou.
 Defaulting to unpruned grid for atomic number  45.
 Defaulting to unpruned grid for atomic number  45.
 Defaulting to unpruned grid for atomic number  45.
 Defaulting to unpruned grid for atomic number  45.
 Defaulting to unpruned grid for atomic number  45.
 Defaulting to unpruned grid for atomic number  45.
 Defaulting to unpruned grid for atomic number  45.
 Defaulting to unpruned grid for atomic number  45.
 Defaulting to unpruned grid for atomic number  45.
 Defaulting to unpruned grid for atomic number  45.
 Defaulting to unpruned grid for atomic number  45.
 Defaulting to unpruned grid for atomic number  45.
 Leave Link  703 at Tue Oct  4 17:10:56 2022, MaxMem=  2952790016 cpu:            2096.4 elap:             175.2
 (Enter /mnt/data/applications/G16/g16/l716.exe)
 Dipole        =-1.89059332D+00-4.72017321D-01 1.03805485D-01
 ***** Axes restored to original set *****
 -------------------------------------------------------------------
 Center     Atomic                   Forces (Hartrees/Bohr)
 Number     Number              X              Y              Z
 -------------------------------------------------------------------
      1        1          -0.000010202    0.000023028   -0.000056760
      2       45           0.000022657   -0.000061932    0.000013308
      3       15          -0.000052238   -0.000007366    0.000037300
      4        6           0.000016288    0.000000693   -0.000003096
      5        6           0.000012989   -0.000000814    0.000000003
      6        6           0.000023337   -0.000001494   -0.000012728
      7        1          -0.000001910   -0.000002803   -0.000002484
      8        1          -0.000000432   -0.000003996   -0.000008959
      9        1          -0.000006106   -0.000004078   -0.000001016
     10        1           0.000004406   -0.000001089   -0.000000957
     11        1           0.000008342    0.000000241   -0.000000101
     12        1           0.000001365   -0.000004733   -0.000005795
     13        1           0.000000362   -0.000006276   -0.000000792
     14        1          -0.000003314   -0.000004020    0.000000235
     15        1          -0.000003008   -0.000001265   -0.000002698
     16        6          -0.000005217    0.000020837    0.000008234
     17        8           0.000005344   -0.000000417    0.000012074
     18        6          -0.000027182   -0.000015599    0.000017620
     19        6           0.000024496    0.000055767    0.000019065
     20        1           0.000007660    0.000002385   -0.000007190
     21        1           0.000003034   -0.000004679    0.000001180
     22        1           0.000011917   -0.000003750   -0.000002911
     23        1           0.000001677   -0.000007377   -0.000014656
     24        6          -0.000049163    0.000044331   -0.000010301
     25        8           0.000014897   -0.000015594    0.000021428
 -------------------------------------------------------------------
 Cartesian Forces:  Max     0.000061932 RMS     0.000018684
 Leave Link  716 at Tue Oct  4 17:10:56 2022, MaxMem=  2952790016 cpu:               0.2 elap:               0.0
 (Enter /mnt/data/applications/G16/g16/l103.exe)

 GradGradGradGradGradGradGradGradGradGradGradGradGradGradGradGradGradGrad
 Berny optimization.
 Using GEDIIS/GDIIS optimizer.
 FormGI is forming the generalized inverse of G from B-inverse, IUseBI=4.
 Internal  Forces:  Max     0.000062755 RMS     0.000010923
 Search for a local minimum.
 Step number   7 out of a maximum of  150
 All quantities printed in internal units (Hartrees-Bohrs-Radians)
 RMS Force = .10923D-04 SwitMx=.10000D-02 MixMth= 2
 Mixed Optimization -- En-DIIS/RFO-DIIS
 Swapping is turned off.
 Update second derivatives using D2CorX and points    1    2    3    4    5
                                                      6    7
 DE= -2.83D-07 DEPred=-2.86D-07 R= 9.91D-01
 Trust test= 9.91D-01 RLast= 4.22D-03 DXMaxT set to 5.00D-02
 ITU=  0  1  1  1  1  1  0
     Eigenvalues ---    0.00231   0.00624   0.00875   0.00879   0.00910
     Eigenvalues ---    0.01864   0.02212   0.02927   0.03207   0.03411
     Eigenvalues ---    0.03628   0.03716   0.03873   0.04158   0.05334
     Eigenvalues ---    0.05570   0.05876   0.05880   0.05916   0.06157
     Eigenvalues ---    0.06162   0.06200   0.06240   0.06544   0.06622
     Eigenvalues ---    0.07508   0.08045   0.09005   0.09152   0.11029
     Eigenvalues ---    0.12466   0.13206   0.13492   0.13957   0.14184
     Eigenvalues ---    0.15527   0.15907   0.16000   0.16000   0.16000
     Eigenvalues ---    0.16000   0.16001   0.16002   0.16006   0.16033
     Eigenvalues ---    0.16144   0.18699   0.22173   0.23569   0.24321
     Eigenvalues ---    0.24605   0.24658   0.26661   0.34544   0.34551
     Eigenvalues ---    0.34584   0.34672   0.34683   0.34694   0.34728
     Eigenvalues ---    0.34733   0.34750   0.35515   0.35606   0.35654
     Eigenvalues ---    0.35752   0.44019   1.42069   1.44342
 En-DIIS/RFO-DIIS/Sim-DIIS IScMMF=       -3 using points:     7    6    5    4    3    2    1
 RFO step:  Lambda=-1.78254737D-07.
 NNeg= 0 NGDIIS= 7 SimSw=  2.50D-01 Rises=F DC= -2.83D-07 SmlDif=  1.00D-05
 NRisDI= 0 DoIntr=F SqrtH=F CThrHd= 10.0 CDAdj=  3.0
 RMS Error=  0.1911521034D-03 NUsed= 7 OKEnD=F EnDIS=F
 InvSVX:  RCond= 6.15D-08 Info=           0 Equed=N FErr=  7.22D-13 BErr=  9.79D-17
 DIIS inversion failure, remove point   7.
 InvSVX:  RCond= 9.91D-08 Info=           0 Equed=N FErr=  3.53D-13 BErr=  2.90D-17
 DIIS inversion failure, remove point   6.
 InvSVX:  RCond= 1.23D-07 Info=           0 Equed=N FErr=  2.57D-13 BErr=  9.43D-17
 RFO-DIIS uses    5 points instead of    7
 DidBck=F Rises=F RFO-DIIS coefs:    1.07905    0.31101   -0.69490    0.21986    0.08498
                  RFO-DIIS coefs:    0.00000    0.00000
 Iteration  1 RMS(Cart)=  0.00037551 RMS(Int)=  0.00000039
 Iteration  2 RMS(Cart)=  0.00000013 RMS(Int)=  0.00000037
 ITry= 1 IFail=0 DXMaxC= 2.65D-03 DCOld= 1.00D+10 DXMaxT= 5.00D-02 DXLimC= 3.00D+00 Rises=F
 Variable       Old X    -DE/DX   Delta X   Delta X   Delta X     New X
                                 (Linear)    (Quad)   (Total)
    R1        3.01292   0.00006   0.00018   0.00013   0.00031   3.01323
    R2        4.41631  -0.00001   0.00056  -0.00031   0.00025   4.41656
    R3        3.61873   0.00002  -0.00016   0.00013  -0.00003   3.61870
    R4        4.16525   0.00001   0.00003   0.00003   0.00006   4.16531
    R5        4.16689  -0.00001  -0.00021   0.00006  -0.00015   4.16674
    R6        3.66612  -0.00001  -0.00040   0.00011  -0.00029   3.66583
    R7        3.43772  -0.00001   0.00000  -0.00005  -0.00004   3.43767
    R8        3.43829  -0.00001   0.00000  -0.00004  -0.00003   3.43826
    R9        3.44231  -0.00002  -0.00002  -0.00007  -0.00009   3.44222
   R10        2.06126   0.00000   0.00000  -0.00000  -0.00000   2.06126
   R11        2.06097  -0.00000   0.00000  -0.00001  -0.00001   2.06096
   R12        2.06422   0.00000  -0.00000   0.00001   0.00000   2.06422
   R13        2.06117  -0.00000  -0.00000  -0.00001  -0.00001   2.06117
   R14        2.06183  -0.00000  -0.00000  -0.00000  -0.00000   2.06183
   R15        2.06411   0.00000  -0.00000   0.00001   0.00000   2.06411
   R16        2.06214  -0.00000   0.00000  -0.00001  -0.00000   2.06214
   R17        2.06402  -0.00000  -0.00001   0.00001  -0.00000   2.06402
   R18        2.06204  -0.00000   0.00000  -0.00001  -0.00000   2.06203
   R19        2.15371  -0.00000   0.00001  -0.00001   0.00000   2.15371
   R20        2.64763   0.00004   0.00001   0.00005   0.00006   2.64769
   R21        2.04640  -0.00000  -0.00000   0.00000   0.00000   2.04640
   R22        2.04862  -0.00000  -0.00000  -0.00000  -0.00001   2.04861
   R23        2.04713  -0.00000  -0.00000   0.00000  -0.00000   2.04712
   R24        2.04520  -0.00000  -0.00001   0.00000  -0.00000   2.04520
   R25        2.14746   0.00003   0.00004  -0.00001   0.00003   2.14749
    A1        1.40715   0.00002   0.00015   0.00006   0.00021   1.40736
    A2        1.45684   0.00000   0.00002   0.00003   0.00005   1.45688
    A3        1.48392  -0.00000   0.00024  -0.00005   0.00019   1.48411
    A4        1.49593  -0.00000   0.00019  -0.00005   0.00014   1.49606
    A5        1.90673  -0.00000   0.00028   0.00004   0.00032   1.90705
    A6        1.75911   0.00001   0.00014   0.00006   0.00020   1.75931
    A7        2.38956   0.00002   0.00018   0.00007   0.00025   2.38980
    A8        1.69616  -0.00003  -0.00023  -0.00011  -0.00034   1.69582
    A9        2.53875  -0.00000  -0.00023  -0.00009  -0.00032   2.53843
   A10        1.91090  -0.00002  -0.00031  -0.00010  -0.00040   1.91049
   A11        1.73636  -0.00001  -0.00019  -0.00002  -0.00021   1.73615
   A12        1.62553   0.00002  -0.00001   0.00008   0.00007   1.62561
   A13        1.64761   0.00002   0.00002   0.00011   0.00013   1.64774
   A14        2.02277  -0.00001  -0.00006  -0.00004  -0.00010   2.02268
   A15        1.99500  -0.00001  -0.00013  -0.00005  -0.00017   1.99483
   A16        2.04580  -0.00000   0.00008  -0.00006   0.00002   2.04582
   A17        1.79040   0.00001   0.00004   0.00007   0.00011   1.79051
   A18        1.78579   0.00001   0.00003   0.00006   0.00009   1.78588
   A19        1.78829   0.00001   0.00005   0.00005   0.00010   1.78839
   A20        1.90942  -0.00000   0.00000  -0.00003  -0.00003   1.90939
   A21        1.90668  -0.00001  -0.00000  -0.00005  -0.00005   1.90663
   A22        1.94575   0.00000  -0.00002   0.00006   0.00004   1.94579
   A23        1.88912   0.00000  -0.00000   0.00000   0.00000   1.88912
   A24        1.90487   0.00000   0.00001  -0.00000   0.00001   1.90487
   A25        1.90714   0.00000   0.00001   0.00001   0.00002   1.90716
   A26        1.90404  -0.00001  -0.00001  -0.00006  -0.00007   1.90397
   A27        1.90546  -0.00000  -0.00001  -0.00002  -0.00003   1.90544
   A28        1.95145   0.00001  -0.00001   0.00006   0.00006   1.95151
   A29        1.88586   0.00000  -0.00001   0.00002   0.00001   1.88587
   A30        1.90866   0.00000   0.00001   0.00000   0.00001   1.90867
   A31        1.90721  -0.00000   0.00002  -0.00001   0.00001   1.90723
   A32        1.91003   0.00000   0.00001   0.00001   0.00002   1.91005
   A33        1.94808  -0.00001  -0.00003  -0.00002  -0.00005   1.94803
   A34        1.90904   0.00000   0.00001   0.00001   0.00003   1.90907
   A35        1.90325   0.00000   0.00002  -0.00001   0.00001   1.90326
   A36        1.88867  -0.00000  -0.00002   0.00002   0.00000   1.88867
   A37        1.90380   0.00000   0.00001  -0.00001   0.00000   1.90380
   A38        1.92275   0.00000  -0.00006   0.00006  -0.00000   1.92274
   A39        1.95120   0.00002   0.00012   0.00003   0.00015   1.95135
   A40        2.09083  -0.00000  -0.00003  -0.00004  -0.00008   2.09075
   A41        2.09072   0.00001  -0.00003   0.00007   0.00004   2.09076
   A42        2.00085  -0.00001   0.00007  -0.00007  -0.00000   2.00085
   A43        1.93836   0.00001   0.00000   0.00008   0.00008   1.93843
   A44        1.91201  -0.00000  -0.00014   0.00011  -0.00003   1.91198
   A45        2.09536   0.00000  -0.00002   0.00004   0.00002   2.09538
   A46        2.09548  -0.00000  -0.00002  -0.00007  -0.00009   2.09539
   A47        2.00416  -0.00000   0.00007  -0.00005   0.00002   2.00417
   A48        3.10331  -0.00001  -0.00008  -0.00006  -0.00013   3.10318
   A49        3.09772   0.00002   0.00051   0.00015   0.00066   3.09838
   A50        3.12474   0.00003   0.00015   0.00011   0.00026   3.12501
   A51        3.10054   0.00001   0.00022   0.00002   0.00024   3.10078
   A52        3.18338  -0.00001   0.00023  -0.00044  -0.00021   3.18317
   A53        3.12935  -0.00002   0.00008  -0.00022  -0.00014   3.12921
    D1        1.01436   0.00000   0.00012   0.00004   0.00016   1.01452
    D2       -1.06276   0.00000   0.00022   0.00001   0.00023  -1.06253
    D3        3.12775   0.00000   0.00019   0.00003   0.00022   3.12797
    D4        2.40444   0.00001   0.00014   0.00008   0.00022   2.40466
    D5        0.32732   0.00001   0.00023   0.00005   0.00028   0.32760
    D6       -1.76536   0.00001   0.00020   0.00007   0.00028  -1.76508
    D7       -0.43514   0.00000  -0.00013   0.00009  -0.00004  -0.43519
    D8       -2.51227   0.00000  -0.00003   0.00006   0.00003  -2.51224
    D9        1.67824   0.00000  -0.00007   0.00008   0.00002   1.67826
   D10       -0.26482   0.00000  -0.00025   0.00008  -0.00017  -0.26498
   D11       -2.34194   0.00000  -0.00015   0.00005  -0.00010  -2.34204
   D12        1.84857   0.00000  -0.00018   0.00008  -0.00010   1.84847
   D13       -2.08618  -0.00001  -0.00010   0.00002  -0.00008  -2.08626
   D14        2.11988  -0.00001  -0.00000  -0.00001  -0.00001   2.11987
   D15        0.02721  -0.00001  -0.00003   0.00002  -0.00002   0.02719
   D16       -0.45968   0.00000   0.00004   0.00004   0.00008  -0.45960
   D17       -2.70585  -0.00000  -0.00010   0.00006  -0.00004  -2.70589
   D18        0.92701   0.00002   0.00022   0.00008   0.00030   0.92731
   D19       -1.31917   0.00001   0.00009   0.00010   0.00019  -1.31898
   D20       -1.69644  -0.00000  -0.00052   0.00002  -0.00050  -1.69694
   D21        2.34057  -0.00000  -0.00065   0.00003  -0.00061   2.33995
   D22        2.63616  -0.00001   0.00000  -0.00002  -0.00001   2.63615
   D23        0.38999  -0.00001  -0.00013   0.00000  -0.00013   0.38986
   D24        2.73459  -0.00000  -0.00015  -0.00001  -0.00016   2.73443
   D25        0.50236  -0.00000  -0.00013  -0.00008  -0.00022   0.50215
   D26       -2.30284   0.00001   0.00021  -0.00001   0.00020  -2.30264
   D27        1.74812   0.00000   0.00023  -0.00008   0.00015   1.74827
   D28        1.31183  -0.00001  -0.00028  -0.00003  -0.00031   1.31152
   D29       -0.92039  -0.00001  -0.00026  -0.00010  -0.00037  -0.92076
   D30       -0.46295  -0.00000  -0.00004  -0.00003  -0.00007  -0.46302
   D31       -2.69518  -0.00000  -0.00002  -0.00011  -0.00013  -2.69530
   D32        1.07384   0.00000   0.00009   0.00006   0.00014   1.07398
   D33       -0.99125   0.00000   0.00009   0.00010   0.00019  -0.99107
   D34       -3.10081   0.00000   0.00009   0.00008   0.00016  -3.10065
   D35       -3.02330  -0.00001  -0.00008   0.00003  -0.00006  -3.02336
   D36        1.19479  -0.00001  -0.00008   0.00007  -0.00001   1.19478
   D37       -0.91477  -0.00001  -0.00008   0.00004  -0.00004  -0.91480
   D38       -1.17387   0.00000  -0.00001   0.00011   0.00011  -1.17376
   D39        3.04422   0.00001  -0.00001   0.00016   0.00015   3.04437
   D40        0.93467   0.00001  -0.00000   0.00013   0.00013   0.93479
   D41        1.01038  -0.00000   0.00000   0.00004   0.00004   1.01042
   D42       -1.04693  -0.00000   0.00002   0.00006   0.00008  -1.04685
   D43        3.12375  -0.00000   0.00000   0.00004   0.00005   3.12379
   D44       -1.19372   0.00001   0.00013   0.00006   0.00019  -1.19353
   D45        3.03215   0.00001   0.00015   0.00009   0.00023   3.03238
   D46        0.91964   0.00001   0.00013   0.00007   0.00019   0.91983
   D47       -3.04122  -0.00000   0.00006  -0.00003   0.00003  -3.04119
   D48        1.18464  -0.00000   0.00008  -0.00001   0.00007   1.18472
   D49       -0.92786  -0.00000   0.00007  -0.00003   0.00004  -0.92782
   D50       -1.04714  -0.00000  -0.00001  -0.00002  -0.00002  -1.04716
   D51        3.12761  -0.00000  -0.00001   0.00001  -0.00000   3.12761
   D52        1.01915   0.00000  -0.00001   0.00003   0.00001   1.01916
   D53        1.18603  -0.00001  -0.00000  -0.00006  -0.00006   1.18597
   D54       -0.92240  -0.00001  -0.00001  -0.00003  -0.00004  -0.92245
   D55       -3.03086  -0.00001  -0.00001  -0.00002  -0.00003  -3.03089
   D56        3.03709   0.00001   0.00006   0.00005   0.00011   3.03720
   D57        0.92866   0.00001   0.00006   0.00007   0.00013   0.92879
   D58       -1.17980   0.00001   0.00006   0.00009   0.00014  -1.17966
   D59       -2.66612   0.00001  -0.00007   0.00016   0.00009  -2.66602
   D60        0.01419  -0.00000   0.00001  -0.00005  -0.00004   0.01415
   D61       -0.01654   0.00000  -0.00005   0.00005  -0.00000  -0.01655
   D62        2.66376  -0.00001   0.00002  -0.00016  -0.00014   2.66362
         Item               Value     Threshold  Converged?
 Maximum Force            0.000063     0.000450     YES
 RMS     Force            0.000011     0.000300     YES
 Maximum Displacement     0.002651     0.001800     NO 
 RMS     Displacement     0.000376     0.001200     YES
 Predicted change in Energy=-8.450591D-08
 Lowest energy point so far.  Saving SCF results.
 GradGradGradGradGradGradGradGradGradGradGradGradGradGradGradGradGradGrad

 Leave Link  103 at Tue Oct  4 17:10:56 2022, MaxMem=  2952790016 cpu:               0.6 elap:               0.1
 (Enter /mnt/data/applications/G16/g16/l202.exe)
                          Input orientation:                          
 ---------------------------------------------------------------------
 Center     Atomic      Atomic             Coordinates (Angstroms)
 Number     Number       Type             X           Y           Z
 ---------------------------------------------------------------------
      1          1           0        0.269979    0.438285   -1.708725
      2         45           0        0.654903    0.026286   -0.217207
      3         15           0       -1.674349    0.015372   -0.025652
      4          6           0       -2.559081   -1.102374   -1.155767
      5          6           0       -2.460540    1.621651   -0.360551
      6          6           0       -2.374947   -0.435213    1.594277
      7          1           0       -2.055895   -1.444397    1.859897
      8          1           0       -3.466480   -0.397243    1.585157
      9          1           0       -2.000469    0.252073    2.354593
     10          1           0       -2.254256   -2.131229   -0.960020
     11          1           0       -2.293162   -0.857476   -2.184722
     12          1           0       -3.641467   -1.020119   -1.033777
     13          1           0       -2.190986    1.948058   -1.365776
     14          1           0       -2.082179    2.360392    0.347649
     15          1           0       -3.548238    1.566367   -0.277301
     16          6           0        1.288824    1.830366   -0.115169
     17          8           0        1.622274    2.920100   -0.101250
     18          6           0        1.008951   -1.976903   -1.065931
     19          6           0        2.200802   -1.244377   -1.143157
     20          1           0        3.007174   -1.445349   -0.448252
     21          1           0        2.510113   -0.810127   -2.085000
     22          1           0        0.405635   -2.118007   -1.954071
     23          1           0        0.902568   -2.755279   -0.318911
     24          6           0        1.049090   -0.553456    1.591556
     25          8           0        1.261080   -0.906726    2.650647
 ---------------------------------------------------------------------
                    Distance matrix (angstroms):
                    1          2          3          4          5
     1  H    0.000000
     2  Rh   1.594533   0.000000
     3  P    2.606147   2.337140   0.000000
     4  C    3.268482   3.533336   1.819139   0.000000
     5  C    3.267057   3.503101   1.819447   2.839435   0.000000
     6  C    4.320701   3.560119   1.821547   2.835797   2.838903
     7  H    4.657171   3.718292   2.414911   3.076427   3.807201
     8  H    5.050634   4.518152   2.444728   2.972078   2.978865
     9  H    4.658344   3.703531   2.414114   3.803840   3.075617
    10  H    3.678957   3.697276   2.411894   1.090770   3.806052
    11  H    2.911230   3.652840   2.409643   1.090614   3.082481
    12  H    4.228700   4.496726   2.440924   1.092340   2.970988
    13  H    2.907469   3.620980   2.407929   3.079729   1.090723
    14  H    3.668218   3.641254   2.409315   3.805055   1.091074
    15  H    4.230878   4.476813   2.445481   2.978642   1.092280
    16  C    2.348479   1.914934   3.476005   4.948755   3.763177
    17  O    3.251474   3.053426   4.394415   5.897121   4.292152
    18  C    2.606222   2.204189   3.500205   3.674741   5.048219
    19  C    2.622841   2.204943   4.225231   4.762018   5.527631
    20  H    3.553745   2.784290   4.922291   5.621513   6.269775
    21  H    2.591971   2.762253   4.736252   5.161939   5.796090
    22  H    2.571619   2.770708   3.549146   3.233936   4.973862
    23  H    3.539859   2.794421   3.795129   3.926249   5.519941
    24  C    3.533047   1.939874   3.218081   4.568150   4.567200
    25  O    4.668561   3.076126   4.077938   5.396359   5.413914
                    6          7          8          9         10
     6  C    0.000000
     7  H    1.091238   0.000000
     8  H    1.092232   1.778135   0.000000
     9  H    1.091181   1.767995   1.778435   0.000000
    10  H    3.068463   2.909127   3.309701   4.090378   0.000000
    11  H    3.803397   4.093863   3.974982   4.682110   1.767444
    12  H    2.975374   3.326770   2.697667   3.973965   1.778865
    13  H    3.804699   4.683158   3.979363   4.093142   4.099905
    14  H    3.074932   4.094387   3.324496   2.911960   4.681268
    15  H    2.980896   3.982387   2.707619   3.324128   3.976520
    16  C    4.634465   5.080561   5.519626   4.405699   5.381582
    17  O    5.487323   6.035218   6.304296   5.125798   6.425021
    18  C    4.572119   4.270517   5.436274   5.071975   3.268570
    19  C    5.393122   5.213234   6.346607   5.667830   4.546162
    20  H    5.844615   5.564371   6.865966   5.984453   5.330571
    21  H    6.127107   6.067366   7.025681   6.417446   5.070513
    22  H    4.811881   4.589034   5.520909   5.474596   2.839601
    23  H    4.448043   3.901040   5.317366   4.961795   3.281157
    24  C    3.426079   3.241406   4.518276   3.245138   4.462287
    25  O    3.815617   3.452057   4.872850   3.473927   5.185934
                   11         12         13         14         15
    11  H    0.000000
    12  H    1.780184   0.000000
    13  H    2.924403   3.320270   0.000000
    14  H    4.100255   3.970840   1.765697   0.000000
    15  H    3.329938   2.696452   1.781179   1.780553   0.000000
    16  C    4.933372   5.768611   3.699587   3.443659   4.846973
    17  O    5.825940   6.640926   4.133382   3.773295   5.347690
    18  C    3.661797   4.747931   5.072949   5.510483   5.826205
    19  C    4.629283   5.847595   5.434060   5.793168   6.457666
    20  H    5.608430   6.687906   6.275184   6.404580   7.216169
    21  H    4.804543   6.244286   5.497745   6.087620   6.754193
    22  H    2.987581   4.293173   4.860186   5.616333   5.658558
    23  H    4.158797   4.916306   5.726026   5.960127   6.203872
    24  C    5.052065   5.395505   5.049899   4.454511   5.396453
    25  O    6.001321   6.133743   6.016494   5.211069   6.149684
                   16         17         18         19         20
    16  C    0.000000
    17  O    1.139694   0.000000
    18  C    3.934155   5.028659   0.000000
    19  C    3.367864   4.331643   1.401095   0.000000
    20  H    3.714025   4.592984   2.158003   1.083290   0.000000
    21  H    3.513401   4.317188   2.157164   1.082273   1.824697
    22  H    4.444236   5.504151   1.082909   2.154864   3.080254
    23  H    4.606392   5.724970   1.084079   2.155834   2.482341
    24  C    2.941597   3.906370   3.014971   3.046714   2.964858
    25  O    3.891296   4.727367   3.875797   3.923014   3.597518
                   21         22         23         24         25
    21  H    0.000000
    22  H    2.481234   0.000000
    23  H    3.080080   1.823954   0.000000
    24  C    3.964534   3.928527   2.918797   0.000000
    25  O    4.898547   4.837605   3.516241   1.136404   0.000000
 Stoichiometry    C7H14O2PRh
 Framework group  C1[X(C7H14O2PRh)]
 Deg. of freedom    69
 Full point group                 C1      NOp   1
 RotChk:  IX=0 Diff= 7.13D-04
 Largest Abelian subgroup         C1      NOp   1
 Largest concise Abelian subgroup C1      NOp   1
                         Standard orientation:                         
 ---------------------------------------------------------------------
 Center     Atomic      Atomic             Coordinates (Angstroms)
 Number     Number       Type             X           Y           Z
 ---------------------------------------------------------------------
      1          1           0        0.275603    0.463006   -1.702417
      2         45           0        0.656141    0.027388   -0.216495
      3         15           0       -1.673489    0.022710   -0.029341
      4          6           0       -2.560430   -1.074658   -1.177551
      5          6           0       -2.452828    1.636843   -0.341742
      6          6           0       -2.378852   -0.449165    1.582438
      7          1           0       -2.064206   -1.463421    1.833600
      8          1           0       -3.470211   -0.406808    1.571908
      9          1           0       -2.003137    0.225280    2.353566
     10          1           0       -2.259956   -2.107490   -0.996572
     11          1           0       -2.291642   -0.815534   -2.202268
     12          1           0       -3.642715   -0.990006   -1.056311
     13          1           0       -2.180134    1.977099   -1.341513
     14          1           0       -2.072933    2.363496    0.378048
     15          1           0       -3.540886    1.584569   -0.261293
     16          6           0        1.296851    1.827267   -0.086496
     17          8           0        1.634491    2.915365   -0.055771
     18          6           0        1.004015   -1.964331   -1.094269
     19          6           0        2.198837   -1.235392   -1.158436
     20          1           0        3.003125   -1.449812   -0.465137
     21          1           0        2.511586   -0.788401   -2.093156
     22          1           0        0.401818   -2.089867   -1.985499
     23          1           0        0.893224   -2.753303   -0.359098
     24          6           0        1.044701   -0.580705    1.584159
     25          8           0        1.253342   -0.950500    2.638262
 ---------------------------------------------------------------------
 Rotational constants (GHZ):           0.8426269           0.5886850           0.5346053
 Leave Link  202 at Tue Oct  4 17:10:56 2022, MaxMem=  2952790016 cpu:               0.1 elap:               0.0
 (Enter /mnt/data/applications/G16/g16/l301.exe)
 Basis read from rwf:  (5D, 7F)
 Pseudo-potential data read from rwf file.
 There are   489 symmetry adapted cartesian basis functions of A   symmetry.
 There are   436 symmetry adapted basis functions of A   symmetry.
   436 basis functions,   705 primitive gaussians,   489 cartesian basis functions
    52 alpha electrons       52 beta electrons
       nuclear repulsion energy       876.6071732243 Hartrees.
 IExCor= 4639 DFT=T Ex+Corr=wB97XD ExCW=0 ScaHFX=  1.000000
 ScaDFX=  1.000000  1.000000  1.000000  1.000000 ScalE2=  1.000000  1.000000
 IRadAn=      5 IRanWt=     -1 IRanGd=            0 ICorTp=0 IEmpDi=121
 HFx  wShort=  0.000000 wLong=  0.200000 cFull=  0.222036 cShort=  0.000000 cLong=  0.777964
 DFx  wShort=  0.000000 wLong=  0.200000 cFull=  0.000000 cShort=  0.000000 cLong=  1.000000
 NAtoms=   25 NActive=   25 NUniq=   25 SFac= 1.00D+00 NAtFMM=   60 NAOKFM=F Big=F
 Integral buffers will be    131072 words long.
 Raffenetti 2 integral format.
 Two-electron integral symmetry is turned on.
 R6Disp:  Grimme-D2 Dispersion energy=       -0.0206206381 Hartrees.
 Nuclear repulsion after empirical dispersion term =      876.5865525862 Hartrees.
 No density basis found on file   724.
 ------------------------------------------------------------------------------
 Polarizable Continuum Model (PCM)
 =================================
 Model                : PCM.
 Atomic radii         : SMD-Coulomb.
 Polarization charges : Total charges.
 Charge compensation  : None.
 Solution method      : On-the-fly selection.
 Cavity type          : VdW (van der Waals Surface) (Alpha=1.000).
 Cavity algorithm     : GePol (No added spheres)
                        Default sphere list used, NSphG=   25.
                        Lebedev-Laikov grids with approx.  5.0 points / Ang**2.
                        Smoothing algorithm: York/Karplus (Gamma=1.0000).
                        Polarization charges: spherical gaussians, with
                                              point-specific exponents (IZeta= 3).
                        Self-potential: point-specific (ISelfS= 7).
                        Self-field    : sphere-specific E.n sum rule (ISelfD= 2).
 1st derivatives      : Analytical E(r).r(x)/FMM algorithm (CHGder, D1EAlg=3).
                        Cavity 1st derivative terms included.
 Solvent              : Toluene, Eps=   2.374100 Eps(inf)=   2.238315
 ------------------------------------------------------------------------------
 GePol: Number of generator spheres                  =      25
 GePol: Total number of spheres                      =      25
 GePol: Number of exposed spheres                    =      25 (100.00%)
 GePol: Number of points                             =    2324
 GePol: Average weight of points                     =       0.12
 GePol: Minimum weight of points                     =   0.93D-09
 GePol: Maximum weight of points                     =    0.20615
 GePol: Number of points with low weight             =     117
 GePol: Fraction of low-weight points (<1% of avg)   =       5.03%
 GePol: Cavity surface area                          =    281.654 Ang**2
 GePol: Cavity volume                                =    249.851 Ang**3
 ------------------------------------------------------------------------------
 Atomic radii for non-electrostatic terms: SMD-CDS.
 ------------------------------------------------------------------------------
 PCM non-electrostatic energy =         0.0007502412 Hartrees.
 Nuclear repulsion after PCM non-electrostatic terms =      876.5873028274 Hartrees.
 Leave Link  301 at Tue Oct  4 17:10:57 2022, MaxMem=  2952790016 cpu:               1.8 elap:               0.2
 (Enter /mnt/data/applications/G16/g16/l302.exe)
 NPDir=0 NMtPBC=     1 NCelOv=     1 NCel=       1 NClECP=     1 NCelD=      1
         NCelK=      1 NCelE2=     1 NClLst=     1 CellRange=     0.0.
 One-electron integrals computed using PRISM.
 One-electron integral symmetry used in STVInt
   1 Symmetry operations used in ECPInt.
 ECPInt:  NShTT=   16653 NPrTT=   49115 LenC2=   15842 LenP2D=   35624.
 LDataN:  DoStor=T MaxTD1= 7 Len=  274
 NBasis=   436 RedAO= T EigKep=  1.35D-04  NBF=   436
 NBsUse=   436 1.00D-06 EigRej= -1.00D+00 NBFU=   436
 Precomputing XC quadrature grid using
 IXCGrd= 4 IRadAn=           5 IRanWt=          -1 IRanGd=           0 AccXCQ= 0.00D+00.
 Defaulting to unpruned grid for atomic number  45.
 Generated NRdTot=       0 NPtTot=           0 NUsed=           0 NTot=          32
 NSgBfM=   487   487   487   487   487 MxSgAt=    25 MxSgA2=    25.
 Leave Link  302 at Tue Oct  4 17:10:58 2022, MaxMem=  2952790016 cpu:              15.3 elap:               1.3
 (Enter /mnt/data/applications/G16/g16/l303.exe)
 DipDrv:  MaxL=1.
 Leave Link  303 at Tue Oct  4 17:10:58 2022, MaxMem=  2952790016 cpu:               1.0 elap:               0.1
 (Enter /mnt/data/applications/G16/g16/l401.exe)
 Initial guess from the checkpoint file:  "I3.chk"
 B after Tr=     0.000000    0.000000   -0.000000
         Rot=    1.000000    0.000177    0.000086    0.000181 Ang=   0.03 deg.
 Guess basis will be translated and rotated to current coordinates.
 JPrj=2 DoOrth=T DoCkMO=T.
 Leave Link  401 at Tue Oct  4 17:10:59 2022, MaxMem=  2952790016 cpu:               8.4 elap:               0.7
 (Enter /mnt/data/applications/G16/g16/l502.exe)
 Integral symmetry usage will be decided dynamically.
 Closed shell SCF:
 Using DIIS extrapolation, IDIIS=  1040.
 NGot=  2952790016 LenX=  2952301307 LenY=  2952061697
 Requested convergence on RMS density matrix=1.00D-08 within 128 cycles.
 Requested convergence on MAX density matrix=1.00D-06.
 Requested convergence on             energy=1.00D-06.
 No special actions if energy rises.
 Fock matrices will be formed incrementally for  20 cycles.

 Cycle   1  Pass 1  IDiag  1:
 FoFJK:  IHMeth= 1 ICntrl=       0 DoSepK=T KAlg= 0 I1Cent=           0 FoldK=F
 IRaf=         1 NMat=       1 IRICut=       1 DoRegI=T DoRafI=F ISym2E= 0 IDoP0=0 IntGTp=1.
 FoFCou: FMM=F IPFlag=           0 FMFlag=      100000 FMFlg1=           0
         NFxFlg=           0 DoJE=T BraDBF=F KetDBF=F FulRan=T
         wScrn=  0.000000 ICntrl=       500 IOpCl=  0 I1Cent=           0 NGrid=           0
         NMat0=    1 NMatS0=      1 NMatT0=    0 NMatD0=    1 NMtDS0=    0 NMtDT0=    0
 Symmetry not used in FoFCou.
 Defaulting to unpruned grid for atomic number  45.
 Defaulting to unpruned grid for atomic number  45.
 Defaulting to unpruned grid for atomic number  45.
 Defaulting to unpruned grid for atomic number  45.
 Defaulting to unpruned grid for atomic number  45.
 Defaulting to unpruned grid for atomic number  45.
 Defaulting to unpruned grid for atomic number  45.
 Defaulting to unpruned grid for atomic number  45.
 Defaulting to unpruned grid for atomic number  45.
 Defaulting to unpruned grid for atomic number  45.
 Defaulting to unpruned grid for atomic number  45.
 Defaulting to unpruned grid for atomic number  45.
 Inv3:  Mode=1 IEnd=    16202928.
 Iteration    1 A*A^-1 deviation from unit magnitude is 2.22D-15 for     94.
 Iteration    1 A*A^-1 deviation from orthogonality  is 1.57D-15 for   1128    180.
 Iteration    1 A^-1*A deviation from unit magnitude is 2.00D-15 for     79.
 Iteration    1 A^-1*A deviation from orthogonality  is 1.31D-15 for   1119    159.
 E= -877.673541666266    
 DIIS: error= 3.20D-05 at cycle   1 NSaved=   1.
 NSaved= 1 IEnMin= 1 EnMin= -877.673541666266     IErMin= 1 ErrMin= 3.20D-05
 ErrMax= 3.20D-05  0.00D+00 EMaxC= 1.00D-01 BMatC= 7.76D-07 BMatP= 7.76D-07
 IDIUse=1 WtCom= 1.00D+00 WtEn= 0.00D+00
 Coeff-Com:  0.100D+01
 Coeff:      0.100D+01
 Gap=     1.748 Goal=   None    Shift=    0.000
 RMSDP=2.10D-06 MaxDP=1.23D-04              OVMax= 2.65D-04

 Cycle   2  Pass 1  IDiag  1:
 RMSU=  2.10D-06    CP:  1.00D+00
 E= -877.673542464574     Delta-E=       -0.000000798308 Rises=F Damp=F
 DIIS: error= 6.69D-06 at cycle   2 NSaved=   2.
 NSaved= 2 IEnMin= 2 EnMin= -877.673542464574     IErMin= 2 ErrMin= 6.69D-06
 ErrMax= 6.69D-06  0.00D+00 EMaxC= 1.00D-01 BMatC= 2.17D-08 BMatP= 7.76D-07
 IDIUse=1 WtCom= 1.00D+00 WtEn= 0.00D+00
 Coeff-Com: -0.111D+00 0.111D+01
 Coeff:     -0.111D+00 0.111D+01
 Gap=     0.318 Goal=   None    Shift=    0.000
 RMSDP=5.77D-07 MaxDP=2.78D-05 DE=-7.98D-07 OVMax= 9.00D-05

 Cycle   3  Pass 1  IDiag  1:
 RMSU=  4.05D-07    CP:  1.00D+00  1.20D+00
 E= -877.673542517755     Delta-E=       -0.000000053181 Rises=F Damp=F
 DIIS: error= 2.60D-06 at cycle   3 NSaved=   3.
 NSaved= 3 IEnMin= 3 EnMin= -877.673542517755     IErMin= 3 ErrMin= 2.60D-06
 ErrMax= 2.60D-06  0.00D+00 EMaxC= 1.00D-01 BMatC= 4.19D-09 BMatP= 2.17D-08
 IDIUse=1 WtCom= 1.00D+00 WtEn= 0.00D+00
 Coeff-Com: -0.357D-01 0.227D+00 0.808D+00
 Coeff:     -0.357D-01 0.227D+00 0.808D+00
 Gap=     0.318 Goal=   None    Shift=    0.000
 RMSDP=2.36D-07 MaxDP=2.34D-05 DE=-5.32D-08 OVMax= 2.84D-05

 Cycle   4  Pass 1  IDiag  1:
 RMSU=  2.18D-07    CP:  1.00D+00  1.22D+00  1.18D+00
 E= -877.673542517952     Delta-E=       -0.000000000197 Rises=F Damp=F
 DIIS: error= 3.55D-06 at cycle   4 NSaved=   4.
 NSaved= 4 IEnMin= 4 EnMin= -877.673542517952     IErMin= 3 ErrMin= 2.60D-06
 ErrMax= 3.55D-06  0.00D+00 EMaxC= 1.00D-01 BMatC= 7.96D-09 BMatP= 4.19D-09
 IDIUse=1 WtCom= 1.00D+00 WtEn= 0.00D+00
 Coeff-Com:  0.276D-03-0.107D+00 0.648D+00 0.459D+00
 Coeff:      0.276D-03-0.107D+00 0.648D+00 0.459D+00
 Gap=     0.318 Goal=   None    Shift=    0.000
 RMSDP=1.66D-07 MaxDP=1.88D-05 DE=-1.97D-10 OVMax= 2.24D-05

 Cycle   5  Pass 1  IDiag  1:
 RMSU=  8.94D-08    CP:  1.00D+00  1.23D+00  1.38D+00  5.18D-01
 E= -877.673542523806     Delta-E=       -0.000000005854 Rises=F Damp=F
 DIIS: error= 1.16D-06 at cycle   5 NSaved=   5.
 NSaved= 5 IEnMin= 5 EnMin= -877.673542523806     IErMin= 5 ErrMin= 1.16D-06
 ErrMax= 1.16D-06  0.00D+00 EMaxC= 1.00D-01 BMatC= 6.69D-10 BMatP= 4.19D-09
 IDIUse=1 WtCom= 1.00D+00 WtEn= 0.00D+00
 Coeff-Com:  0.515D-02-0.991D-01 0.272D+00 0.283D+00 0.539D+00
 Coeff:      0.515D-02-0.991D-01 0.272D+00 0.283D+00 0.539D+00
 Gap=     0.318 Goal=   None    Shift=    0.000
 RMSDP=6.09D-08 MaxDP=7.20D-06 DE=-5.85D-09 OVMax= 7.19D-06

 Cycle   6  Pass 1  IDiag  1:
 RMSU=  3.79D-08    CP:  1.00D+00  1.23D+00  1.44D+00  6.94D-01  8.20D-01
 E= -877.673542524345     Delta-E=       -0.000000000539 Rises=F Damp=F
 DIIS: error= 3.66D-07 at cycle   6 NSaved=   6.
 NSaved= 6 IEnMin= 6 EnMin= -877.673542524345     IErMin= 6 ErrMin= 3.66D-07
 ErrMax= 3.66D-07  0.00D+00 EMaxC= 1.00D-01 BMatC= 9.03D-11 BMatP= 6.69D-10
 IDIUse=1 WtCom= 1.00D+00 WtEn= 0.00D+00
 Coeff-Com:  0.259D-02-0.255D-01-0.294D-01 0.331D-01 0.297D+00 0.723D+00
 Coeff:      0.259D-02-0.255D-01-0.294D-01 0.331D-01 0.297D+00 0.723D+00
 Gap=     0.318 Goal=   None    Shift=    0.000
 RMSDP=3.24D-08 MaxDP=2.08D-06 DE=-5.39D-10 OVMax= 4.82D-06

 Cycle   7  Pass 1  IDiag  1:
 RMSU=  1.70D-08    CP:  1.00D+00  1.23D+00  1.49D+00  7.10D-01  9.63D-01
                    CP:  1.04D+00
 E= -877.673542524455     Delta-E=       -0.000000000110 Rises=F Damp=F
 DIIS: error= 6.56D-08 at cycle   7 NSaved=   7.
 NSaved= 7 IEnMin= 7 EnMin= -877.673542524455     IErMin= 7 ErrMin= 6.56D-08
 ErrMax= 6.56D-08  0.00D+00 EMaxC= 1.00D-01 BMatC= 4.50D-12 BMatP= 9.03D-11
 IDIUse=1 WtCom= 1.00D+00 WtEn= 0.00D+00
 Coeff-Com: -0.453D-04 0.785D-02-0.456D-01-0.295D-01 0.471D-02 0.184D+00
 Coeff-Com:  0.879D+00
 Coeff:     -0.453D-04 0.785D-02-0.456D-01-0.295D-01 0.471D-02 0.184D+00
 Coeff:      0.879D+00
 Gap=     0.318 Goal=   None    Shift=    0.000
 RMSDP=1.37D-08 MaxDP=7.80D-07 DE=-1.10D-10 OVMax= 1.94D-06

 Cycle   8  Pass 1  IDiag  1:
 RMSU=  6.74D-09    CP:  1.00D+00  1.23D+00  1.51D+00  7.33D-01  1.04D+00
                    CP:  1.17D+00  1.12D+00
 E= -877.673542524463     Delta-E=       -0.000000000009 Rises=F Damp=F
 DIIS: error= 2.31D-08 at cycle   8 NSaved=   8.
 NSaved= 8 IEnMin= 8 EnMin= -877.673542524463     IErMin= 8 ErrMin= 2.31D-08
 ErrMax= 2.31D-08  0.00D+00 EMaxC= 1.00D-01 BMatC= 6.57D-13 BMatP= 4.50D-12
 IDIUse=1 WtCom= 1.00D+00 WtEn= 0.00D+00
 Coeff-Com: -0.309D-03 0.613D-02-0.153D-01-0.150D-01-0.291D-01-0.581D-02
 Coeff-Com:  0.311D+00 0.748D+00
 Coeff:     -0.309D-03 0.613D-02-0.153D-01-0.150D-01-0.291D-01-0.581D-02
 Coeff:      0.311D+00 0.748D+00
 Gap=     0.318 Goal=   None    Shift=    0.000
 RMSDP=4.77D-09 MaxDP=3.14D-07 DE=-8.64D-12 OVMax= 7.26D-07

 Error on total polarization charges =  0.02505
 SCF Done:  E(RwB97XD) =  -877.673542524     A.U. after    8 cycles
            NFock=  8  Conv=0.48D-08     -V/T= 2.0906
 KE= 8.047590654425D+02 PE=-3.791351167253D+03 EE= 1.232331256459D+03
 SMD-CDS (non-electrostatic) energy       (kcal/mol) =       0.47
 (included in total energy above)
 Leave Link  502 at Tue Oct  4 17:17:26 2022, MaxMem=  2952790016 cpu:            4598.9 elap:             386.9
 (Enter /mnt/data/applications/G16/g16/l701.exe)
 ... and contract with generalized density number  0.
 Compute integral first derivatives.
 R6Disp: Adding Grimme-D2 dispersion energy 1st derivatives to the gradient.
   1 Symmetry operations used in ECPInt.
 ECPInt:  NShTT=   16653 NPrTT=   49115 LenC2=   15842 LenP2D=   35624.
 LDataN:  DoStor=T MaxTD1= 8 Len=  415
 D1PCM: PCM CHGder 1st derivatives, ID1Alg=3 FixD1E=F DoIter=F DoCFld=F I1PDM=0.
 GePol: Maximum number of non-zero 1st derivatives   =     421
 Leave Link  701 at Tue Oct  4 17:17:34 2022, MaxMem=  2952790016 cpu:             104.5 elap:               8.8
 (Enter /mnt/data/applications/G16/g16/l702.exe)
 L702 exits ... SP integral derivatives will be done elsewhere.
 Leave Link  702 at Tue Oct  4 17:17:34 2022, MaxMem=  2952790016 cpu:               0.2 elap:               0.0
 (Enter /mnt/data/applications/G16/g16/l703.exe)
 Integral derivatives from FoFJK, PRISM(SPDF).
 Compute integral first derivatives, UseDBF=F ICtDFT=           0.
 Calling FoFJK, ICntrl=      2127 FMM=F ISym2X=0 I1Cent= 0 IOpClX= 0 NMat=1 NMatS=1 NMatT=0.
 FoFJK:  IHMeth= 1 ICntrl=    2127 DoSepK=T KAlg= 0 I1Cent=           0 FoldK=F
 IRaf=         1 NMat=       1 IRICut=       1 DoRegI=T DoRafI=F ISym2E= 0 IDoP0=0 IntGTp=1.
 FoFCou: FMM=F IPFlag=           0 FMFlag=      100000 FMFlg1=         800
         NFxFlg=           0 DoJE=F BraDBF=F KetDBF=F FulRan=T
         wScrn=  0.000000 ICntrl=      2527 IOpCl=  0 I1Cent=           0 NGrid=           0
         NMat0=    1 NMatS0=      1 NMatT0=    0 NMatD0=    1 NMtDS0=    0 NMtDT0=    0
 Symmetry not used in FoFCou.
 Defaulting to unpruned grid for atomic number  45.
 Defaulting to unpruned grid for atomic number  45.
 Defaulting to unpruned grid for atomic number  45.
 Defaulting to unpruned grid for atomic number  45.
 Defaulting to unpruned grid for atomic number  45.
 Defaulting to unpruned grid for atomic number  45.
 Defaulting to unpruned grid for atomic number  45.
 Defaulting to unpruned grid for atomic number  45.
 Defaulting to unpruned grid for atomic number  45.
 Defaulting to unpruned grid for atomic number  45.
 Defaulting to unpruned grid for atomic number  45.
 Defaulting to unpruned grid for atomic number  45.
 Leave Link  703 at Tue Oct  4 17:20:30 2022, MaxMem=  2952790016 cpu:            2095.1 elap:             175.1
 (Enter /mnt/data/applications/G16/g16/l716.exe)
 Dipole        =-1.89125938D+00-4.71105273D-01 1.04069752D-01
 ***** Axes restored to original set *****
 -------------------------------------------------------------------
 Center     Atomic                   Forces (Hartrees/Bohr)
 Number     Number              X              Y              Z
 -------------------------------------------------------------------
      1        1          -0.000000241   -0.000000732   -0.000030175
      2       45          -0.000029439   -0.000023546    0.000002413
      3       15          -0.000006991    0.000000218    0.000008379
      4        6           0.000006738    0.000001598   -0.000000739
      5        6           0.000002561   -0.000004615    0.000001415
      6        6           0.000014065   -0.000002842   -0.000007372
      7        1          -0.000002534   -0.000003751   -0.000002785
      8        1          -0.000002065   -0.000005217   -0.000005396
      9        1          -0.000005868   -0.000003039   -0.000001382
     10        1           0.000004214   -0.000001668   -0.000001701
     11        1           0.000006594   -0.000000522   -0.000001696
     12        1           0.000001975   -0.000004944   -0.000006455
     13        1          -0.000000718   -0.000003663   -0.000001507
     14        1          -0.000004126   -0.000003009    0.000000493
     15        1          -0.000002374   -0.000001590   -0.000002885
     16        6           0.000013417    0.000028234    0.000014133
     17        8          -0.000010421   -0.000004335    0.000006501
     18        6          -0.000011742    0.000002637    0.000008044
     19        6           0.000006881    0.000036057    0.000009882
     20        1           0.000007673    0.000003414   -0.000004048
     21        1           0.000008373   -0.000002298    0.000001855
     22        1           0.000008255   -0.000004531   -0.000000912
     23        1           0.000000770   -0.000003683   -0.000007732
     24        6           0.000000862   -0.000001363    0.000016059
     25        8          -0.000005859    0.000003192    0.000005612
 -------------------------------------------------------------------
 Cartesian Forces:  Max     0.000036057 RMS     0.000009519
 Leave Link  716 at Tue Oct  4 17:20:30 2022, MaxMem=  2952790016 cpu:               0.2 elap:               0.0
 (Enter /mnt/data/applications/G16/g16/l103.exe)

 GradGradGradGradGradGradGradGradGradGradGradGradGradGradGradGradGradGrad
 Berny optimization.
 Using GEDIIS/GDIIS optimizer.
 FormGI is forming the generalized inverse of G from B-inverse, IUseBI=4.
 Internal  Forces:  Max     0.000029346 RMS     0.000005802
 Search for a local minimum.
 Step number   8 out of a maximum of  150
 All quantities printed in internal units (Hartrees-Bohrs-Radians)
 RMS Force = .58017D-05 SwitMx=.10000D-02 MixMth= 2
 Mixed Optimization -- En-DIIS/RFO-DIIS
 Swapping is turned off.
 Update second derivatives using D2CorX and points    1    2    3    4    5
                                                      6    7    8
 DE=  3.38D-08 DEPred=-8.45D-08 R=-4.00D-01
 Trust test=-4.00D-01 RLast= 1.93D-03 DXMaxT set to 5.00D-02
 ITU= -1  0  1  1  1  1  1  0
     Eigenvalues ---    0.00230   0.00616   0.00872   0.00879   0.00899
     Eigenvalues ---    0.01816   0.02060   0.02915   0.03210   0.03419
     Eigenvalues ---    0.03618   0.03680   0.03973   0.04158   0.05351
     Eigenvalues ---    0.05876   0.05878   0.05910   0.05920   0.06150
     Eigenvalues ---    0.06190   0.06228   0.06458   0.06523   0.06673
     Eigenvalues ---    0.07583   0.08462   0.08909   0.09252   0.10789
     Eigenvalues ---    0.12759   0.13395   0.13589   0.13961   0.14182
     Eigenvalues ---    0.15401   0.15847   0.16000   0.16000   0.16000
     Eigenvalues ---    0.16001   0.16001   0.16002   0.16006   0.16029
     Eigenvalues ---    0.16102   0.18055   0.22115   0.23655   0.24243
     Eigenvalues ---    0.24599   0.24657   0.25253   0.34544   0.34551
     Eigenvalues ---    0.34580   0.34672   0.34683   0.34694   0.34728
     Eigenvalues ---    0.34734   0.34750   0.35510   0.35604   0.35652
     Eigenvalues ---    0.35743   0.43018   1.42132   1.44404
 En-DIIS/RFO-DIIS/Sim-DIIS IScMMF=       -3 using points:     8    7    6    5    4    3    2    1
 RFO step:  Lambda=-4.22220612D-08.
 NNeg= 0 NGDIIS= 8 SimSw=  2.50D-03 Rises=F DC=  3.38D-08 SmlDif=  1.00D-05
 NRisDI= 0 DoIntr=F SqrtH=F CThrHd= 10.0 CDAdj=  3.0
 RMS Error=  0.9767207242D-04 NUsed= 8 OKEnD=F EnDIS=F
 InvSVX:  RCond= 8.69D-09 Info=           0 Equed=N FErr=  1.36D-12 BErr=  4.78D-17
 DIIS inversion failure, remove point   8.
 InvSVX:  RCond= 2.73D-08 Info=           0 Equed=N FErr=  2.78D-13 BErr=  6.69D-17
 DIIS inversion failure, remove point   7.
 InvSVX:  RCond= 3.17D-08 Info=           0 Equed=N FErr=  2.11D-13 BErr=  3.74D-17
 DIIS inversion failure, remove point   6.
 InvSVX:  RCond= 4.13D-08 Info=           0 Equed=N FErr=  8.38D-14 BErr=  1.49D-16
 DIIS inversion failure, remove point   5.
 InvSVX:  RCond= 7.47D-08 Info=           0 Equed=N FErr=  3.29D-14 BErr=  4.27D-17
 DIIS inversion failure, remove point   4.
 InvSVX:  RCond= 1.47D-07 Info=           0 Equed=N FErr=  7.84D-15 BErr=  4.62D-17
 RFO-DIIS uses    3 points instead of    8
 DidBck=F Rises=F RFO-DIIS coefs:    1.42733   -0.44247    0.01514    0.00000    0.00000
                  RFO-DIIS coefs:    0.00000    0.00000    0.00000
 Iteration  1 RMS(Cart)=  0.00020119 RMS(Int)=  0.00000002
 Iteration  2 RMS(Cart)=  0.00000002 RMS(Int)=  0.00000001
 ITry= 1 IFail=0 DXMaxC= 1.12D-03 DCOld= 1.00D+10 DXMaxT= 5.00D-02 DXLimC= 3.00D+00 Rises=F
 Variable       Old X    -DE/DX   Delta X   Delta X   Delta X     New X
                                 (Linear)    (Quad)   (Total)
    R1        3.01323   0.00003   0.00013   0.00009   0.00022   3.01345
    R2        4.41656  -0.00002   0.00009  -0.00010  -0.00001   4.41654
    R3        3.61870   0.00002  -0.00001   0.00007   0.00006   3.61876
    R4        4.16531   0.00000   0.00002  -0.00005  -0.00003   4.16529
    R5        4.16674  -0.00000  -0.00006  -0.00006  -0.00012   4.16662
    R6        3.66583   0.00002  -0.00011   0.00008  -0.00004   3.66580
    R7        3.43767  -0.00001  -0.00002  -0.00002  -0.00004   3.43763
    R8        3.43826  -0.00001  -0.00001  -0.00001  -0.00003   3.43823
    R9        3.44222  -0.00001  -0.00004  -0.00003  -0.00006   3.44216
   R10        2.06126   0.00000  -0.00000   0.00000   0.00000   2.06126
   R11        2.06096  -0.00000  -0.00000   0.00000  -0.00000   2.06096
   R12        2.06422  -0.00000   0.00000  -0.00000   0.00000   2.06422
   R13        2.06117   0.00000  -0.00000   0.00000  -0.00000   2.06117
   R14        2.06183   0.00000  -0.00000   0.00000  -0.00000   2.06183
   R15        2.06411  -0.00000   0.00000  -0.00000   0.00000   2.06411
   R16        2.06214  -0.00000  -0.00000  -0.00000  -0.00000   2.06214
   R17        2.06402  -0.00000  -0.00000   0.00000   0.00000   2.06402
   R18        2.06203  -0.00000  -0.00000  -0.00000  -0.00000   2.06203
   R19        2.15371  -0.00001   0.00000  -0.00001  -0.00001   2.15370
   R20        2.64769   0.00002   0.00003   0.00004   0.00006   2.64775
   R21        2.04640   0.00000   0.00000   0.00000   0.00000   2.04640
   R22        2.04861  -0.00000  -0.00000   0.00000  -0.00000   2.04861
   R23        2.04712  -0.00000  -0.00000   0.00000  -0.00000   2.04712
   R24        2.04520  -0.00000  -0.00000   0.00000   0.00000   2.04520
   R25        2.14749   0.00000   0.00001  -0.00000   0.00001   2.14750
    A1        1.40736   0.00001   0.00008   0.00008   0.00016   1.40752
    A2        1.45688   0.00001   0.00002   0.00014   0.00016   1.45704
    A3        1.48411  -0.00001   0.00008  -0.00008  -0.00000   1.48410
    A4        1.49606  -0.00001   0.00005  -0.00011  -0.00005   1.49601
    A5        1.90705  -0.00001   0.00012  -0.00012   0.00000   1.90705
    A6        1.75931   0.00001   0.00008   0.00001   0.00008   1.75939
    A7        2.38980   0.00001   0.00010   0.00002   0.00012   2.38992
    A8        1.69582  -0.00001  -0.00014  -0.00002  -0.00015   1.69567
    A9        2.53843   0.00000  -0.00012   0.00016   0.00005   2.53848
   A10        1.91049  -0.00000  -0.00015   0.00013  -0.00002   1.91048
   A11        1.73615  -0.00001  -0.00009  -0.00008  -0.00017   1.73599
   A12        1.62561   0.00001   0.00003  -0.00002   0.00001   1.62562
   A13        1.64774   0.00001   0.00005  -0.00000   0.00005   1.64779
   A14        2.02268  -0.00000  -0.00004  -0.00002  -0.00006   2.02262
   A15        1.99483  -0.00000  -0.00007  -0.00001  -0.00008   1.99475
   A16        2.04582  -0.00000   0.00001  -0.00004  -0.00003   2.04579
   A17        1.79051   0.00000   0.00004   0.00003   0.00007   1.79058
   A18        1.78588   0.00000   0.00004   0.00003   0.00007   1.78594
   A19        1.78839   0.00000   0.00004   0.00002   0.00006   1.78845
   A20        1.90939  -0.00000  -0.00001  -0.00002  -0.00003   1.90936
   A21        1.90663  -0.00000  -0.00002  -0.00002  -0.00004   1.90659
   A22        1.94579   0.00000   0.00002   0.00003   0.00005   1.94584
   A23        1.88912   0.00000   0.00000  -0.00000  -0.00000   1.88912
   A24        1.90487  -0.00000   0.00000  -0.00000   0.00000   1.90488
   A25        1.90716   0.00000   0.00001   0.00001   0.00002   1.90718
   A26        1.90397  -0.00000  -0.00003  -0.00002  -0.00005   1.90392
   A27        1.90544  -0.00000  -0.00001  -0.00000  -0.00002   1.90542
   A28        1.95151   0.00000   0.00002   0.00003   0.00005   1.95156
   A29        1.88587   0.00000   0.00000   0.00001   0.00001   1.88588
   A30        1.90867  -0.00000   0.00000  -0.00000   0.00000   1.90867
   A31        1.90723  -0.00000   0.00001  -0.00001  -0.00000   1.90723
   A32        1.91005   0.00000   0.00001   0.00001   0.00002   1.91006
   A33        1.94803  -0.00000  -0.00002  -0.00001  -0.00003   1.94800
   A34        1.90907   0.00000   0.00001   0.00001   0.00002   1.90909
   A35        1.90326  -0.00000   0.00000  -0.00001  -0.00001   1.90325
   A36        1.88867   0.00000   0.00000   0.00001   0.00002   1.88869
   A37        1.90380   0.00000  -0.00000  -0.00001  -0.00001   1.90380
   A38        1.92274   0.00001   0.00000   0.00006   0.00006   1.92281
   A39        1.95135   0.00001   0.00006   0.00005   0.00011   1.95147
   A40        2.09075  -0.00000  -0.00003  -0.00002  -0.00006   2.09070
   A41        2.09076   0.00001   0.00002   0.00002   0.00004   2.09080
   A42        2.00085  -0.00001  -0.00000  -0.00005  -0.00005   2.00080
   A43        1.93843   0.00000   0.00003   0.00007   0.00010   1.93854
   A44        1.91198   0.00000  -0.00001   0.00008   0.00007   1.91205
   A45        2.09538   0.00000   0.00001   0.00001   0.00001   2.09540
   A46        2.09539  -0.00000  -0.00004  -0.00003  -0.00007   2.09532
   A47        2.00417  -0.00001   0.00000  -0.00005  -0.00004   2.00413
   A48        3.10318  -0.00000  -0.00005   0.00006   0.00001   3.10319
   A49        3.09838  -0.00001   0.00027  -0.00029  -0.00003   3.09835
   A50        3.12501  -0.00001   0.00012  -0.00026  -0.00014   3.12487
   A51        3.10078  -0.00000   0.00010  -0.00009   0.00000   3.10078
   A52        3.18317  -0.00000  -0.00009  -0.00000  -0.00009   3.18307
   A53        3.12921   0.00001  -0.00007   0.00025   0.00018   3.12939
    D1        1.01452  -0.00001   0.00007  -0.00000   0.00006   1.01459
    D2       -1.06253  -0.00001   0.00009  -0.00002   0.00007  -1.06246
    D3        3.12797  -0.00001   0.00009  -0.00001   0.00008   3.12805
    D4        2.40466   0.00001   0.00009   0.00021   0.00030   2.40496
    D5        0.32760   0.00001   0.00012   0.00019   0.00031   0.32791
    D6       -1.76508   0.00001   0.00012   0.00020   0.00031  -1.76476
    D7       -0.43519   0.00000  -0.00001   0.00007   0.00005  -0.43514
    D8       -2.51224   0.00000   0.00001   0.00005   0.00006  -2.51218
    D9        1.67826   0.00000   0.00001   0.00005   0.00006   1.67833
   D10       -0.26498   0.00000  -0.00006   0.00008   0.00001  -0.26497
   D11       -2.34204   0.00000  -0.00004   0.00006   0.00002  -2.34202
   D12        1.84847   0.00000  -0.00004   0.00007   0.00003   1.84849
   D13       -2.08626  -0.00000  -0.00003   0.00009   0.00006  -2.08620
   D14        2.11987  -0.00000  -0.00000   0.00007   0.00007   2.11994
   D15        0.02719  -0.00000  -0.00001   0.00008   0.00007   0.02727
   D16       -0.45960  -0.00000   0.00003  -0.00003   0.00000  -0.45960
   D17       -2.70589  -0.00000  -0.00002  -0.00006  -0.00007  -2.70596
   D18        0.92731   0.00001   0.00012   0.00003   0.00016   0.92747
   D19       -1.31898   0.00001   0.00008   0.00001   0.00008  -1.31890
   D20       -1.69694  -0.00000  -0.00019  -0.00006  -0.00026  -1.69720
   D21        2.33995  -0.00000  -0.00024  -0.00009  -0.00033   2.33962
   D22        2.63615  -0.00000  -0.00000   0.00001   0.00001   2.63616
   D23        0.38986  -0.00000  -0.00005  -0.00001  -0.00007   0.38980
   D24        2.73443   0.00000  -0.00006   0.00000  -0.00006   2.73436
   D25        0.50215  -0.00000  -0.00009  -0.00006  -0.00014   0.50200
   D26       -2.30264   0.00000   0.00008  -0.00001   0.00007  -2.30256
   D27        1.74827   0.00000   0.00006  -0.00006  -0.00001   1.74826
   D28        1.31152  -0.00000  -0.00013  -0.00009  -0.00022   1.31131
   D29       -0.92076  -0.00000  -0.00015  -0.00015  -0.00030  -0.92105
   D30       -0.46302  -0.00000  -0.00003  -0.00003  -0.00005  -0.46308
   D31       -2.69530  -0.00000  -0.00005  -0.00008  -0.00014  -2.69544
   D32        1.07398  -0.00000   0.00006   0.00005   0.00011   1.07409
   D33       -0.99107   0.00000   0.00008   0.00008   0.00015  -0.99091
   D34       -3.10065   0.00000   0.00007   0.00006   0.00013  -3.10052
   D35       -3.02336  -0.00000  -0.00002   0.00005   0.00003  -3.02333
   D36        1.19478  -0.00000  -0.00000   0.00008   0.00007   1.19485
   D37       -0.91480  -0.00000  -0.00001   0.00006   0.00005  -0.91475
   D38       -1.17376   0.00000   0.00005   0.00009   0.00014  -1.17362
   D39        3.04437   0.00000   0.00006   0.00012   0.00018   3.04455
   D40        0.93479   0.00000   0.00005   0.00010   0.00015   0.93495
   D41        1.01042   0.00000   0.00002   0.00000   0.00002   1.01044
   D42       -1.04685   0.00000   0.00003   0.00001   0.00004  -1.04681
   D43        3.12379   0.00000   0.00002   0.00000   0.00002   3.12381
   D44       -1.19353   0.00000   0.00008   0.00001   0.00009  -1.19345
   D45        3.03238   0.00000   0.00009   0.00002   0.00011   3.03249
   D46        0.91983   0.00000   0.00008   0.00001   0.00009   0.91992
   D47       -3.04119  -0.00000   0.00001  -0.00003  -0.00002  -3.04122
   D48        1.18472  -0.00000   0.00003  -0.00003   0.00000   1.18472
   D49       -0.92782  -0.00000   0.00001  -0.00003  -0.00002  -0.92785
   D50       -1.04716  -0.00000  -0.00001   0.00001  -0.00000  -1.04717
   D51        3.12761  -0.00000  -0.00000   0.00002   0.00002   3.12762
   D52        1.01916   0.00000   0.00001   0.00003   0.00004   1.01920
   D53        1.18597  -0.00000  -0.00003  -0.00002  -0.00005   1.18592
   D54       -0.92245  -0.00000  -0.00002  -0.00001  -0.00003  -0.92247
   D55       -3.03089  -0.00000  -0.00001   0.00000  -0.00001  -3.03090
   D56        3.03720   0.00000   0.00005   0.00002   0.00007   3.03727
   D57        0.92879   0.00000   0.00005   0.00004   0.00009   0.92888
   D58       -1.17966   0.00000   0.00006   0.00005   0.00011  -1.17955
   D59       -2.66602   0.00001   0.00004   0.00015   0.00019  -2.66584
   D60        0.01415  -0.00000  -0.00002  -0.00003  -0.00005   0.01410
   D61       -0.01655   0.00000   0.00000   0.00003   0.00003  -0.01652
   D62        2.66362  -0.00001  -0.00006  -0.00015  -0.00021   2.66341
         Item               Value     Threshold  Converged?
 Maximum Force            0.000029     0.000450     YES
 RMS     Force            0.000006     0.000300     YES
 Maximum Displacement     0.001115     0.001800     YES
 RMS     Displacement     0.000201     0.001200     YES
 Predicted change in Energy=-2.110072D-08
 Optimization completed.
    -- Stationary point found.
                           ----------------------------
                           !   Optimized Parameters   !
                           ! (Angstroms and Degrees)  !
 --------------------------                            --------------------------
 ! Name  Definition              Value          Derivative Info.                !
 --------------------------------------------------------------------------------
 ! R1    R(1,2)                  1.5945         -DE/DX =    0.0                 !
 ! R2    R(2,3)                  2.3371         -DE/DX =    0.0                 !
 ! R3    R(2,16)                 1.9149         -DE/DX =    0.0                 !
 ! R4    R(2,18)                 2.2042         -DE/DX =    0.0                 !
 ! R5    R(2,19)                 2.2049         -DE/DX =    0.0                 !
 ! R6    R(2,24)                 1.9399         -DE/DX =    0.0                 !
 ! R7    R(3,4)                  1.8191         -DE/DX =    0.0                 !
 ! R8    R(3,5)                  1.8194         -DE/DX =    0.0                 !
 ! R9    R(3,6)                  1.8215         -DE/DX =    0.0                 !
 ! R10   R(4,10)                 1.0908         -DE/DX =    0.0                 !
 ! R11   R(4,11)                 1.0906         -DE/DX =    0.0                 !
 ! R12   R(4,12)                 1.0923         -DE/DX =    0.0                 !
 ! R13   R(5,13)                 1.0907         -DE/DX =    0.0                 !
 ! R14   R(5,14)                 1.0911         -DE/DX =    0.0                 !
 ! R15   R(5,15)                 1.0923         -DE/DX =    0.0                 !
 ! R16   R(6,7)                  1.0912         -DE/DX =    0.0                 !
 ! R17   R(6,8)                  1.0922         -DE/DX =    0.0                 !
 ! R18   R(6,9)                  1.0912         -DE/DX =    0.0                 !
 ! R19   R(16,17)                1.1397         -DE/DX =    0.0                 !
 ! R20   R(18,19)                1.4011         -DE/DX =    0.0                 !
 ! R21   R(18,22)                1.0829         -DE/DX =    0.0                 !
 ! R22   R(18,23)                1.0841         -DE/DX =    0.0                 !
 ! R23   R(19,20)                1.0833         -DE/DX =    0.0                 !
 ! R24   R(19,21)                1.0823         -DE/DX =    0.0                 !
 ! R25   R(24,25)                1.1364         -DE/DX =    0.0                 !
 ! A1    A(1,2,3)               80.6355         -DE/DX =    0.0                 !
 ! A2    A(1,2,16)              83.4732         -DE/DX =    0.0                 !
 ! A3    A(1,2,18)              85.0332         -DE/DX =    0.0                 !
 ! A4    A(1,2,19)              85.7181         -DE/DX =    0.0                 !
 ! A5    A(3,2,16)             109.2661         -DE/DX =    0.0                 !
 ! A6    A(3,2,18)             100.801          -DE/DX =    0.0                 !
 ! A7    A(3,2,19)             136.9256         -DE/DX =    0.0                 !
 ! A8    A(3,2,24)              97.1634         -DE/DX =    0.0                 !
 ! A9    A(16,2,18)            145.4412         -DE/DX =    0.0                 !
 ! A10   A(16,2,19)            109.4632         -DE/DX =    0.0                 !
 ! A11   A(16,2,24)             99.4742         -DE/DX =    0.0                 !
 ! A12   A(18,2,24)             93.1404         -DE/DX =    0.0                 !
 ! A13   A(19,2,24)             94.4086         -DE/DX =    0.0                 !
 ! A14   A(2,3,4)              115.8908         -DE/DX =    0.0                 !
 ! A15   A(2,3,5)              114.2951         -DE/DX =    0.0                 !
 ! A16   A(2,3,6)              117.2171         -DE/DX =    0.0                 !
 ! A17   A(4,3,5)              102.5885         -DE/DX =    0.0                 !
 ! A18   A(4,3,6)              102.3233         -DE/DX =    0.0                 !
 ! A19   A(5,3,6)              102.4672         -DE/DX =    0.0                 !
 ! A20   A(3,4,10)             109.4            -DE/DX =    0.0                 !
 ! A21   A(3,4,11)             109.242          -DE/DX =    0.0                 !
 ! A22   A(3,4,12)             111.4857         -DE/DX =    0.0                 !
 ! A23   A(10,4,11)            108.2388         -DE/DX =    0.0                 !
 ! A24   A(10,4,12)            109.1413         -DE/DX =    0.0                 !
 ! A25   A(11,4,12)            109.2723         -DE/DX =    0.0                 !
 ! A26   A(3,5,13)             109.0896         -DE/DX =    0.0                 !
 ! A27   A(3,5,14)             109.1736         -DE/DX =    0.0                 !
 ! A28   A(3,5,15)             111.813          -DE/DX =    0.0                 !
 ! A29   A(13,5,14)            108.0523         -DE/DX =    0.0                 !
 ! A30   A(13,5,15)            109.359          -DE/DX =    0.0                 !
 ! A31   A(14,5,15)            109.2762         -DE/DX =    0.0                 !
 ! A32   A(3,6,7)              109.4377         -DE/DX =    0.0                 !
 ! A33   A(3,6,8)              111.6137         -DE/DX =    0.0                 !
 ! A34   A(3,6,9)              109.3818         -DE/DX =    0.0                 !
 ! A35   A(7,6,8)              109.0487         -DE/DX =    0.0                 !
 ! A36   A(7,6,9)              108.2129         -DE/DX =    0.0                 !
 ! A37   A(8,6,9)              109.0799         -DE/DX =    0.0                 !
 ! A38   A(2,18,22)            110.1651         -DE/DX =    0.0                 !
 ! A39   A(2,18,23)            111.8043         -DE/DX =    0.0                 !
 ! A40   A(19,18,22)           119.7913         -DE/DX =    0.0                 !
 ! A41   A(19,18,23)           119.7917         -DE/DX =    0.0                 !
 ! A42   A(22,18,23)           114.6401         -DE/DX =    0.0                 !
 ! A43   A(2,19,20)            111.0641         -DE/DX =    0.0                 !
 ! A44   A(2,19,21)            109.5483         -DE/DX =    0.0                 !
 ! A45   A(18,19,20)           120.0566         -DE/DX =    0.0                 !
 ! A46   A(18,19,21)           120.0568         -DE/DX =    0.0                 !
 ! A47   A(20,19,21)           114.8308         -DE/DX =    0.0                 !
 ! A48   L(1,2,24,3,-1)        177.7989         -DE/DX =    0.0                 !
 ! A49   L(2,16,17,5,-1)       177.5241         -DE/DX =    0.0                 !
 ! A50   L(2,24,25,6,-1)       179.0498         -DE/DX =    0.0                 !
 ! A51   L(1,2,24,3,-2)        177.6615         -DE/DX =    0.0                 !
 ! A52   L(2,16,17,5,-2)       182.3822         -DE/DX =    0.0                 !
 ! A53   L(2,24,25,6,-2)       179.2905         -DE/DX =    0.0                 !
 ! D1    D(1,2,3,4)             58.1278         -DE/DX =    0.0                 !
 ! D2    D(1,2,3,5)            -60.8788         -DE/DX =    0.0                 !
 ! D3    D(1,2,3,6)            179.2195         -DE/DX =    0.0                 !
 ! D4    D(16,2,3,4)           137.7767         -DE/DX =    0.0                 !
 ! D5    D(16,2,3,5)            18.7702         -DE/DX =    0.0                 !
 ! D6    D(16,2,3,6)          -101.1315         -DE/DX =    0.0                 !
 ! D7    D(18,2,3,4)           -24.9344         -DE/DX =    0.0                 !
 ! D8    D(18,2,3,5)          -143.9409         -DE/DX =    0.0                 !
 ! D9    D(18,2,3,6)            96.1574         -DE/DX =    0.0                 !
 ! D10   D(19,2,3,4)           -15.1825         -DE/DX =    0.0                 !
 ! D11   D(19,2,3,5)          -134.189          -DE/DX =    0.0                 !
 ! D12   D(19,2,3,6)           105.9093         -DE/DX =    0.0                 !
 ! D13   D(24,2,3,4)          -119.5337         -DE/DX =    0.0                 !
 ! D14   D(24,2,3,5)           121.4598         -DE/DX =    0.0                 !
 ! D15   D(24,2,3,6)             1.5581         -DE/DX =    0.0                 !
 ! D16   D(1,2,18,22)          -26.3331         -DE/DX =    0.0                 !
 ! D17   D(1,2,18,23)         -155.036          -DE/DX =    0.0                 !
 ! D18   D(3,2,18,22)           53.1309         -DE/DX =    0.0                 !
 ! D19   D(3,2,18,23)          -75.572          -DE/DX =    0.0                 !
 ! D20   D(16,2,18,22)         -97.2277         -DE/DX =    0.0                 !
 ! D21   D(16,2,18,23)         134.0695         -DE/DX =    0.0                 !
 ! D22   D(24,2,18,22)         151.0402         -DE/DX =    0.0                 !
 ! D23   D(24,2,18,23)          22.3373         -DE/DX =    0.0                 !
 ! D24   D(1,2,19,20)          156.6711         -DE/DX =    0.0                 !
 ! D25   D(1,2,19,21)           28.7708         -DE/DX =    0.0                 !
 ! D26   D(3,2,19,20)         -131.9315         -DE/DX =    0.0                 !
 ! D27   D(3,2,19,21)          100.1682         -DE/DX =    0.0                 !
 ! D28   D(16,2,19,20)          75.1447         -DE/DX =    0.0                 !
 ! D29   D(16,2,19,21)         -52.7556         -DE/DX =    0.0                 !
 ! D30   D(24,2,19,20)         -26.5293         -DE/DX =    0.0                 !
 ! D31   D(24,2,19,21)        -154.4296         -DE/DX =    0.0                 !
 ! D32   D(2,3,4,10)            61.5346         -DE/DX =    0.0                 !
 ! D33   D(2,3,4,11)           -56.7839         -DE/DX =    0.0                 !
 ! D34   D(2,3,4,12)          -177.654          -DE/DX =    0.0                 !
 ! D35   D(5,3,4,10)          -173.2257         -DE/DX =    0.0                 !
 ! D36   D(5,3,4,11)            68.4557         -DE/DX =    0.0                 !
 ! D37   D(5,3,4,12)           -52.4143         -DE/DX =    0.0                 !
 ! D38   D(6,3,4,10)           -67.2517         -DE/DX =    0.0                 !
 ! D39   D(6,3,4,11)           174.4297         -DE/DX =    0.0                 !
 ! D40   D(6,3,4,12)            53.5597         -DE/DX =    0.0                 !
 ! D41   D(2,3,5,13)            57.893          -DE/DX =    0.0                 !
 ! D42   D(2,3,5,14)           -59.9801         -DE/DX =    0.0                 !
 ! D43   D(2,3,5,15)           178.98           -DE/DX =    0.0                 !
 ! D44   D(4,3,5,13)           -68.3844         -DE/DX =    0.0                 !
 ! D45   D(4,3,5,14)           173.7425         -DE/DX =    0.0                 !
 ! D46   D(4,3,5,15)            52.7027         -DE/DX =    0.0                 !
 ! D47   D(6,3,5,13)          -174.2475         -DE/DX =    0.0                 !
 ! D48   D(6,3,5,14)            67.8794         -DE/DX =    0.0                 !
 ! D49   D(6,3,5,15)           -53.1604         -DE/DX =    0.0                 !
 ! D50   D(2,3,6,7)            -59.9981         -DE/DX =    0.0                 !
 ! D51   D(2,3,6,8)            179.1987         -DE/DX =    0.0                 !
 ! D52   D(2,3,6,9)             58.3938         -DE/DX =    0.0                 !
 ! D53   D(4,3,6,7)             67.951          -DE/DX =    0.0                 !
 ! D54   D(4,3,6,8)            -52.8522         -DE/DX =    0.0                 !
 ! D55   D(4,3,6,9)           -173.6571         -DE/DX =    0.0                 !
 ! D56   D(5,3,6,7)            174.0189         -DE/DX =    0.0                 !
 ! D57   D(5,3,6,8)             53.2157         -DE/DX =    0.0                 !
 ! D58   D(5,3,6,9)            -67.5893         -DE/DX =    0.0                 !
 ! D59   D(22,18,19,20)       -152.7519         -DE/DX =    0.0                 !
 ! D60   D(22,18,19,21)          0.8105         -DE/DX =    0.0                 !
 ! D61   D(23,18,19,20)         -0.9481         -DE/DX =    0.0                 !
 ! D62   D(23,18,19,21)        152.6144         -DE/DX =    0.0                 !
 --------------------------------------------------------------------------------
 Largest change from initial coordinates is atom   25       0.050 Angstoms.
 GradGradGradGradGradGradGradGradGradGradGradGradGradGradGradGradGradGrad

 Leave Link  103 at Tue Oct  4 17:20:30 2022, MaxMem=  2952790016 cpu:               0.5 elap:               0.1
 (Enter /mnt/data/applications/G16/g16/l202.exe)
                          Input orientation:                          
 ---------------------------------------------------------------------
 Center     Atomic      Atomic             Coordinates (Angstroms)
 Number     Number       Type             X           Y           Z
 ---------------------------------------------------------------------
      1          1           0        0.269979    0.438285   -1.708725
      2         45           0        0.654903    0.026286   -0.217207
      3         15           0       -1.674349    0.015372   -0.025652
      4          6           0       -2.559081   -1.102374   -1.155767
      5          6           0       -2.460540    1.621651   -0.360551
      6          6           0       -2.374947   -0.435213    1.594277
      7          1           0       -2.055895   -1.444397    1.859897
      8          1           0       -3.466480   -0.397243    1.585157
      9          1           0       -2.000469    0.252073    2.354593
     10          1           0       -2.254256   -2.131229   -0.960020
     11          1           0       -2.293162   -0.857476   -2.184722
     12          1           0       -3.641467   -1.020119   -1.033777
     13          1           0       -2.190986    1.948058   -1.365776
     14          1           0       -2.082179    2.360392    0.347649
     15          1           0       -3.548238    1.566367   -0.277301
     16          6           0        1.288824    1.830366   -0.115169
     17          8           0        1.622274    2.920100   -0.101250
     18          6           0        1.008951   -1.976903   -1.065931
     19          6           0        2.200802   -1.244377   -1.143157
     20          1           0        3.007174   -1.445349   -0.448252
     21          1           0        2.510113   -0.810127   -2.085000
     22          1           0        0.405635   -2.118007   -1.954071
     23          1           0        0.902568   -2.755279   -0.318911
     24          6           0        1.049090   -0.553456    1.591556
     25          8           0        1.261080   -0.906726    2.650647
 ---------------------------------------------------------------------
                    Distance matrix (angstroms):
                    1          2          3          4          5
     1  H    0.000000
     2  Rh   1.594533   0.000000
     3  P    2.606147   2.337140   0.000000
     4  C    3.268482   3.533336   1.819139   0.000000
     5  C    3.267057   3.503101   1.819447   2.839435   0.000000
     6  C    4.320701   3.560119   1.821547   2.835797   2.838903
     7  H    4.657171   3.718292   2.414911   3.076427   3.807201
     8  H    5.050634   4.518152   2.444728   2.972078   2.978865
     9  H    4.658344   3.703531   2.414114   3.803840   3.075617
    10  H    3.678957   3.697276   2.411894   1.090770   3.806052
    11  H    2.911230   3.652840   2.409643   1.090614   3.082481
    12  H    4.228700   4.496726   2.440924   1.092340   2.970988
    13  H    2.907469   3.620980   2.407929   3.079729   1.090723
    14  H    3.668218   3.641254   2.409315   3.805055   1.091074
    15  H    4.230878   4.476813   2.445481   2.978642   1.092280
    16  C    2.348479   1.914934   3.476005   4.948755   3.763177
    17  O    3.251474   3.053426   4.394415   5.897121   4.292152
    18  C    2.606222   2.204189   3.500205   3.674741   5.048219
    19  C    2.622841   2.204943   4.225231   4.762018   5.527631
    20  H    3.553745   2.784290   4.922291   5.621513   6.269775
    21  H    2.591971   2.762253   4.736252   5.161939   5.796090
    22  H    2.571619   2.770708   3.549146   3.233936   4.973862
    23  H    3.539859   2.794421   3.795129   3.926249   5.519941
    24  C    3.533047   1.939874   3.218081   4.568150   4.567200
    25  O    4.668561   3.076126   4.077938   5.396359   5.413914
                    6          7          8          9         10
     6  C    0.000000
     7  H    1.091238   0.000000
     8  H    1.092232   1.778135   0.000000
     9  H    1.091181   1.767995   1.778435   0.000000
    10  H    3.068463   2.909127   3.309701   4.090378   0.000000
    11  H    3.803397   4.093863   3.974982   4.682110   1.767444
    12  H    2.975374   3.326770   2.697667   3.973965   1.778865
    13  H    3.804699   4.683158   3.979363   4.093142   4.099905
    14  H    3.074932   4.094387   3.324496   2.911960   4.681268
    15  H    2.980896   3.982387   2.707619   3.324128   3.976520
    16  C    4.634465   5.080561   5.519626   4.405699   5.381582
    17  O    5.487323   6.035218   6.304296   5.125798   6.425021
    18  C    4.572119   4.270517   5.436274   5.071975   3.268570
    19  C    5.393122   5.213234   6.346607   5.667830   4.546162
    20  H    5.844615   5.564371   6.865966   5.984453   5.330571
    21  H    6.127107   6.067366   7.025681   6.417446   5.070513
    22  H    4.811881   4.589034   5.520909   5.474596   2.839601
    23  H    4.448043   3.901040   5.317366   4.961795   3.281157
    24  C    3.426079   3.241406   4.518276   3.245138   4.462287
    25  O    3.815617   3.452057   4.872850   3.473927   5.185934
                   11         12         13         14         15
    11  H    0.000000
    12  H    1.780184   0.000000
    13  H    2.924403   3.320270   0.000000
    14  H    4.100255   3.970840   1.765697   0.000000
    15  H    3.329938   2.696452   1.781179   1.780553   0.000000
    16  C    4.933372   5.768611   3.699587   3.443659   4.846973
    17  O    5.825940   6.640926   4.133382   3.773295   5.347690
    18  C    3.661797   4.747931   5.072949   5.510483   5.826205
    19  C    4.629283   5.847595   5.434060   5.793168   6.457666
    20  H    5.608430   6.687906   6.275184   6.404580   7.216169
    21  H    4.804543   6.244286   5.497745   6.087620   6.754193
    22  H    2.987581   4.293173   4.860186   5.616333   5.658558
    23  H    4.158797   4.916306   5.726026   5.960127   6.203872
    24  C    5.052065   5.395505   5.049899   4.454511   5.396453
    25  O    6.001321   6.133743   6.016494   5.211069   6.149684
                   16         17         18         19         20
    16  C    0.000000
    17  O    1.139694   0.000000
    18  C    3.934155   5.028659   0.000000
    19  C    3.367864   4.331643   1.401095   0.000000
    20  H    3.714025   4.592984   2.158003   1.083290   0.000000
    21  H    3.513401   4.317188   2.157164   1.082273   1.824697
    22  H    4.444236   5.504151   1.082909   2.154864   3.080254
    23  H    4.606392   5.724970   1.084079   2.155834   2.482341
    24  C    2.941597   3.906370   3.014971   3.046714   2.964858
    25  O    3.891296   4.727367   3.875797   3.923014   3.597518
                   21         22         23         24         25
    21  H    0.000000
    22  H    2.481234   0.000000
    23  H    3.080080   1.823954   0.000000
    24  C    3.964534   3.928527   2.918797   0.000000
    25  O    4.898547   4.837605   3.516241   1.136404   0.000000
 Stoichiometry    C7H14O2PRh
 Framework group  C1[X(C7H14O2PRh)]
 Deg. of freedom    69
 Full point group                 C1      NOp   1
 RotChk:  IX=0 Diff= 1.40D-15
 Largest Abelian subgroup         C1      NOp   1
 Largest concise Abelian subgroup C1      NOp   1
                         Standard orientation:                         
 ---------------------------------------------------------------------
 Center     Atomic      Atomic             Coordinates (Angstroms)
 Number     Number       Type             X           Y           Z
 ---------------------------------------------------------------------
      1          1           0        0.275603    0.463006   -1.702417
      2         45           0        0.656141    0.027388   -0.216495
      3         15           0       -1.673489    0.022710   -0.029341
      4          6           0       -2.560430   -1.074658   -1.177551
      5          6           0       -2.452828    1.636843   -0.341742
      6          6           0       -2.378852   -0.449165    1.582438
      7          1           0       -2.064206   -1.463421    1.833600
      8          1           0       -3.470211   -0.406808    1.571908
      9          1           0       -2.003137    0.225280    2.353566
     10          1           0       -2.259956   -2.107490   -0.996572
     11          1           0       -2.291642   -0.815534   -2.202268
     12          1           0       -3.642715   -0.990006   -1.056311
     13          1           0       -2.180134    1.977099   -1.341513
     14          1           0       -2.072933    2.363496    0.378048
     15          1           0       -3.540886    1.584569   -0.261293
     16          6           0        1.296851    1.827267   -0.086496
     17          8           0        1.634491    2.915365   -0.055771
     18          6           0        1.004015   -1.964331   -1.094269
     19          6           0        2.198837   -1.235392   -1.158436
     20          1           0        3.003125   -1.449812   -0.465137
     21          1           0        2.511586   -0.788401   -2.093156
     22          1           0        0.401818   -2.089867   -1.985499
     23          1           0        0.893224   -2.753303   -0.359098
     24          6           0        1.044701   -0.580705    1.584159
     25          8           0        1.253342   -0.950500    2.638262
 ---------------------------------------------------------------------
 Rotational constants (GHZ):           0.8426269           0.5886850           0.5346053
 Leave Link  202 at Tue Oct  4 17:20:30 2022, MaxMem=  2952790016 cpu:               0.1 elap:               0.0
 (Enter /mnt/data/applications/G16/g16/l601.exe)
 Copying SCF densities to generalized density rwf, IOpCl= 0 IROHF=0.

 **********************************************************************

            Population analysis using the SCF density.

 **********************************************************************

 Orbital symmetries:
       Occupied  (A) (A) (A) (A) (A) (A) (A) (A) (A) (A) (A) (A)
                 (A) (A) (A) (A) (A) (A) (A) (A) (A) (A) (A) (A)
                 (A) (A) (A) (A) (A) (A) (A) (A) (A) (A) (A) (A)
                 (A) (A) (A) (A) (A) (A) (A) (A) (A) (A) (A) (A)
                 (A) (A) (A) (A)
       Virtual   (A) (A) (A) (A) (A) (A) (A) (A) (A) (A) (A) (A)
                 (A) (A) (A) (A) (A) (A) (A) (A) (A) (A) (A) (A)
                 (A) (A) (A) (A) (A) (A) (A) (A) (A) (A) (A) (A)
                 (A) (A) (A) (A) (A) (A) (A) (A) (A) (A) (A) (A)
                 (A) (A) (A) (A) (A) (A) (A) (A) (A) (A) (A) (A)
                 (A) (A) (A) (A) (A) (A) (A) (A) (A) (A) (A) (A)
                 (A) (A) (A) (A) (A) (A) (A) (A) (A) (A) (A) (A)
                 (A) (A) (A) (A) (A) (A) (A) (A) (A) (A) (A) (A)
                 (A) (A) (A) (A) (A) (A) (A) (A) (A) (A) (A) (A)
                 (A) (A) (A) (A) (A) (A) (A) (A) (A) (A) (A) (A)
                 (A) (A) (A) (A) (A) (A) (A) (A) (A) (A) (A) (A)
                 (A) (A) (A) (A) (A) (A) (A) (A) (A) (A) (A) (A)
                 (A) (A) (A) (A) (A) (A) (A) (A) (A) (A) (A) (A)
                 (A) (A) (A) (A) (A) (A) (A) (A) (A) (A) (A) (A)
                 (A) (A) (A) (A) (A) (A) (A) (A) (A) (A) (A) (A)
                 (A) (A) (A) (A) (A) (A) (A) (A) (A) (A) (A) (A)
                 (A) (A) (A) (A) (A) (A) (A) (A) (A) (A) (A) (A)
                 (A) (A) (A) (A) (A) (A) (A) (A) (A) (A) (A) (A)
                 (A) (A) (A) (A) (A) (A) (A) (A) (A) (A) (A) (A)
                 (A) (A) (A) (A) (A) (A) (A) (A) (A) (A) (A) (A)
                 (A) (A) (A) (A) (A) (A) (A) (A) (A) (A) (A) (A)
                 (A) (A) (A) (A) (A) (A) (A) (A) (A) (A) (A) (A)
                 (A) (A) (A) (A) (A) (A) (A) (A) (A) (A) (A) (A)
                 (A) (A) (A) (A) (A) (A) (A) (A) (A) (A) (A) (A)
                 (A) (A) (A) (A) (A) (A) (A) (A) (A) (A) (A) (A)
                 (A) (A) (A) (A) (A) (A) (A) (A) (A) (A) (A) (A)
                 (A) (A) (A) (A) (A) (A) (A) (A) (A) (A) (A) (A)
                 (A) (A) (A) (A) (A) (A) (A) (A) (A) (A) (A) (A)
                 (A) (A) (A) (A) (A) (A) (A) (A) (A) (A) (A) (A)
                 (A) (A) (A) (A) (A) (A) (A) (A) (A) (A) (A) (A)
                 (A) (A) (A) (A) (A) (A) (A) (A) (A) (A) (A) (A)
                 (A) (A) (A) (A) (A) (A) (A) (A) (A) (A) (A) (A)
 The electronic state is 1-A.
 Alpha  occ. eigenvalues --  -77.24019 -19.32776 -19.31226 -10.40474 -10.39680
 Alpha  occ. eigenvalues --  -10.28287 -10.28104 -10.28052 -10.27717 -10.27662
 Alpha  occ. eigenvalues --   -6.68329  -4.83029  -4.83009  -4.82718  -3.35738
 Alpha  occ. eigenvalues --   -2.11306  -2.10111  -2.09184  -1.24303  -1.22733
 Alpha  occ. eigenvalues --   -0.87813  -0.85058  -0.79746  -0.79626  -0.66947
 Alpha  occ. eigenvalues --   -0.66517  -0.64985  -0.63894  -0.56335  -0.55962
 Alpha  occ. eigenvalues --   -0.55400  -0.54276  -0.54096  -0.53769  -0.53595
 Alpha  occ. eigenvalues --   -0.53298  -0.52234  -0.52177  -0.50237  -0.49288
 Alpha  occ. eigenvalues --   -0.49087  -0.47531  -0.43110  -0.42508  -0.42432
 Alpha  occ. eigenvalues --   -0.40967  -0.38345  -0.37359  -0.35993  -0.34954
 Alpha  occ. eigenvalues --   -0.30378  -0.27670
 Alpha virt. eigenvalues --    0.04087   0.06096   0.06460   0.06965   0.07315
 Alpha virt. eigenvalues --    0.07607   0.08081   0.08613   0.09113   0.10369
 Alpha virt. eigenvalues --    0.13228   0.13329   0.13825   0.15218   0.16192
 Alpha virt. eigenvalues --    0.17439   0.17614   0.17751   0.18678   0.19491
 Alpha virt. eigenvalues --    0.20108   0.20558   0.20842   0.21044   0.22103
 Alpha virt. eigenvalues --    0.22834   0.23492   0.24334   0.24555   0.24889
 Alpha virt. eigenvalues --    0.26115   0.26372   0.27414   0.28340   0.29430
 Alpha virt. eigenvalues --    0.31190   0.31535   0.31751   0.32818   0.33563
 Alpha virt. eigenvalues --    0.34079   0.35013   0.36155   0.37038   0.37282
 Alpha virt. eigenvalues --    0.38496   0.40448   0.41590   0.42896   0.44253
 Alpha virt. eigenvalues --    0.44556   0.45004   0.45461   0.46053   0.47288
 Alpha virt. eigenvalues --    0.47785   0.48554   0.49703   0.49818   0.50304
 Alpha virt. eigenvalues --    0.50578   0.51458   0.52039   0.52527   0.53398
 Alpha virt. eigenvalues --    0.53783   0.54197   0.55397   0.55811   0.56299
 Alpha virt. eigenvalues --    0.56319   0.56718   0.58354   0.58800   0.59436
 Alpha virt. eigenvalues --    0.59987   0.61551   0.62635   0.63260   0.64088
 Alpha virt. eigenvalues --    0.64484   0.64761   0.66233   0.67694   0.68760
 Alpha virt. eigenvalues --    0.70561   0.71210   0.72765   0.73083   0.73963
 Alpha virt. eigenvalues --    0.75741   0.76853   0.77757   0.79745   0.80468
 Alpha virt. eigenvalues --    0.81283   0.82372   0.83307   0.83703   0.85899
 Alpha virt. eigenvalues --    0.87500   0.87811   0.88295   0.89660   0.90830
 Alpha virt. eigenvalues --    0.91542   0.95893   0.96653   0.97622   0.98071
 Alpha virt. eigenvalues --    0.98449   0.98856   1.01121   1.01480   1.03421
 Alpha virt. eigenvalues --    1.05199   1.05804   1.07324   1.08395   1.08988
 Alpha virt. eigenvalues --    1.09157   1.11515   1.13164   1.13402   1.13578
 Alpha virt. eigenvalues --    1.14600   1.16199   1.17047   1.17751   1.19480
 Alpha virt. eigenvalues --    1.22060   1.25371   1.27230   1.29754   1.32374
 Alpha virt. eigenvalues --    1.35597   1.37139   1.38885   1.39590   1.50219
 Alpha virt. eigenvalues --    1.50872   1.52440   1.53210   1.53671   1.54474
 Alpha virt. eigenvalues --    1.55624   1.56875   1.58722   1.59034   1.59417
 Alpha virt. eigenvalues --    1.60457   1.60952   1.61362   1.61917   1.62703
 Alpha virt. eigenvalues --    1.62811   1.63397   1.64519   1.65255   1.65519
 Alpha virt. eigenvalues --    1.65864   1.66413   1.66728   1.67211   1.68666
 Alpha virt. eigenvalues --    1.69145   1.69591   1.71139   1.71648   1.72037
 Alpha virt. eigenvalues --    1.73060   1.73387   1.74190   1.74776   1.75899
 Alpha virt. eigenvalues --    1.76740   1.80736   1.82232   1.84908   1.88155
 Alpha virt. eigenvalues --    1.90526   1.93019   1.94061   1.95027   1.95885
 Alpha virt. eigenvalues --    1.97879   1.99888   2.02327   2.04728   2.06362
 Alpha virt. eigenvalues --    2.07353   2.08687   2.10126   2.10559   2.11386
 Alpha virt. eigenvalues --    2.13480   2.15635   2.15840   2.16919   2.17540
 Alpha virt. eigenvalues --    2.18369   2.19309   2.21062   2.23207   2.25525
 Alpha virt. eigenvalues --    2.27319   2.29344   2.30429   2.33108   2.34682
 Alpha virt. eigenvalues --    2.36684   2.38767   2.39128   2.40430   2.41283
 Alpha virt. eigenvalues --    2.43576   2.44418   2.45142   2.46347   2.47634
 Alpha virt. eigenvalues --    2.50145   2.51717   2.52440   2.53838   2.56171
 Alpha virt. eigenvalues --    2.58608   2.60026   2.61992   2.62997   2.63580
 Alpha virt. eigenvalues --    2.64101   2.66180   2.67886   2.68434   2.69761
 Alpha virt. eigenvalues --    2.70691   2.72077   2.73831   2.74294   2.74698
 Alpha virt. eigenvalues --    2.75147   2.76037   2.76753   2.77138   2.79679
 Alpha virt. eigenvalues --    2.83753   2.86492   2.86570   2.88166   2.90488
 Alpha virt. eigenvalues --    2.91813   2.92492   2.93101   2.95020   2.96483
 Alpha virt. eigenvalues --    2.97199   2.98115   2.98997   2.99160   3.01032
 Alpha virt. eigenvalues --    3.03269   3.03530   3.04563   3.06103   3.07945
 Alpha virt. eigenvalues --    3.09442   3.09819   3.10597   3.14215   3.15070
 Alpha virt. eigenvalues --    3.16228   3.17016   3.18953   3.19328   3.19820
 Alpha virt. eigenvalues --    3.21337   3.22872   3.24637   3.25244   3.26040
 Alpha virt. eigenvalues --    3.27027   3.28499   3.29566   3.30170   3.31170
 Alpha virt. eigenvalues --    3.33319   3.35992   3.36991   3.37996   3.39906
 Alpha virt. eigenvalues --    3.40659   3.41005   3.41581   3.42965   3.43645
 Alpha virt. eigenvalues --    3.45146   3.45438   3.46301   3.49326   3.55558
 Alpha virt. eigenvalues --    3.56549   3.57160   3.58656   3.61876   3.62954
 Alpha virt. eigenvalues --    3.63359   3.64532   3.66587   3.68856   3.69162
 Alpha virt. eigenvalues --    3.69790   3.70166   3.71534   3.73133   3.73979
 Alpha virt. eigenvalues --    3.76361   3.77789   3.79106   3.80101   3.80289
 Alpha virt. eigenvalues --    3.86156   3.90809   4.01310   4.03527   4.13783
 Alpha virt. eigenvalues --    4.27066   4.28859   4.32185   4.34686   4.34862
 Alpha virt. eigenvalues --    4.35275   4.37450   4.38758   4.40678   4.41501
 Alpha virt. eigenvalues --    4.47164   4.47662   4.52843   4.53208   4.57470
 Alpha virt. eigenvalues --    4.60846   4.80158   4.97041   5.18732   5.18759
 Alpha virt. eigenvalues --    5.20046   5.20061   5.57974   5.58537   5.59112
 Alpha virt. eigenvalues --    5.60231   6.30201   6.30615   6.32933   6.34169
 Alpha virt. eigenvalues --    6.34905   6.35390   6.35948   6.36474   6.62903
 Alpha virt. eigenvalues --    6.63467   6.81499   6.81738   6.83663   6.84176
 Alpha virt. eigenvalues --    7.16204   7.17617   7.79543   7.90278   7.91010
 Alpha virt. eigenvalues --   15.66399  22.40584  22.41702  22.42391  22.45618
 Alpha virt. eigenvalues --   22.66435  22.69246  22.79437  38.38632  38.51124
 Alpha virt. eigenvalues --   38.62574  43.93423  43.95737  49.77695
          Condensed to atoms (all electrons):
               1          2          3          4          5          6
     1  H    0.697879   0.327755   0.020013  -0.006060  -0.006156   0.001826
     2  Rh   0.327755  16.008068   0.270909  -0.036898  -0.038838  -0.030503
     3  P    0.020013   0.270909  13.743461   0.335881   0.342671   0.323022
     4  C   -0.006060  -0.036898   0.335881   5.023223  -0.039363  -0.035924
     5  C   -0.006156  -0.038838   0.342671  -0.039363   5.016850  -0.033769
     6  C    0.001826  -0.030503   0.323022  -0.035924  -0.033769   5.031108
     7  H   -0.000013  -0.003082  -0.024672  -0.000532   0.004065   0.401714
     8  H   -0.000014   0.006684  -0.026050  -0.004737  -0.005290   0.393865
     9  H   -0.000045  -0.002405  -0.024297   0.004102  -0.000779   0.400906
    10  H    0.000015  -0.006398  -0.019423   0.398962   0.004557  -0.001140
    11  H    0.000180  -0.002644  -0.024076   0.401850  -0.001047   0.004257
    12  H    0.000128   0.007969  -0.028959   0.396362  -0.005970  -0.005355
    13  H    0.000529  -0.001937  -0.022419  -0.001136   0.399924   0.004136
    14  H    0.000220  -0.005185  -0.019799   0.004423   0.397549  -0.001698
    15  H    0.000107   0.008015  -0.030058  -0.005655   0.395801  -0.005998
    16  C    0.000469   0.195597  -0.000713   0.000793  -0.000861  -0.000863
    17  O   -0.003237  -0.016123  -0.001033  -0.000016   0.000659   0.000043
    18  C   -0.000363   0.174423   0.000555  -0.000567   0.000839  -0.000667
    19  C    0.003622   0.133671  -0.012476   0.000636   0.000043   0.000240
    20  H    0.000676  -0.018921   0.000445  -0.000026   0.000002  -0.000033
    21  H   -0.004221  -0.013083   0.000339  -0.000073   0.000003   0.000012
    22  H   -0.008509  -0.012560  -0.004282   0.001469   0.000018  -0.000084
    23  H    0.001567  -0.020939  -0.001876   0.000759  -0.000062   0.000429
    24  C   -0.019064   0.116061  -0.003544   0.000662   0.000321  -0.007863
    25  O    0.000288   0.002492  -0.004424   0.000033   0.000040   0.002202
               7          8          9         10         11         12
     1  H   -0.000013  -0.000014  -0.000045   0.000015   0.000180   0.000128
     2  Rh  -0.003082   0.006684  -0.002405  -0.006398  -0.002644   0.007969
     3  P   -0.024672  -0.026050  -0.024297  -0.019423  -0.024076  -0.028959
     4  C   -0.000532  -0.004737   0.004102   0.398962   0.401850   0.396362
     5  C    0.004065  -0.005290  -0.000779   0.004557  -0.001047  -0.005970
     6  C    0.401714   0.393865   0.400906  -0.001140   0.004257  -0.005355
     7  H    0.496571  -0.019846  -0.015627   0.000764  -0.000131  -0.000293
     8  H   -0.019846   0.519488  -0.019491  -0.000159  -0.000118   0.003907
     9  H   -0.015627  -0.019491   0.495505  -0.000087  -0.000079  -0.000109
    10  H    0.000764  -0.000159  -0.000087   0.498640  -0.015252  -0.020934
    11  H   -0.000131  -0.000118  -0.000079  -0.015252   0.491931  -0.020023
    12  H   -0.000293   0.003907  -0.000109  -0.020934  -0.020023   0.522603
    13  H   -0.000076  -0.000075  -0.000110  -0.000090   0.000918  -0.000103
    14  H   -0.000088  -0.000104   0.000702  -0.000081  -0.000085  -0.000067
    15  H   -0.000103   0.004086  -0.000211  -0.000102  -0.000140   0.003749
    16  C    0.000006   0.000035  -0.000387  -0.000125   0.000136   0.000019
    17  O   -0.000001  -0.000001  -0.000016   0.000000  -0.000001   0.000000
    18  C   -0.000256   0.000012   0.000078   0.001794  -0.000578   0.000117
    19  C   -0.000040  -0.000008  -0.000014  -0.000101  -0.000123  -0.000025
    20  H    0.000005   0.000000  -0.000000   0.000007   0.000000   0.000001
    21  H    0.000001  -0.000000   0.000000  -0.000001   0.000014   0.000000
    22  H   -0.000010  -0.000005   0.000006  -0.000879  -0.000206  -0.000065
    23  H    0.000073  -0.000014  -0.000017  -0.000420   0.000054  -0.000051
    24  C   -0.000405   0.000420  -0.000051   0.000119  -0.000023  -0.000030
    25  O   -0.000097  -0.000036  -0.000130  -0.000014  -0.000000  -0.000002
              13         14         15         16         17         18
     1  H    0.000529   0.000220   0.000107   0.000469  -0.003237  -0.000363
     2  Rh  -0.001937  -0.005185   0.008015   0.195597  -0.016123   0.174423
     3  P   -0.022419  -0.019799  -0.030058  -0.000713  -0.001033   0.000555
     4  C   -0.001136   0.004423  -0.005655   0.000793  -0.000016  -0.000567
     5  C    0.399924   0.397549   0.395801  -0.000861   0.000659   0.000839
     6  C    0.004136  -0.001698  -0.005998  -0.000863   0.000043  -0.000667
     7  H   -0.000076  -0.000088  -0.000103   0.000006  -0.000001  -0.000256
     8  H   -0.000075  -0.000104   0.004086   0.000035  -0.000001   0.000012
     9  H   -0.000110   0.000702  -0.000211  -0.000387  -0.000016   0.000078
    10  H   -0.000090  -0.000081  -0.000102  -0.000125   0.000000   0.001794
    11  H    0.000918  -0.000085  -0.000140   0.000136  -0.000001  -0.000578
    12  H   -0.000103  -0.000067   0.003749   0.000019   0.000000   0.000117
    13  H    0.491510  -0.013847  -0.020574  -0.000867  -0.000226   0.000103
    14  H   -0.013847   0.497973  -0.020715   0.001515  -0.000079  -0.000063
    15  H   -0.020574  -0.020715   0.526003   0.000107  -0.000025  -0.000012
    16  C   -0.000867   0.001515   0.000107   5.255149   0.548821  -0.010217
    17  O   -0.000226  -0.000079  -0.000025   0.548821   7.600344   0.000348
    18  C    0.000103  -0.000063  -0.000012  -0.010217   0.000348   5.071675
    19  C   -0.000023  -0.000003  -0.000007   0.001781  -0.000649   0.349814
    20  H    0.000001   0.000001   0.000000  -0.000951   0.000069  -0.044363
    21  H   -0.000001  -0.000001   0.000000  -0.003114   0.000141  -0.029194
    22  H   -0.000021   0.000003  -0.000005   0.000685  -0.000010   0.408784
    23  H    0.000002   0.000002  -0.000000  -0.000101  -0.000007   0.423362
    24  C   -0.000058  -0.000166   0.000011   0.012658  -0.002234  -0.017313
    25  O   -0.000000  -0.000012  -0.000002  -0.003312   0.000135  -0.001553
              19         20         21         22         23         24
     1  H    0.003622   0.000676  -0.004221  -0.008509   0.001567  -0.019064
     2  Rh   0.133671  -0.018921  -0.013083  -0.012560  -0.020939   0.116061
     3  P   -0.012476   0.000445   0.000339  -0.004282  -0.001876  -0.003544
     4  C    0.000636  -0.000026  -0.000073   0.001469   0.000759   0.000662
     5  C    0.000043   0.000002   0.000003   0.000018  -0.000062   0.000321
     6  C    0.000240  -0.000033   0.000012  -0.000084   0.000429  -0.007863
     7  H   -0.000040   0.000005   0.000001  -0.000010   0.000073  -0.000405
     8  H   -0.000008   0.000000  -0.000000  -0.000005  -0.000014   0.000420
     9  H   -0.000014  -0.000000   0.000000   0.000006  -0.000017  -0.000051
    10  H   -0.000101   0.000007  -0.000001  -0.000879  -0.000420   0.000119
    11  H   -0.000123   0.000000   0.000014  -0.000206   0.000054  -0.000023
    12  H   -0.000025   0.000001   0.000000  -0.000065  -0.000051  -0.000030
    13  H   -0.000023   0.000001  -0.000001  -0.000021   0.000002  -0.000058
    14  H   -0.000003   0.000001  -0.000001   0.000003   0.000002  -0.000166
    15  H   -0.000007   0.000000   0.000000  -0.000005  -0.000000   0.000011
    16  C    0.001781  -0.000951  -0.003114   0.000685  -0.000101   0.012658
    17  O   -0.000649   0.000069   0.000141  -0.000010  -0.000007  -0.002234
    18  C    0.349814  -0.044363  -0.029194   0.408784   0.423362  -0.017313
    19  C    5.016901   0.436988   0.418640  -0.021626  -0.038438  -0.012145
    20  H    0.436988   0.513586  -0.025470   0.002265  -0.004946  -0.004883
    21  H    0.418640  -0.025470   0.512835  -0.005226   0.002261   0.001496
    22  H   -0.021626   0.002265  -0.005226   0.523461  -0.028690   0.003230
    23  H   -0.038438  -0.004946   0.002261  -0.028690   0.535306  -0.008651
    24  C   -0.012145  -0.004883   0.001496   0.003230  -0.008651   5.415336
    25  O   -0.000147   0.000750  -0.000049  -0.000043   0.001275   0.531423
              25
     1  H    0.000288
     2  Rh   0.002492
     3  P   -0.004424
     4  C    0.000033
     5  C    0.000040
     6  C    0.002202
     7  H   -0.000097
     8  H   -0.000036
     9  H   -0.000130
    10  H   -0.000014
    11  H   -0.000000
    12  H   -0.000002
    13  H   -0.000000
    14  H   -0.000012
    15  H   -0.000002
    16  C   -0.003312
    17  O    0.000135
    18  C   -0.001553
    19  C   -0.000147
    20  H    0.000750
    21  H   -0.000049
    22  H   -0.000043
    23  H    0.001275
    24  C    0.531423
    25  O    7.576693
 Mulliken charges:
               1
     1  H   -0.007594
     2  Rh  -0.042132
     3  P    0.210803
     4  C   -0.438171
     5  C   -0.431209
     6  C   -0.439865
     7  H    0.162072
     8  H    0.147448
     9  H    0.162554
    10  H    0.160348
    11  H    0.165185
    12  H    0.147134
    13  H    0.164440
    14  H    0.159606
    15  H    0.145724
    16  C    0.003738
    17  O   -0.126903
    18  C   -0.326759
    19  C   -0.276513
    20  H    0.144797
    21  H    0.144691
    22  H    0.142300
    23  H    0.139122
    24  C   -0.005306
    25  O   -0.105511
 Sum of Mulliken charges =  -0.00000
 Mulliken charges with hydrogens summed into heavy atoms:
               1
     2  Rh  -0.049725
     3  P    0.210803
     4  C    0.034496
     5  C    0.038562
     6  C    0.032209
    16  C    0.003738
    17  O   -0.126903
    18  C   -0.045337
    19  C    0.012974
    24  C   -0.005306
    25  O   -0.105511
 Electronic spatial extent (au):  <R**2>=           2550.9433
 Charge=             -0.0000 electrons
 Dipole moment (field-independent basis, Debye):
    X=             -4.8071    Y=             -1.1974    Z=              0.2645  Tot=              4.9611
 Quadrupole moment (field-independent basis, Debye-Ang):
   XX=            -83.7882   YY=            -93.9781   ZZ=            -91.7954
   XY=             -2.0365   XZ=             -0.0531   YZ=              0.8097
 Traceless Quadrupole moment (field-independent basis, Debye-Ang):
   XX=              6.0657   YY=             -4.1242   ZZ=             -1.9415
   XY=             -2.0365   XZ=             -0.0531   YZ=              0.8097
 Octapole moment (field-independent basis, Debye-Ang**2):
  XXX=              8.8529  YYY=             -8.6428  ZZZ=            -11.7444  XYY=             -5.3274
  XXY=             -0.2369  XXZ=              0.7351  XZZ=              2.3266  YZZ=              9.0118
  YYZ=              3.9654  XYZ=             -0.6155
 Hexadecapole moment (field-independent basis, Debye-Ang**3):
 XXXX=          -1601.1464 YYYY=          -1031.0669 ZZZZ=           -783.4853 XXXY=              5.8638
 XXXZ=              8.9252 YYYX=             -6.9367 YYYZ=            -22.3120 ZZZX=             -7.4945
 ZZZY=              6.1525 XXYY=           -464.5860 XXZZ=           -408.7613 YYZZ=           -292.8946
 XXYZ=             -8.7936 YYXZ=             10.0471 ZZXY=             14.7799
 N-N= 8.765873028274D+02 E-N=-3.791351164718D+03  KE= 8.047590654425D+02
 No NMR shielding tensors so no spin-rotation constants.
 Leave Link  601 at Tue Oct  4 17:20:30 2022, MaxMem=  2952790016 cpu:               5.4 elap:               0.5
 (Enter /mnt/data/applications/G16/g16/l9999.exe)
 1\1\GINC-KIMIK2158\FOpt\RwB97XD\Gen\C7H14O2P1Rh1\DGARAY\04-Oct-2022\0\
 \#p opt=(maxstep=5) freq pseudo=read WB97XD gen scrf(smd,solvent=tolue
 ne)\\Auto-generated job for I3\\0,1\H,0.2699791716,0.4382847137,-1.708
 72541\Rh,0.6549030152,0.0262864957,-0.2172073162\P,-1.6743485254,0.015
 3717618,-0.0256518988\C,-2.5590811215,-1.1023738636,-1.1557665782\C,-2
 .4605395616,1.6216514021,-0.3605512456\C,-2.37494658,-0.4352133507,1.5
 942765234\H,-2.0558945929,-1.4443967801,1.8598971558\H,-3.4664801427,-
 0.397243426,1.5851573353\H,-2.0004693633,0.2520729861,2.3545930278\H,-
 2.2542557752,-2.1312293469,-0.9600197418\H,-2.2931617431,-0.857475843,
 -2.1847222571\H,-3.6414667792,-1.0201190401,-1.0337766847\H,-2.1909857
 724,1.9480576608,-1.3657761963\H,-2.082179096,2.3603923516,0.347649155
 \H,-3.5482382239,1.566366745,-0.2773013291\C,1.2888236191,1.8303662283
 ,-0.1151694359\O,1.6222739569,2.9200999918,-0.1012497049\C,1.008950661
 6,-1.9769027152,-1.0659314212\C,2.2008024774,-1.244377053,-1.143156900
 9\H,3.0071744276,-1.4453489425,-0.448252127\H,2.5101132052,-0.81012702
 26,-2.0849996139\H,0.4056349446,-2.1180065816,-1.9540712133\H,0.902567
 5417,-2.7552790992,-0.31891065\C,1.0490904423,-0.5534562256,1.59155622
 88\O,1.2610798139,-0.9067260466,2.6506472987\\Version=AM64L-G16RevA.03
 \State=1-A\HF=-877.6735425\RMSD=4.768e-09\RMSF=9.519e-06\Dipole=-1.889
 2165,-0.4768249,0.1145931\Quadrupole=4.5212298,-3.0595986,-1.4616312,-
 1.4840407,-0.0305655,0.6285502\PG=C01 [X(C7H14O2P1Rh1)]\\@


 REVOLUTIONS HAVE NEVER LIGHTENED THE BURDEN OF TYRANNY:
 THEY HAVE MERELY SHIFTED IT TO OTHER SHOULDERS.
                                   -- G. B. SHAW (1903)
 Leave Link 9999 at Tue Oct  4 17:20:30 2022, MaxMem=  2952790016 cpu:               0.3 elap:               0.0
 Job cpu time:       0 days 17 hours 49 minutes  5.9 seconds.
 Elapsed time:       0 days  1 hours 29 minutes 42.7 seconds.
 File lengths (MBytes):  RWF=    209 Int=      0 D2E=      0 Chk=     19 Scr=      1
 Normal termination of Gaussian 16 at Tue Oct  4 17:20:31 2022.
 (Enter /mnt/data/applications/G16/g16/l1.exe)
 Link1:  Proceeding to internal job step number  2.
 -------------------------------------------------------------------
 #P Geom=AllCheck Guess=TCheck SCRF=Check GenChk RwB97XD/ChkBas Freq
 -------------------------------------------------------------------
 1/8=5,10=4,29=7,30=1,38=1,40=1/1,3;
 2/12=2,40=1/2;
 3/5=7,6=2,11=2,14=-4,16=1,17=8,25=1,30=1,67=1,70=2,71=2,74=-58,82=7,116=1,140=1/1,2,3;
 4/5=101/1;
 5/5=2,38=6,98=1/2;
 8/6=4,10=90,11=11/1;
 11/6=1,8=1,9=11,15=111,16=1/1,2,10;
 10/6=1/2;
 6/7=2,8=2,9=2,10=2,28=1/1;
 7/8=1,10=1,25=1/1,2,3,16;
 1/8=5,10=4,30=1/3;
 99//99;
 Leave Link    1 at Tue Oct  4 17:20:31 2022, MaxMem=  2952790016 cpu:               0.6 elap:               0.0
 (Enter /mnt/data/applications/G16/g16/l101.exe)
 Structure from the checkpoint file:  "I3.chk"
 -------------------------
 Auto-generated job for I3
 -------------------------
 Charge =  0 Multiplicity = 1
 Redundant internal coordinates found in file.  (old form).
 H,0,0.2699791716,0.4382847137,-1.70872541
 Rh,0,0.6549030152,0.0262864957,-0.2172073162
 P,0,-1.6743485254,0.0153717618,-0.0256518988
 C,0,-2.5590811215,-1.1023738636,-1.1557665782
 C,0,-2.4605395616,1.6216514021,-0.3605512456
 C,0,-2.37494658,-0.4352133507,1.5942765234
 H,0,-2.0558945929,-1.4443967801,1.8598971558
 H,0,-3.4664801427,-0.397243426,1.5851573353
 H,0,-2.0004693633,0.2520729861,2.3545930278
 H,0,-2.2542557752,-2.1312293469,-0.9600197418
 H,0,-2.2931617431,-0.857475843,-2.1847222571
 H,0,-3.6414667792,-1.0201190401,-1.0337766847
 H,0,-2.1909857724,1.9480576608,-1.3657761963
 H,0,-2.082179096,2.3603923516,0.347649155
 H,0,-3.5482382239,1.566366745,-0.2773013291
 C,0,1.2888236191,1.8303662283,-0.1151694359
 O,0,1.6222739569,2.9200999918,-0.1012497049
 C,0,1.0089506616,-1.9769027152,-1.0659314212
 C,0,2.2008024774,-1.244377053,-1.1431569009
 H,0,3.0071744276,-1.4453489425,-0.448252127
 H,0,2.5101132052,-0.8101270226,-2.0849996139
 H,0,0.4056349446,-2.1180065816,-1.9540712133
 H,0,0.9025675417,-2.7552790992,-0.31891065
 C,0,1.0490904423,-0.5534562256,1.5915562288
 O,0,1.2610798139,-0.9067260466,2.6506472987
 Recover connectivity data from disk.
 ITRead=  0  0  0  0  0  0  0  0  0  0  0  0  0  0  0  0  0  0  0  0
 ITRead=  0  0  0  0  0
 MicOpt= -1 -1 -1 -1 -1 -1 -1 -1 -1 -1 -1 -1 -1 -1 -1 -1 -1 -1 -1 -1
 MicOpt= -1 -1 -1 -1 -1
 NAtoms=     25 NQM=       25 NQMF=       0 NMMI=      0 NMMIF=      0
                NMic=       0 NMicF=      0.
                    Isotopes and Nuclear Properties:
 (Nuclear quadrupole moments (NQMom) in fm**2, nuclear magnetic moments (NMagM)
  in nuclear magnetons)

  Atom         1           2           3           4           5           6           7           8           9          10
 IAtWgt=           1         103          31          12          12          12           1           1           1           1
 AtmWgt=   1.0078250 102.9048000  30.9737634  12.0000000  12.0000000  12.0000000   1.0078250   1.0078250   1.0078250   1.0078250
 NucSpn=           1           1           1           0           0           0           1           1           1           1
 AtZEff=   1.0000000 229.5000000  12.9400000   3.6000000   3.6000000   3.6000000   1.0000000   1.0000000   1.0000000   1.0000000
 NQMom=    0.0000000   0.0000000   0.0000000   0.0000000   0.0000000   0.0000000   0.0000000   0.0000000   0.0000000   0.0000000
 NMagM=    2.7928460  -0.0884000   1.1316000   0.0000000   0.0000000   0.0000000   2.7928460   2.7928460   2.7928460   2.7928460
 AtZNuc=   1.0000000  45.0000000  15.0000000   6.0000000   6.0000000   6.0000000   1.0000000   1.0000000   1.0000000   1.0000000

  Atom        11          12          13          14          15          16          17          18          19          20
 IAtWgt=           1           1           1           1           1          12          16          12          12           1
 AtmWgt=   1.0078250   1.0078250   1.0078250   1.0078250   1.0078250  12.0000000  15.9949146  12.0000000  12.0000000   1.0078250
 NucSpn=           1           1           1           1           1           0           0           0           0           1
 AtZEff=   1.0000000   1.0000000   1.0000000   1.0000000   1.0000000   3.6000000   5.6000000   3.6000000   3.6000000   1.0000000
 NQMom=    0.0000000   0.0000000   0.0000000   0.0000000   0.0000000   0.0000000   0.0000000   0.0000000   0.0000000   0.0000000
 NMagM=    2.7928460   2.7928460   2.7928460   2.7928460   2.7928460   0.0000000   0.0000000   0.0000000   0.0000000   2.7928460
 AtZNuc=   1.0000000   1.0000000   1.0000000   1.0000000   1.0000000   6.0000000   8.0000000   6.0000000   6.0000000   1.0000000

  Atom        21          22          23          24          25
 IAtWgt=           1           1           1          12          16
 AtmWgt=   1.0078250   1.0078250   1.0078250  12.0000000  15.9949146
 NucSpn=           1           1           1           0           0
 AtZEff=   1.0000000   1.0000000   1.0000000   3.6000000   5.6000000
 NQMom=    0.0000000   0.0000000   0.0000000   0.0000000   0.0000000
 NMagM=    2.7928460   2.7928460   2.7928460   0.0000000   0.0000000
 AtZNuc=   1.0000000   1.0000000   1.0000000   6.0000000   8.0000000
 Leave Link  101 at Tue Oct  4 17:20:31 2022, MaxMem=  2952790016 cpu:               4.6 elap:               0.4
 (Enter /mnt/data/applications/G16/g16/l103.exe)

 GradGradGradGradGradGradGradGradGradGradGradGradGradGradGradGradGradGrad
 Berny optimization.
 Initialization pass.
                           ----------------------------
                           !    Initial Parameters    !
                           ! (Angstroms and Degrees)  !
 --------------------------                            --------------------------
 ! Name  Definition              Value          Derivative Info.                !
 --------------------------------------------------------------------------------
 ! R1    R(1,2)                  1.5945         calculate D2E/DX2 analytically  !
 ! R2    R(2,3)                  2.3371         calculate D2E/DX2 analytically  !
 ! R3    R(2,16)                 1.9149         calculate D2E/DX2 analytically  !
 ! R4    R(2,18)                 2.2042         calculate D2E/DX2 analytically  !
 ! R5    R(2,19)                 2.2049         calculate D2E/DX2 analytically  !
 ! R6    R(2,24)                 1.9399         calculate D2E/DX2 analytically  !
 ! R7    R(3,4)                  1.8191         calculate D2E/DX2 analytically  !
 ! R8    R(3,5)                  1.8194         calculate D2E/DX2 analytically  !
 ! R9    R(3,6)                  1.8215         calculate D2E/DX2 analytically  !
 ! R10   R(4,10)                 1.0908         calculate D2E/DX2 analytically  !
 ! R11   R(4,11)                 1.0906         calculate D2E/DX2 analytically  !
 ! R12   R(4,12)                 1.0923         calculate D2E/DX2 analytically  !
 ! R13   R(5,13)                 1.0907         calculate D2E/DX2 analytically  !
 ! R14   R(5,14)                 1.0911         calculate D2E/DX2 analytically  !
 ! R15   R(5,15)                 1.0923         calculate D2E/DX2 analytically  !
 ! R16   R(6,7)                  1.0912         calculate D2E/DX2 analytically  !
 ! R17   R(6,8)                  1.0922         calculate D2E/DX2 analytically  !
 ! R18   R(6,9)                  1.0912         calculate D2E/DX2 analytically  !
 ! R19   R(16,17)                1.1397         calculate D2E/DX2 analytically  !
 ! R20   R(18,19)                1.4011         calculate D2E/DX2 analytically  !
 ! R21   R(18,22)                1.0829         calculate D2E/DX2 analytically  !
 ! R22   R(18,23)                1.0841         calculate D2E/DX2 analytically  !
 ! R23   R(19,20)                1.0833         calculate D2E/DX2 analytically  !
 ! R24   R(19,21)                1.0823         calculate D2E/DX2 analytically  !
 ! R25   R(24,25)                1.1364         calculate D2E/DX2 analytically  !
 ! A1    A(1,2,3)               80.6355         calculate D2E/DX2 analytically  !
 ! A2    A(1,2,16)              83.4732         calculate D2E/DX2 analytically  !
 ! A3    A(1,2,18)              85.0332         calculate D2E/DX2 analytically  !
 ! A4    A(1,2,19)              85.7181         calculate D2E/DX2 analytically  !
 ! A5    A(3,2,16)             109.2661         calculate D2E/DX2 analytically  !
 ! A6    A(3,2,18)             100.801          calculate D2E/DX2 analytically  !
 ! A7    A(3,2,19)             136.9256         calculate D2E/DX2 analytically  !
 ! A8    A(3,2,24)              97.1634         calculate D2E/DX2 analytically  !
 ! A9    A(16,2,18)            145.4412         calculate D2E/DX2 analytically  !
 ! A10   A(16,2,19)            109.4632         calculate D2E/DX2 analytically  !
 ! A11   A(16,2,24)             99.4742         calculate D2E/DX2 analytically  !
 ! A12   A(18,2,24)             93.1404         calculate D2E/DX2 analytically  !
 ! A13   A(19,2,24)             94.4086         calculate D2E/DX2 analytically  !
 ! A14   A(2,3,4)              115.8908         calculate D2E/DX2 analytically  !
 ! A15   A(2,3,5)              114.2951         calculate D2E/DX2 analytically  !
 ! A16   A(2,3,6)              117.2171         calculate D2E/DX2 analytically  !
 ! A17   A(4,3,5)              102.5885         calculate D2E/DX2 analytically  !
 ! A18   A(4,3,6)              102.3233         calculate D2E/DX2 analytically  !
 ! A19   A(5,3,6)              102.4672         calculate D2E/DX2 analytically  !
 ! A20   A(3,4,10)             109.4            calculate D2E/DX2 analytically  !
 ! A21   A(3,4,11)             109.242          calculate D2E/DX2 analytically  !
 ! A22   A(3,4,12)             111.4857         calculate D2E/DX2 analytically  !
 ! A23   A(10,4,11)            108.2388         calculate D2E/DX2 analytically  !
 ! A24   A(10,4,12)            109.1413         calculate D2E/DX2 analytically  !
 ! A25   A(11,4,12)            109.2723         calculate D2E/DX2 analytically  !
 ! A26   A(3,5,13)             109.0896         calculate D2E/DX2 analytically  !
 ! A27   A(3,5,14)             109.1736         calculate D2E/DX2 analytically  !
 ! A28   A(3,5,15)             111.813          calculate D2E/DX2 analytically  !
 ! A29   A(13,5,14)            108.0523         calculate D2E/DX2 analytically  !
 ! A30   A(13,5,15)            109.359          calculate D2E/DX2 analytically  !
 ! A31   A(14,5,15)            109.2762         calculate D2E/DX2 analytically  !
 ! A32   A(3,6,7)              109.4377         calculate D2E/DX2 analytically  !
 ! A33   A(3,6,8)              111.6137         calculate D2E/DX2 analytically  !
 ! A34   A(3,6,9)              109.3818         calculate D2E/DX2 analytically  !
 ! A35   A(7,6,8)              109.0487         calculate D2E/DX2 analytically  !
 ! A36   A(7,6,9)              108.2129         calculate D2E/DX2 analytically  !
 ! A37   A(8,6,9)              109.0799         calculate D2E/DX2 analytically  !
 ! A38   A(2,18,22)            110.1651         calculate D2E/DX2 analytically  !
 ! A39   A(2,18,23)            111.8043         calculate D2E/DX2 analytically  !
 ! A40   A(19,18,22)           119.7913         calculate D2E/DX2 analytically  !
 ! A41   A(19,18,23)           119.7917         calculate D2E/DX2 analytically  !
 ! A42   A(22,18,23)           114.6401         calculate D2E/DX2 analytically  !
 ! A43   A(2,19,20)            111.0641         calculate D2E/DX2 analytically  !
 ! A44   A(2,19,21)            109.5483         calculate D2E/DX2 analytically  !
 ! A45   A(18,19,20)           120.0566         calculate D2E/DX2 analytically  !
 ! A46   A(18,19,21)           120.0568         calculate D2E/DX2 analytically  !
 ! A47   A(20,19,21)           114.8308         calculate D2E/DX2 analytically  !
 ! A48   L(1,2,24,3,-1)        177.7989         calculate D2E/DX2 analytically  !
 ! A49   L(2,16,17,5,-1)       177.5241         calculate D2E/DX2 analytically  !
 ! A50   L(2,24,25,6,-1)       179.0498         calculate D2E/DX2 analytically  !
 ! A51   L(1,2,24,3,-2)        177.6615         calculate D2E/DX2 analytically  !
 ! A52   L(2,16,17,5,-2)       182.3822         calculate D2E/DX2 analytically  !
 ! A53   L(2,24,25,6,-2)       179.2905         calculate D2E/DX2 analytically  !
 ! D1    D(1,2,3,4)             58.1278         calculate D2E/DX2 analytically  !
 ! D2    D(1,2,3,5)            -60.8788         calculate D2E/DX2 analytically  !
 ! D3    D(1,2,3,6)            179.2195         calculate D2E/DX2 analytically  !
 ! D4    D(16,2,3,4)           137.7767         calculate D2E/DX2 analytically  !
 ! D5    D(16,2,3,5)            18.7702         calculate D2E/DX2 analytically  !
 ! D6    D(16,2,3,6)          -101.1315         calculate D2E/DX2 analytically  !
 ! D7    D(18,2,3,4)           -24.9344         calculate D2E/DX2 analytically  !
 ! D8    D(18,2,3,5)          -143.9409         calculate D2E/DX2 analytically  !
 ! D9    D(18,2,3,6)            96.1574         calculate D2E/DX2 analytically  !
 ! D10   D(19,2,3,4)           -15.1825         calculate D2E/DX2 analytically  !
 ! D11   D(19,2,3,5)          -134.189          calculate D2E/DX2 analytically  !
 ! D12   D(19,2,3,6)           105.9093         calculate D2E/DX2 analytically  !
 ! D13   D(24,2,3,4)          -119.5337         calculate D2E/DX2 analytically  !
 ! D14   D(24,2,3,5)           121.4598         calculate D2E/DX2 analytically  !
 ! D15   D(24,2,3,6)             1.5581         calculate D2E/DX2 analytically  !
 ! D16   D(1,2,18,22)          -26.3331         calculate D2E/DX2 analytically  !
 ! D17   D(1,2,18,23)         -155.036          calculate D2E/DX2 analytically  !
 ! D18   D(3,2,18,22)           53.1309         calculate D2E/DX2 analytically  !
 ! D19   D(3,2,18,23)          -75.572          calculate D2E/DX2 analytically  !
 ! D20   D(16,2,18,22)         -97.2277         calculate D2E/DX2 analytically  !
 ! D21   D(16,2,18,23)         134.0695         calculate D2E/DX2 analytically  !
 ! D22   D(24,2,18,22)         151.0402         calculate D2E/DX2 analytically  !
 ! D23   D(24,2,18,23)          22.3373         calculate D2E/DX2 analytically  !
 ! D24   D(1,2,19,20)          156.6711         calculate D2E/DX2 analytically  !
 ! D25   D(1,2,19,21)           28.7708         calculate D2E/DX2 analytically  !
 ! D26   D(3,2,19,20)         -131.9315         calculate D2E/DX2 analytically  !
 ! D27   D(3,2,19,21)          100.1682         calculate D2E/DX2 analytically  !
 ! D28   D(16,2,19,20)          75.1447         calculate D2E/DX2 analytically  !
 ! D29   D(16,2,19,21)         -52.7556         calculate D2E/DX2 analytically  !
 ! D30   D(24,2,19,20)         -26.5293         calculate D2E/DX2 analytically  !
 ! D31   D(24,2,19,21)        -154.4296         calculate D2E/DX2 analytically  !
 ! D32   D(2,3,4,10)            61.5346         calculate D2E/DX2 analytically  !
 ! D33   D(2,3,4,11)           -56.7839         calculate D2E/DX2 analytically  !
 ! D34   D(2,3,4,12)          -177.654          calculate D2E/DX2 analytically  !
 ! D35   D(5,3,4,10)          -173.2257         calculate D2E/DX2 analytically  !
 ! D36   D(5,3,4,11)            68.4557         calculate D2E/DX2 analytically  !
 ! D37   D(5,3,4,12)           -52.4143         calculate D2E/DX2 analytically  !
 ! D38   D(6,3,4,10)           -67.2517         calculate D2E/DX2 analytically  !
 ! D39   D(6,3,4,11)           174.4297         calculate D2E/DX2 analytically  !
 ! D40   D(6,3,4,12)            53.5597         calculate D2E/DX2 analytically  !
 ! D41   D(2,3,5,13)            57.893          calculate D2E/DX2 analytically  !
 ! D42   D(2,3,5,14)           -59.9801         calculate D2E/DX2 analytically  !
 ! D43   D(2,3,5,15)           178.98           calculate D2E/DX2 analytically  !
 ! D44   D(4,3,5,13)           -68.3844         calculate D2E/DX2 analytically  !
 ! D45   D(4,3,5,14)           173.7425         calculate D2E/DX2 analytically  !
 ! D46   D(4,3,5,15)            52.7027         calculate D2E/DX2 analytically  !
 ! D47   D(6,3,5,13)          -174.2475         calculate D2E/DX2 analytically  !
 ! D48   D(6,3,5,14)            67.8794         calculate D2E/DX2 analytically  !
 ! D49   D(6,3,5,15)           -53.1604         calculate D2E/DX2 analytically  !
 ! D50   D(2,3,6,7)            -59.9981         calculate D2E/DX2 analytically  !
 ! D51   D(2,3,6,8)            179.1987         calculate D2E/DX2 analytically  !
 ! D52   D(2,3,6,9)             58.3938         calculate D2E/DX2 analytically  !
 ! D53   D(4,3,6,7)             67.951          calculate D2E/DX2 analytically  !
 ! D54   D(4,3,6,8)            -52.8522         calculate D2E/DX2 analytically  !
 ! D55   D(4,3,6,9)           -173.6571         calculate D2E/DX2 analytically  !
 ! D56   D(5,3,6,7)            174.0189         calculate D2E/DX2 analytically  !
 ! D57   D(5,3,6,8)             53.2157         calculate D2E/DX2 analytically  !
 ! D58   D(5,3,6,9)            -67.5893         calculate D2E/DX2 analytically  !
 ! D59   D(22,18,19,20)       -152.7519         calculate D2E/DX2 analytically  !
 ! D60   D(22,18,19,21)          0.8105         calculate D2E/DX2 analytically  !
 ! D61   D(23,18,19,20)         -0.9481         calculate D2E/DX2 analytically  !
 ! D62   D(23,18,19,21)        152.6144         calculate D2E/DX2 analytically  !
 --------------------------------------------------------------------------------
 Trust Radius=5.00D-02 FncErr=1.00D-07 GrdErr=1.00D-07 EigMax=2.50D+02 EigMin=1.00D-04
 Number of steps in this run=      2 maximum allowed number of steps=      2.
 GradGradGradGradGradGradGradGradGradGradGradGradGradGradGradGradGradGrad

 Leave Link  103 at Tue Oct  4 17:20:31 2022, MaxMem=  2952790016 cpu:               0.1 elap:               0.0
 (Enter /mnt/data/applications/G16/g16/l202.exe)
                          Input orientation:                          
 ---------------------------------------------------------------------
 Center     Atomic      Atomic             Coordinates (Angstroms)
 Number     Number       Type             X           Y           Z
 ---------------------------------------------------------------------
      1          1           0        0.269979    0.438285   -1.708725
      2         45           0        0.654903    0.026286   -0.217207
      3         15           0       -1.674349    0.015372   -0.025652
      4          6           0       -2.559081   -1.102374   -1.155767
      5          6           0       -2.460540    1.621651   -0.360551
      6          6           0       -2.374947   -0.435213    1.594277
      7          1           0       -2.055895   -1.444397    1.859897
      8          1           0       -3.466480   -0.397243    1.585157
      9          1           0       -2.000469    0.252073    2.354593
     10          1           0       -2.254256   -2.131229   -0.960020
     11          1           0       -2.293162   -0.857476   -2.184722
     12          1           0       -3.641467   -1.020119   -1.033777
     13          1           0       -2.190986    1.948058   -1.365776
     14          1           0       -2.082179    2.360392    0.347649
     15          1           0       -3.548238    1.566367   -0.277301
     16          6           0        1.288824    1.830366   -0.115169
     17          8           0        1.622274    2.920100   -0.101250
     18          6           0        1.008951   -1.976903   -1.065931
     19          6           0        2.200802   -1.244377   -1.143157
     20          1           0        3.007174   -1.445349   -0.448252
     21          1           0        2.510113   -0.810127   -2.085000
     22          1           0        0.405635   -2.118007   -1.954071
     23          1           0        0.902568   -2.755279   -0.318911
     24          6           0        1.049090   -0.553456    1.591556
     25          8           0        1.261080   -0.906726    2.650647
 ---------------------------------------------------------------------
                    Distance matrix (angstroms):
                    1          2          3          4          5
     1  H    0.000000
     2  Rh   1.594533   0.000000
     3  P    2.606147   2.337140   0.000000
     4  C    3.268482   3.533336   1.819139   0.000000
     5  C    3.267057   3.503101   1.819447   2.839435   0.000000
     6  C    4.320701   3.560119   1.821547   2.835797   2.838903
     7  H    4.657171   3.718292   2.414911   3.076427   3.807201
     8  H    5.050634   4.518152   2.444728   2.972078   2.978865
     9  H    4.658344   3.703531   2.414114   3.803840   3.075617
    10  H    3.678957   3.697276   2.411894   1.090770   3.806052
    11  H    2.911230   3.652840   2.409643   1.090614   3.082481
    12  H    4.228700   4.496726   2.440924   1.092340   2.970988
    13  H    2.907469   3.620980   2.407929   3.079729   1.090723
    14  H    3.668218   3.641254   2.409315   3.805055   1.091074
    15  H    4.230878   4.476813   2.445481   2.978642   1.092280
    16  C    2.348479   1.914934   3.476005   4.948755   3.763177
    17  O    3.251474   3.053426   4.394415   5.897121   4.292152
    18  C    2.606222   2.204189   3.500205   3.674741   5.048219
    19  C    2.622841   2.204943   4.225231   4.762018   5.527631
    20  H    3.553745   2.784290   4.922291   5.621513   6.269775
    21  H    2.591971   2.762253   4.736252   5.161939   5.796090
    22  H    2.571619   2.770708   3.549146   3.233936   4.973862
    23  H    3.539859   2.794421   3.795129   3.926249   5.519941
    24  C    3.533047   1.939874   3.218081   4.568150   4.567200
    25  O    4.668561   3.076126   4.077938   5.396359   5.413914
                    6          7          8          9         10
     6  C    0.000000
     7  H    1.091238   0.000000
     8  H    1.092232   1.778135   0.000000
     9  H    1.091181   1.767995   1.778435   0.000000
    10  H    3.068463   2.909127   3.309701   4.090378   0.000000
    11  H    3.803397   4.093863   3.974982   4.682110   1.767444
    12  H    2.975374   3.326770   2.697667   3.973965   1.778865
    13  H    3.804699   4.683158   3.979363   4.093142   4.099905
    14  H    3.074932   4.094387   3.324496   2.911960   4.681268
    15  H    2.980896   3.982387   2.707619   3.324128   3.976520
    16  C    4.634465   5.080561   5.519626   4.405699   5.381582
    17  O    5.487323   6.035218   6.304296   5.125798   6.425021
    18  C    4.572119   4.270517   5.436274   5.071975   3.268570
    19  C    5.393122   5.213234   6.346607   5.667830   4.546162
    20  H    5.844615   5.564371   6.865966   5.984453   5.330571
    21  H    6.127107   6.067366   7.025681   6.417446   5.070513
    22  H    4.811881   4.589034   5.520909   5.474596   2.839601
    23  H    4.448043   3.901040   5.317366   4.961795   3.281157
    24  C    3.426079   3.241406   4.518276   3.245138   4.462287
    25  O    3.815617   3.452057   4.872850   3.473927   5.185934
                   11         12         13         14         15
    11  H    0.000000
    12  H    1.780184   0.000000
    13  H    2.924403   3.320270   0.000000
    14  H    4.100255   3.970840   1.765697   0.000000
    15  H    3.329938   2.696452   1.781179   1.780553   0.000000
    16  C    4.933372   5.768611   3.699587   3.443659   4.846973
    17  O    5.825940   6.640926   4.133382   3.773295   5.347690
    18  C    3.661797   4.747931   5.072949   5.510483   5.826205
    19  C    4.629283   5.847595   5.434060   5.793168   6.457666
    20  H    5.608430   6.687906   6.275184   6.404580   7.216169
    21  H    4.804543   6.244286   5.497745   6.087620   6.754193
    22  H    2.987581   4.293173   4.860186   5.616333   5.658558
    23  H    4.158797   4.916306   5.726026   5.960127   6.203872
    24  C    5.052065   5.395505   5.049899   4.454511   5.396453
    25  O    6.001321   6.133743   6.016494   5.211069   6.149684
                   16         17         18         19         20
    16  C    0.000000
    17  O    1.139694   0.000000
    18  C    3.934155   5.028659   0.000000
    19  C    3.367864   4.331643   1.401095   0.000000
    20  H    3.714025   4.592984   2.158003   1.083290   0.000000
    21  H    3.513401   4.317188   2.157164   1.082273   1.824697
    22  H    4.444236   5.504151   1.082909   2.154864   3.080254
    23  H    4.606392   5.724970   1.084079   2.155834   2.482341
    24  C    2.941597   3.906370   3.014971   3.046714   2.964858
    25  O    3.891296   4.727367   3.875797   3.923014   3.597518
                   21         22         23         24         25
    21  H    0.000000
    22  H    2.481234   0.000000
    23  H    3.080080   1.823954   0.000000
    24  C    3.964534   3.928527   2.918797   0.000000
    25  O    4.898547   4.837605   3.516241   1.136404   0.000000
 Stoichiometry    C7H14O2PRh
 Framework group  C1[X(C7H14O2PRh)]
 Deg. of freedom    69
 Full point group                 C1      NOp   1
 RotChk:  IX=0 Diff= 1.85D-15
 Largest Abelian subgroup         C1      NOp   1
 Largest concise Abelian subgroup C1      NOp   1
                         Standard orientation:                         
 ---------------------------------------------------------------------
 Center     Atomic      Atomic             Coordinates (Angstroms)
 Number     Number       Type             X           Y           Z
 ---------------------------------------------------------------------
      1          1           0        0.275603    0.463006   -1.702417
      2         45           0        0.656141    0.027388   -0.216495
      3         15           0       -1.673489    0.022710   -0.029341
      4          6           0       -2.560430   -1.074658   -1.177551
      5          6           0       -2.452828    1.636843   -0.341742
      6          6           0       -2.378852   -0.449165    1.582438
      7          1           0       -2.064206   -1.463421    1.833600
      8          1           0       -3.470211   -0.406808    1.571908
      9          1           0       -2.003137    0.225280    2.353566
     10          1           0       -2.259956   -2.107490   -0.996572
     11          1           0       -2.291642   -0.815534   -2.202268
     12          1           0       -3.642715   -0.990006   -1.056311
     13          1           0       -2.180134    1.977099   -1.341513
     14          1           0       -2.072933    2.363496    0.378048
     15          1           0       -3.540886    1.584569   -0.261293
     16          6           0        1.296851    1.827267   -0.086496
     17          8           0        1.634491    2.915365   -0.055771
     18          6           0        1.004015   -1.964331   -1.094269
     19          6           0        2.198837   -1.235392   -1.158436
     20          1           0        3.003125   -1.449812   -0.465137
     21          1           0        2.511586   -0.788401   -2.093156
     22          1           0        0.401818   -2.089867   -1.985499
     23          1           0        0.893224   -2.753303   -0.359098
     24          6           0        1.044701   -0.580705    1.584159
     25          8           0        1.253342   -0.950500    2.638262
 ---------------------------------------------------------------------
 Rotational constants (GHZ):           0.8426269           0.5886850           0.5346053
 Leave Link  202 at Tue Oct  4 17:20:31 2022, MaxMem=  2952790016 cpu:               0.1 elap:               0.0
 (Enter /mnt/data/applications/G16/g16/l301.exe)
 Basis read from chk: "I3.chk" (5D, 7F)
 Pseudo-potential data read from chk file.
 There are   489 symmetry adapted cartesian basis functions of A   symmetry.
 There are   436 symmetry adapted basis functions of A   symmetry.
   436 basis functions,   705 primitive gaussians,   489 cartesian basis functions
    52 alpha electrons       52 beta electrons
       nuclear repulsion energy       876.6071732243 Hartrees.
 IExCor= 4639 DFT=T Ex+Corr=wB97XD ExCW=0 ScaHFX=  1.000000
 ScaDFX=  1.000000  1.000000  1.000000  1.000000 ScalE2=  1.000000  1.000000
 IRadAn=      5 IRanWt=     -1 IRanGd=            0 ICorTp=0 IEmpDi=121
 HFx  wShort=  0.000000 wLong=  0.200000 cFull=  0.222036 cShort=  0.000000 cLong=  0.777964
 DFx  wShort=  0.000000 wLong=  0.200000 cFull=  0.000000 cShort=  0.000000 cLong=  1.000000
 NAtoms=   25 NActive=   25 NUniq=   25 SFac= 1.00D+00 NAtFMM=   60 NAOKFM=F Big=F
 Integral buffers will be    131072 words long.
 Raffenetti 2 integral format.
 Two-electron integral symmetry is turned on.
 R6Disp:  Grimme-D2 Dispersion energy=       -0.0206206381 Hartrees.
 Nuclear repulsion after empirical dispersion term =      876.5865525862 Hartrees.
 No density basis found on file 20724.
 Force inversion solution in PCM.
 ------------------------------------------------------------------------------
 Polarizable Continuum Model (PCM)
 =================================
 Model                : PCM.
 Atomic radii         : SMD-Coulomb.
 Polarization charges : Total charges.
 Charge compensation  : None.
 Solution method      : Matrix inversion.
 Cavity type          : VdW (van der Waals Surface) (Alpha=1.000).
 Cavity algorithm     : GePol (No added spheres)
                        Default sphere list used, NSphG=   25.
                        Lebedev-Laikov grids with approx.  5.0 points / Ang**2.
                        Smoothing algorithm: York/Karplus (Gamma=1.0000).
                        Polarization charges: spherical gaussians, with
                                              point-specific exponents (IZeta= 3).
                        Self-potential: point-specific (ISelfS= 7).
                        Self-field    : sphere-specific E.n sum rule (ISelfD= 2).
 1st derivatives      : Analytical E(r).r(x)/FMM algorithm (CHGder, D1EAlg=3).
                        Cavity 1st derivative terms included.
 2nd derivatives      : Analytical E(r).r(xy)/FMM algorithm (CHGder, D2EAlg=3).
                        Cavity 2nd derivative terms included.
 Solvent              : Toluene, Eps=   2.374100 Eps(inf)=   2.238315
 ------------------------------------------------------------------------------
 GePol: Number of generator spheres                  =      25
 GePol: Total number of spheres                      =      25
 GePol: Number of exposed spheres                    =      25 (100.00%)
 GePol: Number of points                             =    2324
 GePol: Average weight of points                     =       0.12
 GePol: Minimum weight of points                     =   0.93D-09
 GePol: Maximum weight of points                     =    0.20615
 GePol: Number of points with low weight             =     117
 GePol: Fraction of low-weight points (<1% of avg)   =       5.03%
 GePol: Cavity surface area                          =    281.654 Ang**2
 GePol: Cavity volume                                =    249.851 Ang**3
 ------------------------------------------------------------------------------
 Atomic radii for non-electrostatic terms: SMD-CDS.
 ------------------------------------------------------------------------------
 PCM non-electrostatic energy =         0.0007502412 Hartrees.
 Nuclear repulsion after PCM non-electrostatic terms =      876.5873028274 Hartrees.
 Leave Link  301 at Tue Oct  4 17:20:31 2022, MaxMem=  2952790016 cpu:               1.8 elap:               0.2
 (Enter /mnt/data/applications/G16/g16/l302.exe)
 NPDir=0 NMtPBC=     1 NCelOv=     1 NCel=       1 NClECP=     1 NCelD=      1
         NCelK=      1 NCelE2=     1 NClLst=     1 CellRange=     0.0.
 One-electron integrals computed using PRISM.
 One-electron integral symmetry used in STVInt
   1 Symmetry operations used in ECPInt.
 ECPInt:  NShTT=   16653 NPrTT=   49115 LenC2=   15842 LenP2D=   35624.
 LDataN:  DoStor=T MaxTD1= 7 Len=  274
 NBasis=   436 RedAO= T EigKep=  1.35D-04  NBF=   436
 NBsUse=   436 1.00D-06 EigRej= -1.00D+00 NBFU=   436
 Precomputing XC quadrature grid using
 IXCGrd= 4 IRadAn=           5 IRanWt=          -1 IRanGd=           0 AccXCQ= 0.00D+00.
 Defaulting to unpruned grid for atomic number  45.
 Generated NRdTot=       0 NPtTot=           0 NUsed=           0 NTot=          32
 NSgBfM=   487   487   487   487   487 MxSgAt=    25 MxSgA2=    25.
 Leave Link  302 at Tue Oct  4 17:20:33 2022, MaxMem=  2952790016 cpu:              15.3 elap:               1.3
 (Enter /mnt/data/applications/G16/g16/l303.exe)
 DipDrv:  MaxL=1.
 Leave Link  303 at Tue Oct  4 17:20:33 2022, MaxMem=  2952790016 cpu:               0.9 elap:               0.1
 (Enter /mnt/data/applications/G16/g16/l401.exe)
 Initial guess from the checkpoint file:  "I3.chk"
 B after Tr=    -0.000000    0.000000   -0.000000
         Rot=    1.000000   -0.000000    0.000000    0.000000 Ang=   0.00 deg.
 Guess basis will be translated and rotated to current coordinates.
 JPrj=2 DoOrth=T DoCkMO=T.
 Leave Link  401 at Tue Oct  4 17:20:34 2022, MaxMem=  2952790016 cpu:              11.6 elap:               1.0
 (Enter /mnt/data/applications/G16/g16/l502.exe)
 Integral symmetry usage will be decided dynamically.
 Closed shell SCF:
 Using DIIS extrapolation, IDIIS=  1040.
 NGot=  2952790016 LenX=  2952301307 LenY=  2952061697
 Requested convergence on RMS density matrix=1.00D-08 within 128 cycles.
 Requested convergence on MAX density matrix=1.00D-06.
 Requested convergence on             energy=1.00D-06.
 No special actions if energy rises.
 Fock matrices will be formed incrementally for  20 cycles.

 Cycle   1  Pass 1  IDiag  1:
 FoFJK:  IHMeth= 1 ICntrl=       0 DoSepK=T KAlg= 0 I1Cent=           0 FoldK=F
 IRaf=         1 NMat=       1 IRICut=       1 DoRegI=T DoRafI=F ISym2E= 0 IDoP0=0 IntGTp=1.
 FoFCou: FMM=F IPFlag=           0 FMFlag=      100000 FMFlg1=           0
         NFxFlg=           0 DoJE=T BraDBF=F KetDBF=F FulRan=T
         wScrn=  0.000000 ICntrl=       500 IOpCl=  0 I1Cent=           0 NGrid=           0
         NMat0=    1 NMatS0=      1 NMatT0=    0 NMatD0=    1 NMtDS0=    0 NMtDT0=    0
 Symmetry not used in FoFCou.
 Defaulting to unpruned grid for atomic number  45.
 Defaulting to unpruned grid for atomic number  45.
 Defaulting to unpruned grid for atomic number  45.
 Defaulting to unpruned grid for atomic number  45.
 Defaulting to unpruned grid for atomic number  45.
 Defaulting to unpruned grid for atomic number  45.
 Defaulting to unpruned grid for atomic number  45.
 Defaulting to unpruned grid for atomic number  45.
 Defaulting to unpruned grid for atomic number  45.
 Defaulting to unpruned grid for atomic number  45.
 Defaulting to unpruned grid for atomic number  45.
 Defaulting to unpruned grid for atomic number  45.
 Inv3:  Mode=1 IEnd=    16202928.
 Iteration    1 A*A^-1 deviation from unit magnitude is 2.44D-15 for     94.
 Iteration    1 A*A^-1 deviation from orthogonality  is 1.86D-15 for   1511    881.
 Iteration    1 A^-1*A deviation from unit magnitude is 2.22D-15 for     94.
 Iteration    1 A^-1*A deviation from orthogonality  is 1.24D-15 for   1119    159.
 E= -877.673542524444    
 DIIS: error= 1.05D-08 at cycle   1 NSaved=   1.
 NSaved= 1 IEnMin= 1 EnMin= -877.673542524444     IErMin= 1 ErrMin= 1.05D-08
 ErrMax= 1.05D-08  0.00D+00 EMaxC= 1.00D-01 BMatC= 5.62D-14 BMatP= 5.62D-14
 IDIUse=1 WtCom= 1.00D+00 WtEn= 0.00D+00
 Coeff-Com:  0.100D+01
 Coeff:      0.100D+01
 Gap=     0.318 Goal=   None    Shift=    0.000
 RMSDP=1.88D-09 MaxDP=1.06D-07              OVMax= 2.82D-07

 Error on total polarization charges =  0.02505
 SCF Done:  E(RwB97XD) =  -877.673542524     A.U. after    1 cycles
            NFock=  1  Conv=0.19D-08     -V/T= 2.0906
 KE= 8.047590659407D+02 PE=-3.791351165217D+03 EE= 1.232331253924D+03
 SMD-CDS (non-electrostatic) energy       (kcal/mol) =       0.47
 (included in total energy above)
 Leave Link  502 at Tue Oct  4 17:21:39 2022, MaxMem=  2952790016 cpu:             748.4 elap:              65.0
 (Enter /mnt/data/applications/G16/g16/l801.exe)
 DoSCS=F DFT=T ScalE2(SS,OS)=  1.000000  1.000000
 Range of M.O.s used for correlation:     1   436
 NBasis=   436 NAE=    52 NBE=    52 NFC=     0 NFV=     0
 NROrb=    436 NOA=    52 NOB=    52 NVA=   384 NVB=   384

 **** Warning!!: The largest alpha MO coefficient is  0.17823796D+02

 Leave Link  801 at Tue Oct  4 17:21:39 2022, MaxMem=  2952790016 cpu:               0.3 elap:               0.0
 (Enter /mnt/data/applications/G16/g16/l1101.exe)
 Using compressed storage, NAtomX=    25.
 Will process     26 centers per pass.
   1 Symmetry operations used in ECPInt.
 ECPInt:  NShTT=   16653 NPrTT=   49115 LenC2=   15842 LenP2D=   35624.
 LDataN:  DoStor=T MaxTD1= 8 Len=  415
 R6Disp: Adding Grimme-D2 dispersion energy 1st derivatives to the gradient.
 Leave Link 1101 at Tue Oct  4 17:21:41 2022, MaxMem=  2952790016 cpu:              31.1 elap:               2.6
 (Enter /mnt/data/applications/G16/g16/l1102.exe)
 Symmetrizing basis deriv contribution to polar:
 IMax=3 JMax=2 DiffMx= 0.00D+00
 Leave Link 1102 at Tue Oct  4 17:21:42 2022, MaxMem=  2952790016 cpu:               0.9 elap:               0.1
 (Enter /mnt/data/applications/G16/g16/l1110.exe)
 Forming Gx(P) for the SCF density, NAtomX=    25.
 Integral derivatives from FoFJK, PRISM(SPDF).
 Do as many integral derivatives as possible in FoFJK.
 G2DrvN: MDV=    2952787980.
 G2DrvN: will do    26 centers at a time, making    1 passes.
 Calling FoFCou, ICntrl=  3107 FMM=F I1Cent=   0 AccDes= 0.00D+00.
 FoFJK:  IHMeth= 1 ICntrl=    3107 DoSepK=T KAlg= 0 I1Cent=           0 FoldK=F
 IRaf=         1 NMat=       1 IRICut=       1 DoRegI=T DoRafI=F ISym2E= 0 IDoP0=0 IntGTp=1.
 FoFCou: FMM=F IPFlag=           0 FMFlag=      100000 FMFlg1=           0
         NFxFlg=           0 DoJE=F BraDBF=F KetDBF=F FulRan=T
         wScrn=  0.000000 ICntrl=      3507 IOpCl=  0 I1Cent=           0 NGrid=           0
         NMat0=    1 NMatS0=      1 NMatT0=    0 NMatD0=    1 NMtDS0=    0 NMtDT0=    0
 Symmetry not used in FoFCou.
 Defaulting to unpruned grid for atomic number  45.
 Defaulting to unpruned grid for atomic number  45.
 Defaulting to unpruned grid for atomic number  45.
 Defaulting to unpruned grid for atomic number  45.
 Defaulting to unpruned grid for atomic number  45.
 Defaulting to unpruned grid for atomic number  45.
 Defaulting to unpruned grid for atomic number  45.
 Defaulting to unpruned grid for atomic number  45.
 Defaulting to unpruned grid for atomic number  45.
 Defaulting to unpruned grid for atomic number  45.
 Defaulting to unpruned grid for atomic number  45.
 Defaulting to unpruned grid for atomic number  45.
 NEqPCM:  Using equilibrium solvation (IEInf=0, Eps=   2.3741, EpsInf=   2.2383)
 G2PCM: DoFxE=T DoFxN=T DoGrad=T DoDP/DQ/DG/TGxP=FFFF NFrqRd=   0 IEInf=0 SqF1=F DoCFld=F IF1Alg=4.
 GePol: Maximum number of non-zero 1st derivatives   =     421
 End of G2Drv F.D. properties file   721 does not exist.
 End of G2Drv F.D. properties file   722 does not exist.
 End of G2Drv F.D. properties file   788 does not exist.
 Leave Link 1110 at Tue Oct  4 17:33:45 2022, MaxMem=  2952790016 cpu:            8662.9 elap:             723.9
 (Enter /mnt/data/applications/G16/g16/l1002.exe)
 Minotr:  Closed shell wavefunction.
          IDoAtm=1111111111111111111111111
 NEqPCM:  Using equilibrium solvation (IEInf=0, Eps=   2.3741, EpsInf=   2.2383)
          Direct CPHF calculation.
          Differentiating once with respect to electric field.
                with respect to dipole field.
          Differentiating once with respect to nuclear coordinates.
          Requested convergence is 1.0D-08 RMS, and 1.0D-07 maximum.
          Secondary convergence is 1.0D-12 RMS, and 1.0D-12 maximum.
          NewPWx=T KeepS1=F KeepF1=F KeepIn=T MapXYZ=F SortEE=F KeepMc=T.
 Defaulting to unpruned grid for atomic number  45.
         7731 words used for storage of precomputed grid.
 Two-electron integrals replicated using symmetry.
          MDV=    2952790016 using IRadAn=       1.
          Solving linear equations simultaneously, MaxMat=     384.
 FoF2E skips out because all densities are zero.
 CalDSu exits because no D1Ps are significant.
 FoFJK:  IHMeth= 1 ICntrl=       0 DoSepK=T KAlg= 0 I1Cent=           0 FoldK=F
 IRaf=         1 NMat=      75 IRICut=       1 DoRegI=T DoRafI=F ISym2E= 2 IDoP0=3 IntGTp=3.
 Defaulting to unpruned grid for atomic number  45.
 Defaulting to unpruned grid for atomic number  45.
 Defaulting to unpruned grid for atomic number  45.
 Defaulting to unpruned grid for atomic number  45.
 Defaulting to unpruned grid for atomic number  45.
 Defaulting to unpruned grid for atomic number  45.
 Defaulting to unpruned grid for atomic number  45.
 Defaulting to unpruned grid for atomic number  45.
 Defaulting to unpruned grid for atomic number  45.
 Defaulting to unpruned grid for atomic number  45.
 Defaulting to unpruned grid for atomic number  45.
 Defaulting to unpruned grid for atomic number  45.
          There are    78 degrees of freedom in the 1st order CPHF.  IDoFFX=6 NUNeed=     3.
     75 vectors produced by pass  0 Test12= 2.56D-14 1.28D-09 XBig12= 8.39D+01 2.54D+00.
 AX will form    75 AO Fock derivatives at one time.
     75 vectors produced by pass  1 Test12= 2.56D-14 1.28D-09 XBig12= 8.25D+00 3.98D-01.
     75 vectors produced by pass  2 Test12= 2.56D-14 1.28D-09 XBig12= 4.28D-01 8.23D-02.
     75 vectors produced by pass  3 Test12= 2.56D-14 1.28D-09 XBig12= 8.06D-03 1.31D-02.
     75 vectors produced by pass  4 Test12= 2.56D-14 1.28D-09 XBig12= 1.11D-04 1.30D-03.
     75 vectors produced by pass  5 Test12= 2.56D-14 1.28D-09 XBig12= 1.11D-06 1.11D-04.
     75 vectors produced by pass  6 Test12= 2.56D-14 1.28D-09 XBig12= 8.10D-09 8.95D-06.
     37 vectors produced by pass  7 Test12= 2.56D-14 1.28D-09 XBig12= 5.53D-11 7.83D-07.
      6 vectors produced by pass  8 Test12= 2.56D-14 1.28D-09 XBig12= 3.61D-13 9.30D-08.
      3 vectors produced by pass  9 Test12= 2.56D-14 1.28D-09 XBig12= 2.66D-15 1.04D-08.
 InvSVY:  IOpt=1 It=  1 EMax= 3.55D-15
 Solved reduced A of dimension   571 with    78 vectors.
 FullF1:  Do perturbations      1 to       3.
 Isotropic polarizability for W=    0.000000      180.78 Bohr**3.
 End of Minotr F.D. properties file   721 does not exist.
 End of Minotr F.D. properties file   722 does not exist.
 End of Minotr F.D. properties file   788 does not exist.
 Leave Link 1002 at Tue Oct  4 18:10:30 2022, MaxMem=  2952790016 cpu:           26367.7 elap:            2204.2
 (Enter /mnt/data/applications/G16/g16/l601.exe)
 Copying SCF densities to generalized density rwf, IOpCl= 0 IROHF=0.

 **********************************************************************

            Population analysis using the SCF density.

 **********************************************************************

 Orbital symmetries:
       Occupied  (A) (A) (A) (A) (A) (A) (A) (A) (A) (A) (A) (A)
                 (A) (A) (A) (A) (A) (A) (A) (A) (A) (A) (A) (A)
                 (A) (A) (A) (A) (A) (A) (A) (A) (A) (A) (A) (A)
                 (A) (A) (A) (A) (A) (A) (A) (A) (A) (A) (A) (A)
                 (A) (A) (A) (A)
       Virtual   (A) (A) (A) (A) (A) (A) (A) (A) (A) (A) (A) (A)
                 (A) (A) (A) (A) (A) (A) (A) (A) (A) (A) (A) (A)
                 (A) (A) (A) (A) (A) (A) (A) (A) (A) (A) (A) (A)
                 (A) (A) (A) (A) (A) (A) (A) (A) (A) (A) (A) (A)
                 (A) (A) (A) (A) (A) (A) (A) (A) (A) (A) (A) (A)
                 (A) (A) (A) (A) (A) (A) (A) (A) (A) (A) (A) (A)
                 (A) (A) (A) (A) (A) (A) (A) (A) (A) (A) (A) (A)
                 (A) (A) (A) (A) (A) (A) (A) (A) (A) (A) (A) (A)
                 (A) (A) (A) (A) (A) (A) (A) (A) (A) (A) (A) (A)
                 (A) (A) (A) (A) (A) (A) (A) (A) (A) (A) (A) (A)
                 (A) (A) (A) (A) (A) (A) (A) (A) (A) (A) (A) (A)
                 (A) (A) (A) (A) (A) (A) (A) (A) (A) (A) (A) (A)
                 (A) (A) (A) (A) (A) (A) (A) (A) (A) (A) (A) (A)
                 (A) (A) (A) (A) (A) (A) (A) (A) (A) (A) (A) (A)
                 (A) (A) (A) (A) (A) (A) (A) (A) (A) (A) (A) (A)
                 (A) (A) (A) (A) (A) (A) (A) (A) (A) (A) (A) (A)
                 (A) (A) (A) (A) (A) (A) (A) (A) (A) (A) (A) (A)
                 (A) (A) (A) (A) (A) (A) (A) (A) (A) (A) (A) (A)
                 (A) (A) (A) (A) (A) (A) (A) (A) (A) (A) (A) (A)
                 (A) (A) (A) (A) (A) (A) (A) (A) (A) (A) (A) (A)
                 (A) (A) (A) (A) (A) (A) (A) (A) (A) (A) (A) (A)
                 (A) (A) (A) (A) (A) (A) (A) (A) (A) (A) (A) (A)
                 (A) (A) (A) (A) (A) (A) (A) (A) (A) (A) (A) (A)
                 (A) (A) (A) (A) (A) (A) (A) (A) (A) (A) (A) (A)
                 (A) (A) (A) (A) (A) (A) (A) (A) (A) (A) (A) (A)
                 (A) (A) (A) (A) (A) (A) (A) (A) (A) (A) (A) (A)
                 (A) (A) (A) (A) (A) (A) (A) (A) (A) (A) (A) (A)
                 (A) (A) (A) (A) (A) (A) (A) (A) (A) (A) (A) (A)
                 (A) (A) (A) (A) (A) (A) (A) (A) (A) (A) (A) (A)
                 (A) (A) (A) (A) (A) (A) (A) (A) (A) (A) (A) (A)
                 (A) (A) (A) (A) (A) (A) (A) (A) (A) (A) (A) (A)
                 (A) (A) (A) (A) (A) (A) (A) (A) (A) (A) (A) (A)
 The electronic state is 1-A.
 Alpha  occ. eigenvalues --  -77.24019 -19.32776 -19.31226 -10.40474 -10.39680
 Alpha  occ. eigenvalues --  -10.28287 -10.28104 -10.28052 -10.27717 -10.27662
 Alpha  occ. eigenvalues --   -6.68329  -4.83029  -4.83009  -4.82718  -3.35738
 Alpha  occ. eigenvalues --   -2.11306  -2.10111  -2.09184  -1.24303  -1.22733
 Alpha  occ. eigenvalues --   -0.87813  -0.85058  -0.79746  -0.79626  -0.66947
 Alpha  occ. eigenvalues --   -0.66517  -0.64985  -0.63894  -0.56335  -0.55962
 Alpha  occ. eigenvalues --   -0.55400  -0.54276  -0.54096  -0.53769  -0.53595
 Alpha  occ. eigenvalues --   -0.53298  -0.52234  -0.52177  -0.50237  -0.49288
 Alpha  occ. eigenvalues --   -0.49087  -0.47531  -0.43110  -0.42508  -0.42432
 Alpha  occ. eigenvalues --   -0.40967  -0.38345  -0.37359  -0.35993  -0.34954
 Alpha  occ. eigenvalues --   -0.30378  -0.27670
 Alpha virt. eigenvalues --    0.04087   0.06096   0.06460   0.06965   0.07315
 Alpha virt. eigenvalues --    0.07607   0.08081   0.08613   0.09113   0.10369
 Alpha virt. eigenvalues --    0.13228   0.13329   0.13825   0.15218   0.16192
 Alpha virt. eigenvalues --    0.17439   0.17614   0.17751   0.18678   0.19491
 Alpha virt. eigenvalues --    0.20108   0.20558   0.20842   0.21044   0.22103
 Alpha virt. eigenvalues --    0.22834   0.23492   0.24334   0.24555   0.24889
 Alpha virt. eigenvalues --    0.26115   0.26372   0.27414   0.28340   0.29430
 Alpha virt. eigenvalues --    0.31190   0.31535   0.31751   0.32818   0.33563
 Alpha virt. eigenvalues --    0.34079   0.35013   0.36155   0.37038   0.37282
 Alpha virt. eigenvalues --    0.38496   0.40448   0.41590   0.42896   0.44253
 Alpha virt. eigenvalues --    0.44556   0.45004   0.45461   0.46053   0.47288
 Alpha virt. eigenvalues --    0.47785   0.48554   0.49703   0.49818   0.50304
 Alpha virt. eigenvalues --    0.50578   0.51458   0.52039   0.52527   0.53398
 Alpha virt. eigenvalues --    0.53783   0.54197   0.55397   0.55811   0.56299
 Alpha virt. eigenvalues --    0.56319   0.56718   0.58354   0.58800   0.59436
 Alpha virt. eigenvalues --    0.59987   0.61551   0.62635   0.63260   0.64088
 Alpha virt. eigenvalues --    0.64484   0.64761   0.66233   0.67694   0.68760
 Alpha virt. eigenvalues --    0.70561   0.71210   0.72765   0.73083   0.73963
 Alpha virt. eigenvalues --    0.75741   0.76853   0.77757   0.79745   0.80468
 Alpha virt. eigenvalues --    0.81283   0.82372   0.83307   0.83703   0.85899
 Alpha virt. eigenvalues --    0.87500   0.87811   0.88295   0.89660   0.90830
 Alpha virt. eigenvalues --    0.91542   0.95893   0.96653   0.97622   0.98071
 Alpha virt. eigenvalues --    0.98449   0.98856   1.01121   1.01480   1.03421
 Alpha virt. eigenvalues --    1.05199   1.05804   1.07324   1.08395   1.08988
 Alpha virt. eigenvalues --    1.09157   1.11515   1.13164   1.13402   1.13578
 Alpha virt. eigenvalues --    1.14600   1.16199   1.17047   1.17751   1.19480
 Alpha virt. eigenvalues --    1.22060   1.25371   1.27230   1.29754   1.32374
 Alpha virt. eigenvalues --    1.35597   1.37139   1.38885   1.39590   1.50219
 Alpha virt. eigenvalues --    1.50872   1.52440   1.53210   1.53671   1.54474
 Alpha virt. eigenvalues --    1.55624   1.56875   1.58722   1.59034   1.59417
 Alpha virt. eigenvalues --    1.60457   1.60952   1.61362   1.61917   1.62703
 Alpha virt. eigenvalues --    1.62811   1.63397   1.64519   1.65255   1.65519
 Alpha virt. eigenvalues --    1.65864   1.66413   1.66728   1.67211   1.68666
 Alpha virt. eigenvalues --    1.69145   1.69591   1.71139   1.71648   1.72037
 Alpha virt. eigenvalues --    1.73060   1.73387   1.74190   1.74776   1.75899
 Alpha virt. eigenvalues --    1.76740   1.80736   1.82232   1.84908   1.88155
 Alpha virt. eigenvalues --    1.90526   1.93019   1.94061   1.95027   1.95885
 Alpha virt. eigenvalues --    1.97879   1.99888   2.02327   2.04728   2.06362
 Alpha virt. eigenvalues --    2.07353   2.08687   2.10126   2.10559   2.11386
 Alpha virt. eigenvalues --    2.13480   2.15635   2.15840   2.16919   2.17540
 Alpha virt. eigenvalues --    2.18369   2.19309   2.21062   2.23207   2.25525
 Alpha virt. eigenvalues --    2.27319   2.29344   2.30429   2.33108   2.34682
 Alpha virt. eigenvalues --    2.36684   2.38767   2.39128   2.40430   2.41283
 Alpha virt. eigenvalues --    2.43576   2.44418   2.45142   2.46347   2.47634
 Alpha virt. eigenvalues --    2.50145   2.51717   2.52440   2.53838   2.56171
 Alpha virt. eigenvalues --    2.58608   2.60026   2.61992   2.62997   2.63580
 Alpha virt. eigenvalues --    2.64101   2.66180   2.67886   2.68434   2.69761
 Alpha virt. eigenvalues --    2.70691   2.72077   2.73831   2.74294   2.74698
 Alpha virt. eigenvalues --    2.75147   2.76037   2.76753   2.77138   2.79679
 Alpha virt. eigenvalues --    2.83753   2.86492   2.86570   2.88166   2.90488
 Alpha virt. eigenvalues --    2.91813   2.92492   2.93101   2.95020   2.96483
 Alpha virt. eigenvalues --    2.97199   2.98115   2.98997   2.99160   3.01032
 Alpha virt. eigenvalues --    3.03268   3.03530   3.04563   3.06103   3.07945
 Alpha virt. eigenvalues --    3.09442   3.09819   3.10597   3.14215   3.15070
 Alpha virt. eigenvalues --    3.16228   3.17016   3.18953   3.19328   3.19820
 Alpha virt. eigenvalues --    3.21337   3.22872   3.24637   3.25244   3.26040
 Alpha virt. eigenvalues --    3.27027   3.28499   3.29566   3.30170   3.31170
 Alpha virt. eigenvalues --    3.33319   3.35992   3.36991   3.37996   3.39906
 Alpha virt. eigenvalues --    3.40659   3.41005   3.41581   3.42965   3.43645
 Alpha virt. eigenvalues --    3.45146   3.45438   3.46301   3.49326   3.55558
 Alpha virt. eigenvalues --    3.56549   3.57160   3.58656   3.61876   3.62954
 Alpha virt. eigenvalues --    3.63359   3.64532   3.66587   3.68856   3.69162
 Alpha virt. eigenvalues --    3.69790   3.70166   3.71534   3.73133   3.73979
 Alpha virt. eigenvalues --    3.76361   3.77789   3.79106   3.80101   3.80289
 Alpha virt. eigenvalues --    3.86156   3.90809   4.01310   4.03527   4.13783
 Alpha virt. eigenvalues --    4.27066   4.28859   4.32185   4.34686   4.34862
 Alpha virt. eigenvalues --    4.35275   4.37450   4.38758   4.40678   4.41501
 Alpha virt. eigenvalues --    4.47164   4.47662   4.52844   4.53208   4.57470
 Alpha virt. eigenvalues --    4.60846   4.80158   4.97041   5.18732   5.18759
 Alpha virt. eigenvalues --    5.20046   5.20061   5.57974   5.58537   5.59112
 Alpha virt. eigenvalues --    5.60231   6.30201   6.30615   6.32933   6.34169
 Alpha virt. eigenvalues --    6.34905   6.35390   6.35948   6.36474   6.62903
 Alpha virt. eigenvalues --    6.63467   6.81499   6.81738   6.83663   6.84176
 Alpha virt. eigenvalues --    7.16204   7.17617   7.79543   7.90278   7.91010
 Alpha virt. eigenvalues --   15.66399  22.40584  22.41702  22.42391  22.45618
 Alpha virt. eigenvalues --   22.66435  22.69246  22.79437  38.38632  38.51124
 Alpha virt. eigenvalues --   38.62574  43.93423  43.95737  49.77695
          Condensed to atoms (all electrons):
               1          2          3          4          5          6
     1  H    0.697879   0.327755   0.020013  -0.006060  -0.006156   0.001826
     2  Rh   0.327755  16.008068   0.270909  -0.036898  -0.038838  -0.030503
     3  P    0.020013   0.270909  13.743461   0.335881   0.342671   0.323022
     4  C   -0.006060  -0.036898   0.335881   5.023223  -0.039363  -0.035924
     5  C   -0.006156  -0.038838   0.342671  -0.039363   5.016849  -0.033769
     6  C    0.001826  -0.030503   0.323022  -0.035924  -0.033769   5.031109
     7  H   -0.000013  -0.003082  -0.024672  -0.000532   0.004065   0.401714
     8  H   -0.000014   0.006684  -0.026050  -0.004737  -0.005290   0.393865
     9  H   -0.000045  -0.002405  -0.024297   0.004102  -0.000779   0.400906
    10  H    0.000015  -0.006398  -0.019423   0.398962   0.004557  -0.001140
    11  H    0.000180  -0.002644  -0.024076   0.401850  -0.001047   0.004257
    12  H    0.000128   0.007969  -0.028959   0.396362  -0.005970  -0.005355
    13  H    0.000529  -0.001937  -0.022419  -0.001136   0.399924   0.004136
    14  H    0.000220  -0.005185  -0.019799   0.004423   0.397549  -0.001698
    15  H    0.000107   0.008015  -0.030058  -0.005655   0.395801  -0.005998
    16  C    0.000469   0.195597  -0.000713   0.000793  -0.000861  -0.000863
    17  O   -0.003237  -0.016123  -0.001033  -0.000016   0.000659   0.000043
    18  C   -0.000363   0.174423   0.000555  -0.000567   0.000839  -0.000667
    19  C    0.003622   0.133671  -0.012476   0.000636   0.000043   0.000240
    20  H    0.000676  -0.018921   0.000445  -0.000026   0.000002  -0.000033
    21  H   -0.004221  -0.013083   0.000339  -0.000073   0.000003   0.000012
    22  H   -0.008509  -0.012560  -0.004282   0.001469   0.000018  -0.000084
    23  H    0.001567  -0.020939  -0.001876   0.000759  -0.000062   0.000429
    24  C   -0.019064   0.116061  -0.003544   0.000662   0.000321  -0.007863
    25  O    0.000288   0.002492  -0.004424   0.000033   0.000040   0.002202
               7          8          9         10         11         12
     1  H   -0.000013  -0.000014  -0.000045   0.000015   0.000180   0.000128
     2  Rh  -0.003082   0.006684  -0.002405  -0.006398  -0.002644   0.007969
     3  P   -0.024672  -0.026050  -0.024297  -0.019423  -0.024076  -0.028959
     4  C   -0.000532  -0.004737   0.004102   0.398962   0.401850   0.396362
     5  C    0.004065  -0.005290  -0.000779   0.004557  -0.001047  -0.005970
     6  C    0.401714   0.393865   0.400906  -0.001140   0.004257  -0.005355
     7  H    0.496571  -0.019846  -0.015627   0.000764  -0.000131  -0.000293
     8  H   -0.019846   0.519488  -0.019491  -0.000159  -0.000118   0.003907
     9  H   -0.015627  -0.019491   0.495505  -0.000087  -0.000079  -0.000109
    10  H    0.000764  -0.000159  -0.000087   0.498640  -0.015252  -0.020934
    11  H   -0.000131  -0.000118  -0.000079  -0.015252   0.491931  -0.020023
    12  H   -0.000293   0.003907  -0.000109  -0.020934  -0.020023   0.522603
    13  H   -0.000076  -0.000075  -0.000110  -0.000090   0.000918  -0.000103
    14  H   -0.000088  -0.000104   0.000702  -0.000081  -0.000085  -0.000067
    15  H   -0.000103   0.004086  -0.000211  -0.000102  -0.000140   0.003749
    16  C    0.000006   0.000035  -0.000387  -0.000125   0.000136   0.000019
    17  O   -0.000001  -0.000001  -0.000016   0.000000  -0.000001   0.000000
    18  C   -0.000256   0.000012   0.000078   0.001794  -0.000578   0.000117
    19  C   -0.000040  -0.000008  -0.000014  -0.000101  -0.000123  -0.000025
    20  H    0.000005   0.000000  -0.000000   0.000007   0.000000   0.000001
    21  H    0.000001  -0.000000   0.000000  -0.000001   0.000014   0.000000
    22  H   -0.000010  -0.000005   0.000006  -0.000879  -0.000206  -0.000065
    23  H    0.000073  -0.000014  -0.000017  -0.000420   0.000054  -0.000051
    24  C   -0.000405   0.000420  -0.000051   0.000119  -0.000023  -0.000030
    25  O   -0.000097  -0.000036  -0.000130  -0.000014  -0.000000  -0.000002
              13         14         15         16         17         18
     1  H    0.000529   0.000220   0.000107   0.000469  -0.003237  -0.000363
     2  Rh  -0.001937  -0.005185   0.008015   0.195597  -0.016123   0.174423
     3  P   -0.022419  -0.019799  -0.030058  -0.000713  -0.001033   0.000555
     4  C   -0.001136   0.004423  -0.005655   0.000793  -0.000016  -0.000567
     5  C    0.399924   0.397549   0.395801  -0.000861   0.000659   0.000839
     6  C    0.004136  -0.001698  -0.005998  -0.000863   0.000043  -0.000667
     7  H   -0.000076  -0.000088  -0.000103   0.000006  -0.000001  -0.000256
     8  H   -0.000075  -0.000104   0.004086   0.000035  -0.000001   0.000012
     9  H   -0.000110   0.000702  -0.000211  -0.000387  -0.000016   0.000078
    10  H   -0.000090  -0.000081  -0.000102  -0.000125   0.000000   0.001794
    11  H    0.000918  -0.000085  -0.000140   0.000136  -0.000001  -0.000578
    12  H   -0.000103  -0.000067   0.003749   0.000019   0.000000   0.000117
    13  H    0.491510  -0.013847  -0.020574  -0.000867  -0.000226   0.000103
    14  H   -0.013847   0.497973  -0.020715   0.001515  -0.000079  -0.000063
    15  H   -0.020574  -0.020715   0.526003   0.000107  -0.000025  -0.000012
    16  C   -0.000867   0.001515   0.000107   5.255149   0.548821  -0.010217
    17  O   -0.000226  -0.000079  -0.000025   0.548821   7.600344   0.000348
    18  C    0.000103  -0.000063  -0.000012  -0.010217   0.000348   5.071676
    19  C   -0.000023  -0.000003  -0.000007   0.001781  -0.000649   0.349814
    20  H    0.000001   0.000001   0.000000  -0.000951   0.000069  -0.044363
    21  H   -0.000001  -0.000001   0.000000  -0.003114   0.000141  -0.029194
    22  H   -0.000021   0.000003  -0.000005   0.000685  -0.000010   0.408784
    23  H    0.000002   0.000002  -0.000000  -0.000101  -0.000007   0.423362
    24  C   -0.000058  -0.000166   0.000011   0.012658  -0.002234  -0.017313
    25  O   -0.000000  -0.000012  -0.000002  -0.003312   0.000135  -0.001553
              19         20         21         22         23         24
     1  H    0.003622   0.000676  -0.004221  -0.008509   0.001567  -0.019064
     2  Rh   0.133671  -0.018921  -0.013083  -0.012560  -0.020939   0.116061
     3  P   -0.012476   0.000445   0.000339  -0.004282  -0.001876  -0.003544
     4  C    0.000636  -0.000026  -0.000073   0.001469   0.000759   0.000662
     5  C    0.000043   0.000002   0.000003   0.000018  -0.000062   0.000321
     6  C    0.000240  -0.000033   0.000012  -0.000084   0.000429  -0.007863
     7  H   -0.000040   0.000005   0.000001  -0.000010   0.000073  -0.000405
     8  H   -0.000008   0.000000  -0.000000  -0.000005  -0.000014   0.000420
     9  H   -0.000014  -0.000000   0.000000   0.000006  -0.000017  -0.000051
    10  H   -0.000101   0.000007  -0.000001  -0.000879  -0.000420   0.000119
    11  H   -0.000123   0.000000   0.000014  -0.000206   0.000054  -0.000023
    12  H   -0.000025   0.000001   0.000000  -0.000065  -0.000051  -0.000030
    13  H   -0.000023   0.000001  -0.000001  -0.000021   0.000002  -0.000058
    14  H   -0.000003   0.000001  -0.000001   0.000003   0.000002  -0.000166
    15  H   -0.000007   0.000000   0.000000  -0.000005  -0.000000   0.000011
    16  C    0.001781  -0.000951  -0.003114   0.000685  -0.000101   0.012658
    17  O   -0.000649   0.000069   0.000141  -0.000010  -0.000007  -0.002234
    18  C    0.349814  -0.044363  -0.029194   0.408784   0.423362  -0.017313
    19  C    5.016902   0.436988   0.418640  -0.021626  -0.038438  -0.012145
    20  H    0.436988   0.513586  -0.025470   0.002265  -0.004946  -0.004883
    21  H    0.418640  -0.025470   0.512834  -0.005226   0.002261   0.001496
    22  H   -0.021626   0.002265  -0.005226   0.523461  -0.028690   0.003230
    23  H   -0.038438  -0.004946   0.002261  -0.028690   0.535306  -0.008651
    24  C   -0.012145  -0.004883   0.001496   0.003230  -0.008651   5.415336
    25  O   -0.000147   0.000750  -0.000049  -0.000043   0.001275   0.531423
              25
     1  H    0.000288
     2  Rh   0.002492
     3  P   -0.004424
     4  C    0.000033
     5  C    0.000040
     6  C    0.002202
     7  H   -0.000097
     8  H   -0.000036
     9  H   -0.000130
    10  H   -0.000014
    11  H   -0.000000
    12  H   -0.000002
    13  H   -0.000000
    14  H   -0.000012
    15  H   -0.000002
    16  C   -0.003312
    17  O    0.000135
    18  C   -0.001553
    19  C   -0.000147
    20  H    0.000750
    21  H   -0.000049
    22  H   -0.000043
    23  H    0.001275
    24  C    0.531423
    25  O    7.576693
 Mulliken charges:
               1
     1  H   -0.007594
     2  Rh  -0.042132
     3  P    0.210803
     4  C   -0.438171
     5  C   -0.431209
     6  C   -0.439865
     7  H    0.162072
     8  H    0.147448
     9  H    0.162554
    10  H    0.160348
    11  H    0.165185
    12  H    0.147134
    13  H    0.164440
    14  H    0.159606
    15  H    0.145724
    16  C    0.003738
    17  O   -0.126903
    18  C   -0.326759
    19  C   -0.276514
    20  H    0.144797
    21  H    0.144691
    22  H    0.142300
    23  H    0.139123
    24  C   -0.005306
    25  O   -0.105511
 Sum of Mulliken charges =  -0.00000
 Mulliken charges with hydrogens summed into heavy atoms:
               1
     2  Rh  -0.049725
     3  P    0.210803
     4  C    0.034496
     5  C    0.038562
     6  C    0.032209
    16  C    0.003738
    17  O   -0.126903
    18  C   -0.045337
    19  C    0.012974
    24  C   -0.005306
    25  O   -0.105511
 APT charges:
               1
     1  H   -0.017143
     2  Rh  -1.709307
     3  P    1.417165
     4  C   -0.325456
     5  C   -0.322789
     6  C   -0.333643
     7  H    0.031029
     8  H   -0.015743
     9  H    0.031659
    10  H    0.031859
    11  H    0.034775
    12  H   -0.015870
    13  H    0.036039
    14  H    0.033115
    15  H   -0.019247
    16  C    1.404532
    17  O   -0.983222
    18  C    0.211742
    19  C    0.154971
    20  H   -0.022390
    21  H   -0.011798
    22  H   -0.010681
    23  H   -0.018124
    24  C    1.321507
    25  O   -0.902980
 Sum of APT charges =   0.00000
 APT charges with hydrogens summed into heavy atoms:
               1
     2  Rh  -1.726450
     3  P    1.417165
     4  C   -0.274692
     5  C   -0.272882
     6  C   -0.286697
    16  C    1.404532
    17  O   -0.983222
    18  C    0.182936
    19  C    0.120783
    24  C    1.321507
    25  O   -0.902980
 Electronic spatial extent (au):  <R**2>=           2550.9433
 Charge=              0.0000 electrons
 Dipole moment (field-independent basis, Debye):
    X=             -4.8071    Y=             -1.1974    Z=              0.2645  Tot=              4.9611
 Quadrupole moment (field-independent basis, Debye-Ang):
   XX=            -83.7882   YY=            -93.9781   ZZ=            -91.7954
   XY=             -2.0365   XZ=             -0.0531   YZ=              0.8097
 Traceless Quadrupole moment (field-independent basis, Debye-Ang):
   XX=              6.0657   YY=             -4.1242   ZZ=             -1.9415
   XY=             -2.0365   XZ=             -0.0531   YZ=              0.8097
 Octapole moment (field-independent basis, Debye-Ang**2):
  XXX=              8.8529  YYY=             -8.6428  ZZZ=            -11.7444  XYY=             -5.3274
  XXY=             -0.2369  XXZ=              0.7351  XZZ=              2.3266  YZZ=              9.0118
  YYZ=              3.9654  XYZ=             -0.6155
 Hexadecapole moment (field-independent basis, Debye-Ang**3):
 XXXX=          -1601.1463 YYYY=          -1031.0669 ZZZZ=           -783.4853 XXXY=              5.8638
 XXXZ=              8.9252 YYYX=             -6.9367 YYYZ=            -22.3120 ZZZX=             -7.4945
 ZZZY=              6.1525 XXYY=           -464.5860 XXZZ=           -408.7613 YYZZ=           -292.8946
 XXYZ=             -8.7936 YYXZ=             10.0471 ZZXY=             14.7799
 N-N= 8.765873028274D+02 E-N=-3.791351166202D+03  KE= 8.047590659407D+02
  Exact polarizability: 189.211  -4.046 184.769  -2.649   3.323 168.367
 Approx polarizability: 165.603   1.757 184.114   2.281  -2.152 173.157
 No NMR shielding tensors so no spin-rotation constants.
 Leave Link  601 at Tue Oct  4 18:10:30 2022, MaxMem=  2952790016 cpu:               8.6 elap:               0.8
 (Enter /mnt/data/applications/G16/g16/l701.exe)
 ... and contract with generalized density number  0.
 Compute integral second derivatives.
 R6Disp: Adding Grimme-D2 dispersion energy 2nd derivatives to the Hessian.
   1 Symmetry operations used in ECPInt.
 ECPInt:  NShTT=   16653 NPrTT=   49115 LenC2=   15842 LenP2D=   35624.
 LDataN:  DoStor=T MaxTD1= 9 Len=  602
 D2PCM: PCM CHGder 2nd derivatives, FixD1E=F FixD2E=F DoIter=F DoCFld=F I1PDM=0
 GePol: Maximum number of non-zero 2nd derivatives   =     421
 Leave Link  701 at Tue Oct  4 18:11:24 2022, MaxMem=  2952790016 cpu:             636.8 elap:              53.2
 (Enter /mnt/data/applications/G16/g16/l702.exe)
 L702 exits ... SP integral derivatives will be done elsewhere.
 Leave Link  702 at Tue Oct  4 18:11:24 2022, MaxMem=  2952790016 cpu:               0.2 elap:               0.0
 (Enter /mnt/data/applications/G16/g16/l703.exe)
 Integral derivatives from FoFJK, PRISM(SPDF).
 Compute integral second derivatives, UseDBF=F ICtDFT=           0.
 Calling FoFJK, ICntrl=    100127 FMM=F ISym2X=0 I1Cent= 0 IOpClX= 0 NMat=1 NMatS=1 NMatT=0.
 FoFJK:  IHMeth= 1 ICntrl=  100127 DoSepK=T KAlg= 0 I1Cent=           0 FoldK=F
 IRaf=         1 NMat=       1 IRICut=       1 DoRegI=T DoRafI=F ISym2E= 0 IDoP0=0 IntGTp=1.
 FoFCou: FMM=F IPFlag=           0 FMFlag=      100000 FMFlg1=         800
         NFxFlg=           0 DoJE=F BraDBF=F KetDBF=F FulRan=T
         wScrn=  0.000000 ICntrl=    100527 IOpCl=  0 I1Cent=           0 NGrid=           0
         NMat0=    1 NMatS0=      1 NMatT0=    0 NMatD0=    1 NMtDS0=    0 NMtDT0=    0
 Symmetry not used in FoFCou.
 Defaulting to unpruned grid for atomic number  45.
 Defaulting to unpruned grid for atomic number  45.
 Defaulting to unpruned grid for atomic number  45.
 Defaulting to unpruned grid for atomic number  45.
 Defaulting to unpruned grid for atomic number  45.
 Defaulting to unpruned grid for atomic number  45.
 Defaulting to unpruned grid for atomic number  45.
 Defaulting to unpruned grid for atomic number  45.
 Defaulting to unpruned grid for atomic number  45.
 Defaulting to unpruned grid for atomic number  45.
 Defaulting to unpruned grid for atomic number  45.
 Defaulting to unpruned grid for atomic number  45.
 Leave Link  703 at Tue Oct  4 18:35:59 2022, MaxMem=  2952790016 cpu:           17659.5 elap:            1475.5
 (Enter /mnt/data/applications/G16/g16/l716.exe)
 Dipole        =-1.89125931D+00-4.71103924D-01 1.04069795D-01
 Polarizability= 1.89211227D+02-4.04619919D+00 1.84769114D+02
                -2.64919408D+00 3.32291890D+00 1.68367244D+02
 Full mass-weighted force constant matrix:
 Low frequencies ---  -13.0855   -0.0002    0.0003    0.0008    6.1989   14.7187
 Low frequencies ---   31.5230   55.2080   66.7535
 Diagonal vibrational polarizability:
       29.4122744      44.0743976      32.5928330
 Harmonic frequencies (cm**-1), IR intensities (KM/Mole), Raman scattering
 activities (A**4/AMU), depolarization ratios for plane and unpolarized
 incident light, reduced masses (AMU), force constants (mDyne/A),
 and normal coordinates:
                      1                      2                      3
                      A                      A                      A
 Frequencies --     31.4566                55.1431                66.7212
 Red. masses --      3.3752                 8.1578                 8.0819
 Frc consts  --      0.0020                 0.0146                 0.0212
 IR Inten    --      0.0636                 1.1166                 0.6162
  Atom  AN      X      Y      Z        X      Y      Z        X      Y      Z
     1   1    -0.01   0.05   0.02    -0.05   0.12   0.02    -0.02   0.03   0.03
     2  45    -0.00   0.00   0.00    -0.03   0.06  -0.00    -0.03   0.01   0.03
     3  15    -0.00   0.01  -0.00    -0.03  -0.07   0.01    -0.04  -0.01  -0.07
     4   6     0.00  -0.15   0.15     0.05  -0.16   0.04     0.04  -0.01  -0.14
     5   6    -0.01  -0.04  -0.22    -0.17  -0.15   0.01    -0.06  -0.02  -0.11
     6   6    -0.00   0.23   0.06     0.02  -0.13   0.02    -0.12  -0.04  -0.12
     7   1    -0.02   0.25   0.19     0.11  -0.10   0.02    -0.08  -0.02  -0.10
     8   1    -0.00   0.24   0.06     0.02  -0.22   0.03    -0.12  -0.09  -0.18
     9   1     0.01   0.32  -0.03    -0.03  -0.10   0.02    -0.19  -0.02  -0.10
    10   1     0.02  -0.13   0.28     0.13  -0.14   0.05     0.04  -0.01  -0.12
    11   1    -0.01  -0.28   0.11     0.02  -0.16   0.03     0.10  -0.00  -0.12
    12   1     0.00  -0.15   0.14     0.04  -0.25   0.05     0.03  -0.02  -0.20
    13   1    -0.02  -0.18  -0.27    -0.24  -0.15  -0.01    -0.03  -0.03  -0.10
    14   1    -0.02   0.06  -0.32    -0.19  -0.10  -0.03    -0.11  -0.01  -0.10
    15   1    -0.01  -0.04  -0.21    -0.16  -0.23   0.06    -0.07  -0.05  -0.16
    16   6    -0.01   0.00   0.07     0.22  -0.03   0.00     0.02  -0.02   0.09
    17   8    -0.00  -0.00   0.12     0.49  -0.11  -0.00     0.08  -0.04   0.19
    18   6     0.01   0.04  -0.07    -0.06   0.08  -0.07    -0.20  -0.03   0.06
    19   6     0.01   0.05  -0.05    -0.06   0.06  -0.07    -0.15  -0.12   0.00
    20   1     0.01   0.04  -0.06    -0.05   0.04  -0.08    -0.14  -0.17  -0.02
    21   1    -0.00   0.09  -0.04    -0.07   0.09  -0.06    -0.15  -0.16  -0.02
    22   1     0.01   0.06  -0.07    -0.08   0.12  -0.07    -0.24  -0.00   0.08
    23   1     0.03   0.01  -0.10    -0.06   0.06  -0.09    -0.23  -0.01   0.08
    24   6     0.01  -0.07  -0.02    -0.09   0.06   0.01     0.19   0.07   0.01
    25   8     0.02  -0.11  -0.04    -0.17   0.10   0.04     0.48   0.15  -0.03
                      4                      5                      6
                      A                      A                      A
 Frequencies --     75.6209                94.9049               108.8871
 Red. masses --     11.3689                 4.6923                 4.7213
 Frc consts  --      0.0383                 0.0249                 0.0330
 IR Inten    --      0.2263                 2.3175                 2.0084
  Atom  AN      X      Y      Z        X      Y      Z        X      Y      Z
     1   1     0.05  -0.02  -0.09    -0.11  -0.08   0.01     0.07  -0.12  -0.14
     2  45     0.04  -0.05  -0.10    -0.05  -0.06   0.00    -0.02   0.03  -0.07
     3  15     0.05  -0.02  -0.00    -0.05  -0.01   0.00    -0.03   0.02  -0.03
     4   6    -0.07  -0.00   0.08    -0.13   0.07  -0.01    -0.11   0.01   0.04
     5   6     0.07   0.00   0.05     0.07   0.05   0.01    -0.10   0.00   0.05
     6   6     0.16   0.02   0.06    -0.10   0.04  -0.00     0.12  -0.01   0.03
     7   1     0.15   0.01   0.05    -0.17   0.03   0.01     0.16  -0.00  -0.01
     8   1     0.16   0.04   0.14    -0.10   0.12  -0.02     0.12  -0.03   0.13
     9   1     0.22   0.02   0.02    -0.07   0.03  -0.00     0.18  -0.01  -0.00
    10   1    -0.08  -0.01   0.06    -0.20   0.04  -0.03    -0.09   0.01   0.03
    11   1    -0.14  -0.02   0.05    -0.12   0.06  -0.01    -0.19  -0.00   0.02
    12   1    -0.06   0.03   0.16    -0.13   0.14  -0.01    -0.10  -0.00   0.12
    13   1     0.01  -0.00   0.03     0.11   0.05   0.02    -0.19   0.02   0.03
    14   1     0.14  -0.01   0.03     0.11   0.01   0.03    -0.06   0.01   0.02
    15   1     0.07   0.04   0.12     0.06   0.13  -0.01    -0.09  -0.03   0.14
    16   6    -0.02  -0.05   0.13    -0.02  -0.06   0.01    -0.01   0.02  -0.02
    17   8    -0.13  -0.03   0.45     0.11  -0.10   0.00     0.08  -0.01   0.16
    18   6    -0.07  -0.06  -0.11     0.27   0.02  -0.07     0.12  -0.08   0.22
    19   6    -0.03  -0.12  -0.12     0.15   0.23  -0.03     0.10  -0.06   0.25
    20   1    -0.04  -0.15  -0.13     0.18   0.33  -0.03     0.04   0.05   0.36
    21   1    -0.02  -0.13  -0.13     0.08   0.31  -0.01     0.19  -0.17   0.23
    22   1    -0.08  -0.03  -0.11     0.30  -0.05  -0.08     0.21  -0.21   0.17
    23   1    -0.10  -0.05  -0.11     0.39  -0.02  -0.10     0.06   0.01   0.31
    24   6    -0.05   0.14  -0.01     0.02   0.01   0.01    -0.03   0.03  -0.07
    25   8    -0.20   0.46   0.13     0.11   0.13   0.04     0.05  -0.09  -0.13
                      7                      8                      9
                      A                      A                      A
 Frequencies --    134.2690               178.9706               183.5233
 Red. masses --      2.1828                 3.2960                 3.0286
 Frc consts  --      0.0232                 0.0622                 0.0601
 IR Inten    --      0.1034                 6.4731                 3.1238
  Atom  AN      X      Y      Z        X      Y      Z        X      Y      Z
     1   1    -0.11  -0.08  -0.01    -0.03  -0.07  -0.03     0.02   0.01   0.05
     2  45     0.00   0.01  -0.01    -0.00  -0.04  -0.03    -0.00  -0.03   0.04
     3  15     0.01  -0.00   0.02    -0.00   0.12   0.07     0.00   0.07  -0.10
     4   6     0.05  -0.00  -0.01     0.25   0.02  -0.02    -0.05   0.06  -0.05
     5   6     0.04   0.00  -0.00    -0.21   0.02   0.07    -0.16  -0.00  -0.05
     6   6    -0.06  -0.00  -0.01    -0.07   0.07   0.03     0.24   0.01  -0.02
     7   1    -0.08  -0.01   0.00     0.00   0.11   0.08     0.39   0.04  -0.07
     8   1    -0.06   0.00  -0.06    -0.07  -0.03  -0.06     0.24  -0.10   0.16
     9   1    -0.09  -0.01   0.01    -0.20   0.13   0.04     0.30   0.05  -0.08
    10   1     0.03  -0.00   0.01     0.45   0.07  -0.04     0.00   0.07  -0.13
    11   1     0.10  -0.01  -0.00     0.31   0.11   0.01    -0.16   0.12  -0.07
    12   1     0.04   0.01  -0.06     0.22  -0.21  -0.13    -0.04   0.02   0.05
    13   1     0.08   0.01   0.01    -0.20   0.12   0.10    -0.41  -0.06  -0.14
    14   1     0.02  -0.00   0.01    -0.39   0.06   0.13    -0.09   0.09  -0.19
    15   1     0.03   0.02  -0.05    -0.20  -0.17  -0.01    -0.14  -0.10   0.18
    16   6    -0.01   0.01  -0.03    -0.00  -0.03  -0.02     0.01  -0.03   0.03
    17   8     0.01   0.00   0.06    -0.02  -0.03   0.02    -0.02  -0.02  -0.04
    18   6     0.04  -0.08   0.20     0.04  -0.01  -0.03     0.02  -0.01   0.03
    19   6    -0.06   0.05  -0.17     0.03   0.02   0.03    -0.03   0.06  -0.10
    20   1     0.12   0.25  -0.33     0.02   0.01   0.04     0.06   0.10  -0.18
    21   1    -0.33  -0.04  -0.31     0.07   0.02   0.04    -0.15   0.07  -0.13
    22   1    -0.14  -0.29   0.35     0.09  -0.03  -0.06    -0.06  -0.06   0.09
    23   1     0.30   0.02   0.34     0.04  -0.04  -0.05     0.14  -0.01   0.05
    24   6     0.02   0.02  -0.01     0.00  -0.02  -0.02    -0.01  -0.04   0.05
    25   8    -0.05  -0.04  -0.02     0.00   0.03  -0.00     0.02  -0.00   0.06
                     10                     11                     12
                      A                      A                      A
 Frequencies --    205.9341               212.9704               244.0210
 Red. masses --      1.1839                 2.7461                 1.1044
 Frc consts  --      0.0296                 0.0734                 0.0387
 IR Inten    --      0.0748                 0.3110                 0.0476
  Atom  AN      X      Y      Z        X      Y      Z        X      Y      Z
     1   1     0.04   0.02  -0.00     0.14   0.02  -0.01    -0.03  -0.01  -0.00
     2  45     0.02   0.00  -0.00     0.08   0.00  -0.00    -0.00   0.00  -0.00
     3  15    -0.02   0.00   0.01    -0.06  -0.00  -0.00     0.00  -0.01   0.03
     4   6    -0.03   0.02   0.00    -0.17   0.03   0.04     0.02   0.03  -0.01
     5   6    -0.05  -0.01   0.02    -0.16  -0.04   0.00     0.02  -0.01  -0.04
     6   6    -0.06  -0.01  -0.01    -0.14   0.02  -0.02    -0.04  -0.01   0.01
     7   1     0.11   0.08   0.12    -0.33  -0.05  -0.08    -0.14  -0.06  -0.04
     8   1    -0.07  -0.23  -0.13    -0.13   0.22  -0.05    -0.03   0.10   0.01
     9   1    -0.28   0.14  -0.03    -0.04  -0.10   0.03     0.03  -0.09   0.05
    10   1    -0.30  -0.02   0.21    -0.05   0.03  -0.15     0.30   0.06  -0.32
    11   1     0.20  -0.19   0.01    -0.42   0.17   0.01    -0.24   0.33  -0.01
    12   1    -0.04   0.27  -0.21    -0.15  -0.07   0.29     0.03  -0.25   0.22
    13   1    -0.37  -0.18  -0.12    -0.02   0.10   0.09    -0.26  -0.25  -0.20
    14   1     0.22   0.09  -0.22    -0.41  -0.06   0.15     0.30   0.12  -0.31
    15   1    -0.02   0.04   0.40    -0.17  -0.20  -0.21     0.04   0.08   0.31
    16   6     0.01   0.00   0.00     0.03   0.01   0.01    -0.00   0.00  -0.01
    17   8    -0.01   0.01  -0.00    -0.01   0.03  -0.01    -0.00   0.00   0.01
    18   6     0.01  -0.01  -0.01     0.02  -0.01   0.00     0.00  -0.00   0.00
    19   6     0.01  -0.01  -0.00     0.02  -0.03  -0.04     0.00  -0.01   0.01
    20   1     0.01  -0.02  -0.00     0.04  -0.04  -0.07    -0.00  -0.00   0.01
    21   1     0.02  -0.01  -0.00    -0.00  -0.04  -0.06     0.01  -0.01   0.01
    22   1     0.01  -0.00  -0.01    -0.02  -0.01   0.02     0.00   0.01  -0.00
    23   1     0.00  -0.00  -0.01     0.03  -0.00   0.01    -0.01  -0.00   0.00
    24   6     0.01  -0.00  -0.00     0.05  -0.01   0.02     0.01   0.01  -0.01
    25   8    -0.01  -0.00   0.00    -0.01  -0.01   0.03    -0.00   0.00  -0.01
                     13                     14                     15
                      A                      A                      A
 Frequencies --    254.3530               268.2577               270.5117
 Red. masses --      1.1429                 2.0309                 2.2699
 Frc consts  --      0.0436                 0.0861                 0.0979
 IR Inten    --      0.4938                 3.4034                 1.7248
  Atom  AN      X      Y      Z        X      Y      Z        X      Y      Z
     1   1    -0.00  -0.00   0.00     0.01   0.03   0.01    -0.05  -0.02  -0.00
     2  45     0.00   0.00   0.00    -0.00   0.01   0.00    -0.00   0.00  -0.01
     3  15    -0.00  -0.04  -0.01     0.00  -0.08  -0.03     0.00  -0.03   0.10
     4   6    -0.02   0.01  -0.04     0.02  -0.01  -0.13    -0.01   0.17  -0.08
     5   6     0.03  -0.02   0.03    -0.02  -0.07   0.12    -0.03  -0.10  -0.15
     6   6     0.00   0.06   0.02     0.01   0.17   0.05     0.04  -0.03   0.12
     7   1     0.36   0.25   0.34    -0.31   0.10   0.14     0.07  -0.02   0.11
     8   1    -0.01  -0.36  -0.11     0.02   0.56   0.16     0.04  -0.04   0.18
     9   1    -0.34   0.42  -0.13     0.32   0.15  -0.08     0.08  -0.02   0.09
    10   1     0.12   0.02  -0.25    -0.08  -0.04  -0.14    -0.26   0.08  -0.18
    11   1    -0.19   0.21  -0.03     0.19   0.02  -0.08     0.22   0.26   0.00
    12   1    -0.02  -0.13   0.12     0.02   0.08  -0.28    -0.01   0.39  -0.26
    13   1     0.11   0.06   0.08    -0.18   0.03   0.11     0.17  -0.23  -0.14
    14   1    -0.03  -0.08   0.11     0.07  -0.13   0.13    -0.26   0.04  -0.17
    15   1     0.02  -0.02  -0.06    -0.01  -0.09   0.28    -0.04  -0.18  -0.40
    16   6    -0.00   0.00  -0.00    -0.00   0.00   0.00    -0.01   0.01  -0.02
    17   8     0.00   0.00   0.00     0.00   0.00  -0.00     0.01   0.00   0.01
    18   6    -0.00  -0.00   0.00    -0.00  -0.01  -0.00    -0.00   0.00  -0.01
    19   6    -0.00  -0.01  -0.00    -0.00  -0.02  -0.01     0.00  -0.00   0.02
    20   1    -0.00  -0.00  -0.00    -0.00  -0.01  -0.01    -0.01  -0.01   0.03
    21   1    -0.00  -0.01  -0.00    -0.01  -0.01  -0.01     0.03  -0.01   0.02
    22   1    -0.01   0.00   0.00    -0.01   0.00   0.01     0.02   0.01  -0.02
    23   1    -0.00   0.00   0.00    -0.01   0.00   0.01    -0.02  -0.00  -0.01
    24   6    -0.00   0.00   0.00    -0.00   0.01   0.00     0.02   0.01  -0.01
    25   8    -0.00  -0.01  -0.00     0.00  -0.00  -0.00    -0.02  -0.00  -0.01
                     16                     17                     18
                      A                      A                      A
 Frequencies --    340.6092               357.6260               379.8334
 Red. masses --      5.6706                 4.4816                 9.2253
 Frc consts  --      0.3876                 0.3377                 0.7842
 IR Inten    --     50.6126                15.8867                 0.7323
  Atom  AN      X      Y      Z        X      Y      Z        X      Y      Z
     1   1    -0.33  -0.01   0.08    -0.02  -0.12  -0.04    -0.26  -0.44  -0.03
     2  45    -0.07   0.03   0.05    -0.02  -0.03  -0.04    -0.02   0.03  -0.07
     3  15     0.17   0.01  -0.01     0.21  -0.01  -0.01    -0.05   0.01  -0.01
     4   6    -0.02   0.07   0.09    -0.02   0.09   0.09     0.01  -0.03  -0.03
     5   6    -0.04  -0.09   0.02    -0.02  -0.13   0.03     0.00   0.05  -0.00
     6   6    -0.03   0.02  -0.11    -0.03   0.04  -0.12     0.02  -0.01   0.02
     7   1    -0.14   0.01  -0.06    -0.19   0.02  -0.03     0.06  -0.00  -0.02
     8   1    -0.03   0.07  -0.33    -0.03   0.14  -0.38     0.01  -0.03   0.11
     9   1    -0.16   0.00  -0.02    -0.17   0.02  -0.04     0.07  -0.01  -0.01
    10   1    -0.13   0.04   0.07    -0.19   0.03   0.04     0.06  -0.01   0.00
    11   1    -0.14   0.02   0.04    -0.17   0.04   0.04     0.05  -0.05  -0.02
    12   1     0.01   0.22   0.25     0.02   0.29   0.29    -0.01  -0.09  -0.09
    13   1    -0.13  -0.01   0.02    -0.16  -0.05   0.02     0.02   0.04  -0.00
    14   1    -0.20  -0.03   0.04    -0.16  -0.06   0.03     0.06   0.02  -0.00
    15   1    -0.03  -0.34   0.03    -0.00  -0.39   0.09    -0.00   0.13   0.00
    16   6     0.19  -0.02  -0.13    -0.10   0.02   0.01    -0.05   0.06  -0.33
    17   8    -0.06   0.05   0.05     0.04  -0.02  -0.00     0.04   0.02   0.13
    18   6     0.17  -0.22  -0.15    -0.13   0.17   0.10     0.03  -0.05  -0.11
    19   6     0.08  -0.20  -0.10    -0.07   0.16   0.09     0.02  -0.05  -0.03
    20   1     0.04  -0.09  -0.02    -0.07   0.10   0.06    -0.03  -0.06   0.02
    21   1     0.04  -0.02  -0.02    -0.02   0.06   0.05     0.09  -0.03   0.00
    22   1     0.09  -0.10  -0.12    -0.06   0.10   0.06     0.05   0.01  -0.14
    23   1     0.10  -0.17  -0.11    -0.10   0.13   0.06    -0.02  -0.07  -0.15
    24   6    -0.04   0.08  -0.02     0.03  -0.03   0.06     0.21   0.07   0.45
    25   8     0.00  -0.01  -0.06     0.00  -0.02   0.06     0.04  -0.22   0.39
                     19                     20                     21
                      A                      A                      A
 Frequencies --    394.1839               440.0670               459.6211
 Red. masses --      6.1772                 9.7723                 9.1584
 Frc consts  --      0.5655                 1.1150                 1.1399
 IR Inten    --     43.9258                 6.0808                 5.4229
  Atom  AN      X      Y      Z        X      Y      Z        X      Y      Z
     1   1     0.41   0.54   0.01    -0.23  -0.12   0.02     0.15  -0.26  -0.11
     2  45    -0.03   0.06  -0.08    -0.05  -0.08   0.00     0.01  -0.08  -0.02
     3  15     0.03  -0.01   0.03    -0.00   0.00  -0.00    -0.03  -0.03   0.01
     4   6     0.02   0.02   0.02     0.00  -0.00  -0.00    -0.02  -0.02  -0.03
     5   6     0.02  -0.03  -0.01    -0.00   0.01  -0.00     0.01  -0.01   0.00
     6   6    -0.02  -0.01   0.03     0.01  -0.00  -0.00    -0.01  -0.01   0.04
     7   1    -0.06  -0.02   0.05     0.03   0.00  -0.01    -0.04  -0.01   0.07
     8   1    -0.02   0.00  -0.04     0.00  -0.02   0.02    -0.01   0.02   0.06
     9   1    -0.07  -0.01   0.05     0.01  -0.00  -0.01     0.02   0.01   0.01
    10   1     0.02   0.02  -0.03    -0.00  -0.00   0.01    -0.04  -0.03  -0.05
    11   1     0.04   0.07   0.03     0.01  -0.01  -0.00     0.00   0.00  -0.02
    12   1     0.02   0.02   0.00    -0.00  -0.01  -0.02    -0.02  -0.01  -0.05
    13   1     0.06  -0.07  -0.01    -0.01   0.01  -0.01     0.07  -0.03   0.01
    14   1    -0.01   0.00  -0.02     0.01   0.01  -0.00     0.07  -0.04   0.00
    15   1     0.02  -0.03  -0.05    -0.00   0.02   0.01     0.01   0.08  -0.02
    16   6     0.12  -0.08   0.31    -0.16   0.49   0.16     0.53   0.12  -0.14
    17   8    -0.06  -0.01  -0.12     0.25   0.39  -0.03    -0.07   0.31   0.07
    18   6     0.07  -0.10   0.03     0.03   0.02   0.02    -0.07   0.02   0.01
    19   6     0.03  -0.07  -0.04     0.17  -0.21  -0.11    -0.17   0.23   0.10
    20   1     0.04   0.09   0.01     0.16  -0.29  -0.13    -0.14   0.25   0.08
    21   1    -0.00  -0.16  -0.09     0.17  -0.30  -0.16    -0.19   0.28   0.12
    22   1     0.09  -0.26   0.04    -0.01   0.03   0.04    -0.02  -0.05  -0.01
    23   1     0.05   0.04   0.18    -0.04   0.06   0.05     0.03  -0.03  -0.02
    24   6    -0.16  -0.29   0.13     0.06  -0.19  -0.06    -0.30   0.01   0.08
    25   8     0.11   0.02   0.19    -0.02   0.06   0.05     0.11  -0.01  -0.01
                     22                     23                     24
                      A                      A                      A
 Frequencies --    475.2517               526.2952               530.2519
 Red. masses --      4.6992                 6.8022                 5.2649
 Frc consts  --      0.6253                 1.1101                 0.8722
 IR Inten    --     19.8502                24.4408                12.9191
  Atom  AN      X      Y      Z        X      Y      Z        X      Y      Z
     1   1    -0.63   0.25   0.22    -0.36  -0.29  -0.02    -0.17   0.13   0.09
     2  45    -0.02   0.01  -0.00    -0.04  -0.03  -0.03    -0.01   0.01   0.01
     3  15    -0.01  -0.00  -0.02    -0.01   0.00  -0.00    -0.02  -0.00   0.00
     4   6    -0.02  -0.02  -0.02    -0.01  -0.01  -0.01    -0.01  -0.01  -0.01
     5   6    -0.00   0.01  -0.00    -0.01   0.01  -0.00    -0.00   0.00  -0.00
     6   6     0.01   0.01  -0.01    -0.01  -0.00   0.01    -0.01  -0.00   0.01
     7   1     0.03   0.01  -0.01    -0.00  -0.00   0.00    -0.00  -0.00   0.01
     8   1     0.01  -0.00   0.03    -0.01  -0.00   0.03    -0.01  -0.01   0.01
     9   1     0.04   0.02  -0.04     0.01  -0.00   0.00    -0.00   0.00   0.00
    10   1    -0.02  -0.02  -0.02    -0.01  -0.01  -0.00    -0.02  -0.01  -0.01
    11   1    -0.04  -0.03  -0.03     0.00  -0.01  -0.01    -0.00  -0.01  -0.01
    12   1    -0.02  -0.02   0.00    -0.01  -0.01  -0.02    -0.01  -0.00  -0.02
    13   1    -0.00   0.04   0.01    -0.00   0.01  -0.00     0.01   0.01   0.00
    14   1     0.02  -0.02   0.02    -0.00   0.01  -0.00     0.00  -0.01   0.01
    15   1    -0.00   0.03   0.01    -0.01   0.02  -0.00    -0.00   0.01  -0.01
    16   6     0.18  -0.03  -0.00     0.27  -0.10   0.32     0.10  -0.09  -0.28
    17   8    -0.05   0.04   0.00    -0.09   0.02  -0.09    -0.07  -0.05   0.08
    18   6     0.00  -0.07   0.01    -0.02   0.23   0.08    -0.03   0.32   0.15
    19   6    -0.09   0.08   0.12     0.17  -0.08  -0.08     0.22  -0.11  -0.10
    20   1    -0.12   0.21   0.21     0.12  -0.10  -0.04     0.23  -0.20  -0.14
    21   1    -0.04   0.05   0.13     0.22  -0.20  -0.12     0.19  -0.18  -0.14
    22   1     0.10  -0.13  -0.05    -0.01   0.17   0.09    -0.12   0.37   0.21
    23   1    -0.04  -0.04   0.04    -0.11   0.31   0.15    -0.12   0.35   0.17
    24   6     0.39  -0.23  -0.15     0.19   0.35   0.08    -0.08  -0.24  -0.06
    25   8    -0.12   0.07   0.06    -0.06  -0.11  -0.03     0.03   0.07   0.03
                     25                     26                     27
                      A                      A                      A
 Frequencies --    697.2964               707.0270               755.5890
 Red. masses --      3.9431                 1.0889                 3.6634
 Frc consts  --      1.1296                 0.3207                 1.2323
 IR Inten    --     26.0459                 3.7945                19.2710
  Atom  AN      X      Y      Z        X      Y      Z        X      Y      Z
     1   1     0.01   0.00  -0.00     0.08  -0.02  -0.05     0.09   0.04  -0.01
     2  45    -0.00   0.00   0.00    -0.01   0.00  -0.01    -0.00  -0.00  -0.00
     3  15     0.16  -0.00  -0.01    -0.00   0.00   0.00     0.01  -0.07   0.17
     4   6    -0.09  -0.16  -0.17     0.00   0.00   0.00    -0.07  -0.11  -0.05
     5   6    -0.08   0.24  -0.05     0.00  -0.01   0.00    -0.08   0.16   0.01
     6   6    -0.07  -0.07   0.24    -0.00  -0.00   0.00     0.13   0.07  -0.26
     7   1    -0.18  -0.09   0.30    -0.00  -0.00   0.00     0.05   0.06  -0.22
     8   1    -0.07  -0.03   0.09    -0.00   0.00  -0.01     0.14   0.14  -0.45
     9   1    -0.18  -0.08   0.30    -0.00   0.00   0.00     0.07   0.09  -0.26
    10   1    -0.20  -0.20  -0.20    -0.00  -0.00   0.00    -0.15  -0.18  -0.27
    11   1    -0.21  -0.19  -0.21    -0.00  -0.00  -0.00     0.06   0.10   0.04
    12   1    -0.07  -0.06  -0.05     0.00   0.00  -0.00    -0.09  -0.07  -0.20
    13   1    -0.18   0.29  -0.06     0.01  -0.01   0.00     0.03  -0.05  -0.03
    14   1    -0.18   0.29  -0.04     0.01  -0.01  -0.00    -0.13   0.32  -0.12
    15   1    -0.07   0.09  -0.01     0.00   0.01  -0.00    -0.10   0.25  -0.13
    16   6    -0.01   0.00   0.00     0.01  -0.00   0.02     0.00   0.00   0.00
    17   8     0.00  -0.01  -0.00    -0.00   0.00  -0.00    -0.00   0.00   0.00
    18   6     0.00  -0.00  -0.00     0.01  -0.02   0.05     0.00   0.00   0.00
    19   6    -0.01   0.00   0.00     0.01  -0.02   0.04     0.00  -0.00   0.00
    20   1    -0.01   0.01   0.00     0.19  -0.37  -0.27     0.00  -0.00  -0.00
    21   1    -0.02   0.02   0.01    -0.23   0.43   0.18    -0.00   0.01   0.00
    22   1    -0.02   0.02   0.01    -0.25   0.38   0.17    -0.01   0.01   0.01
    23   1    -0.01   0.00   0.00     0.22  -0.33  -0.26     0.00   0.00   0.00
    24   6    -0.00   0.00  -0.00     0.02  -0.01  -0.00    -0.00   0.00   0.00
    25   8    -0.00   0.00  -0.01    -0.01   0.00   0.00     0.00  -0.00  -0.00
                     28                     29                     30
                      A                      A                      A
 Frequencies --    756.4365               765.4696               803.9593
 Red. masses --      3.5107                 1.2838                 1.1659
 Frc consts  --      1.1835                 0.4432                 0.4440
 IR Inten    --     17.9689               123.6360                 0.0349
  Atom  AN      X      Y      Z        X      Y      Z        X      Y      Z
     1   1    -0.22  -0.15   0.01     0.91   0.34  -0.11     0.01  -0.02  -0.01
     2  45     0.01   0.00  -0.00    -0.02  -0.01   0.01    -0.00   0.00   0.00
     3  15     0.01   0.17   0.07     0.01   0.02   0.00     0.00   0.00   0.00
     4   6    -0.14  -0.15  -0.18    -0.02  -0.01  -0.01    -0.00   0.05  -0.05
     5   6     0.12  -0.20   0.06     0.01  -0.03   0.01     0.00   0.01   0.07
     6   6     0.01   0.06  -0.01    -0.00   0.00   0.01    -0.00  -0.07  -0.02
     7   1     0.10   0.02  -0.27    -0.00  -0.00  -0.02    -0.12  -0.00   0.37
     8   1     0.01  -0.08  -0.06    -0.00  -0.01  -0.02     0.01   0.17   0.05
     9   1    -0.09  -0.12   0.19    -0.03  -0.02   0.05     0.12   0.20  -0.31
    10   1    -0.05  -0.11  -0.10     0.03   0.01  -0.00     0.16   0.15   0.31
    11   1    -0.13  -0.23  -0.20     0.02  -0.01   0.00    -0.16  -0.31  -0.17
    12   1    -0.17  -0.29  -0.26    -0.03  -0.06  -0.06     0.00  -0.13   0.11
    13   1     0.10  -0.31   0.03     0.03  -0.05   0.01     0.13  -0.37  -0.03
    14   1     0.01  -0.09   0.00     0.02  -0.02  -0.00    -0.13   0.31  -0.17
    15   1     0.13  -0.38   0.03     0.01  -0.01  -0.01    -0.01  -0.03  -0.17
    16   6    -0.01  -0.00   0.02     0.02   0.01  -0.05     0.00  -0.00   0.00
    17   8     0.00  -0.01  -0.01    -0.00   0.02   0.01    -0.00  -0.00  -0.00
    18   6     0.00  -0.01  -0.00     0.00   0.01  -0.00    -0.00   0.00  -0.00
    19   6    -0.00   0.00   0.00     0.01  -0.00  -0.02     0.00   0.00  -0.00
    20   1    -0.00  -0.01   0.00    -0.00   0.05   0.01    -0.00  -0.00   0.00
    21   1     0.01  -0.01   0.00     0.02  -0.02  -0.02     0.01  -0.00  -0.00
    22   1    -0.01   0.01   0.00     0.03  -0.05  -0.01    -0.00  -0.01   0.00
    23   1    -0.00  -0.01  -0.01     0.00   0.06   0.04     0.00   0.00   0.00
    24   6    -0.03  -0.01   0.00     0.10   0.03  -0.01     0.00  -0.00  -0.00
    25   8     0.01   0.00  -0.00    -0.03  -0.01  -0.00    -0.00   0.00   0.00
                     31                     32                     33
                      A                      A                      A
 Frequencies --    837.2772               849.7393               873.5277
 Red. masses --      1.1079                 1.0816                 1.2629
 Frc consts  --      0.4576                 0.4601                 0.5678
 IR Inten    --     20.8030                24.1049                19.9151
  Atom  AN      X      Y      Z        X      Y      Z        X      Y      Z
     1   1    -0.18   0.58   0.20    -0.21   0.62   0.21     0.04   0.12   0.02
     2  45     0.00  -0.01  -0.01     0.00  -0.01  -0.01    -0.00  -0.00  -0.00
     3  15    -0.00  -0.00   0.00    -0.00  -0.00   0.00     0.00   0.03   0.03
     4   6    -0.01   0.01  -0.00    -0.01   0.01  -0.00     0.08  -0.04  -0.05
     5   6     0.01   0.01   0.00     0.02   0.01  -0.00    -0.03  -0.03  -0.01
     6   6    -0.00   0.00  -0.00    -0.01   0.01  -0.00    -0.05  -0.01  -0.04
     7   1     0.01   0.00  -0.02     0.03   0.01  -0.04     0.14   0.06  -0.02
     8   1    -0.00  -0.01   0.01    -0.01  -0.02   0.04    -0.05  -0.04   0.32
     9   1     0.00  -0.01   0.00     0.02  -0.01  -0.00     0.20   0.06  -0.21
    10   1     0.03   0.02   0.03     0.04   0.03   0.03    -0.32  -0.16  -0.09
    11   1     0.01  -0.02  -0.00     0.01  -0.02  -0.00    -0.33  -0.11  -0.17
    12   1    -0.01  -0.04  -0.02    -0.01  -0.04  -0.02     0.16   0.37   0.41
    13   1    -0.03   0.01  -0.01    -0.05   0.03  -0.01     0.08   0.04   0.04
    14   1    -0.04   0.04  -0.00    -0.06   0.04   0.00     0.17  -0.19   0.05
    15   1     0.01  -0.07   0.00     0.02  -0.10   0.02    -0.04   0.23   0.02
    16   6    -0.01   0.01  -0.01    -0.01   0.01  -0.02    -0.00   0.00  -0.00
    17   8     0.01   0.01   0.00     0.01   0.01   0.00     0.00  -0.00   0.00
    18   6     0.01  -0.01   0.03    -0.00   0.01  -0.01     0.00  -0.00   0.00
    19   6     0.01  -0.02   0.03    -0.01   0.00  -0.02     0.00   0.00  -0.00
    20   1     0.24   0.27  -0.15    -0.20  -0.23   0.14     0.01  -0.01  -0.01
    21   1    -0.35  -0.08  -0.12     0.27   0.17   0.16     0.01  -0.03  -0.01
    22   1     0.22   0.27  -0.15    -0.25  -0.18   0.18     0.01  -0.00  -0.00
    23   1    -0.35  -0.10  -0.11     0.31   0.10   0.13     0.01  -0.01  -0.01
    24   6    -0.02   0.05   0.02    -0.02   0.04   0.02    -0.00   0.01   0.00
    25   8     0.01  -0.02  -0.00     0.01  -0.01  -0.00     0.00  -0.00  -0.00
                     34                     35                     36
                      A                      A                      A
 Frequencies --    876.7665               947.5563               956.6033
 Red. masses --      1.2622                 1.1073                 1.0627
 Frc consts  --      0.5717                 0.5858                 0.5730
 IR Inten    --     22.4392                24.7285                 0.4184
  Atom  AN      X      Y      Z        X      Y      Z        X      Y      Z
     1   1    -0.12   0.16   0.07     0.01  -0.08  -0.03     0.02   0.03   0.00
     2  45     0.00  -0.00   0.00     0.00  -0.00  -0.00    -0.00  -0.00  -0.00
     3  15    -0.00   0.04  -0.03     0.01   0.01   0.00     0.00   0.00  -0.00
     4   6     0.01  -0.02   0.01    -0.01   0.00   0.01    -0.00   0.00   0.00
     5   6    -0.07  -0.05   0.03    -0.02  -0.01   0.00    -0.00  -0.00  -0.00
     6   6     0.07  -0.03   0.04    -0.02  -0.00  -0.01     0.00  -0.00   0.00
     7   1    -0.27  -0.08   0.23     0.04   0.01   0.00    -0.00  -0.00   0.01
     8   1     0.08   0.17  -0.42    -0.02  -0.01   0.09     0.00   0.00  -0.01
     9   1    -0.22   0.02   0.13     0.05   0.01  -0.05    -0.00   0.00   0.00
    10   1    -0.09  -0.07  -0.13     0.02   0.01  -0.00     0.01   0.01   0.01
    11   1     0.03   0.11   0.05     0.04   0.02   0.02     0.01  -0.00   0.00
    12   1     0.01   0.09  -0.02    -0.02  -0.05  -0.06    -0.00  -0.01  -0.02
    13   1     0.29  -0.23   0.06     0.05  -0.02   0.02     0.00   0.01   0.00
    14   1     0.25  -0.15  -0.04     0.06  -0.04  -0.00     0.01  -0.01   0.00
    15   1    -0.10   0.47  -0.13    -0.02   0.10  -0.02    -0.00   0.01   0.00
    16   6    -0.01   0.00  -0.00    -0.01   0.00   0.01     0.00  -0.00   0.00
    17   8     0.00  -0.00   0.00     0.00  -0.00  -0.00    -0.00   0.00  -0.00
    18   6    -0.00  -0.00  -0.00     0.04  -0.02  -0.03     0.02  -0.02   0.04
    19   6     0.00   0.00   0.00     0.01  -0.06  -0.03    -0.01   0.02  -0.04
    20   1    -0.01  -0.03  -0.00    -0.10   0.43   0.23    -0.24   0.27   0.30
    21   1     0.02   0.01   0.01    -0.10   0.46   0.19     0.31  -0.38  -0.13
    22   1    -0.00  -0.03   0.01    -0.31   0.26   0.18    -0.24   0.48   0.15
    23   1     0.03   0.00   0.01    -0.31   0.29   0.24     0.12  -0.34  -0.28
    24   6    -0.00   0.01   0.01     0.00  -0.01  -0.00    -0.00  -0.00   0.00
    25   8     0.00  -0.00  -0.00     0.00   0.00   0.00     0.00   0.00   0.00
                     37                     38                     39
                      A                      A                      A
 Frequencies --    970.4838               973.4580               979.0537
 Red. masses --      1.4064                 1.4027                 1.4358
 Frc consts  --      0.7804                 0.7831                 0.8109
 IR Inten    --     35.9347                32.5948               183.9856
  Atom  AN      X      Y      Z        X      Y      Z        X      Y      Z
     1   1     0.00   0.01   0.00    -0.00   0.01  -0.00    -0.06   0.02   0.03
     2  45    -0.00  -0.00  -0.00    -0.00  -0.00   0.00     0.00   0.00   0.00
     3  15    -0.00   0.05   0.02    -0.00   0.02  -0.05     0.07   0.00  -0.00
     4   6    -0.03  -0.05   0.05     0.03  -0.08   0.07    -0.08   0.02   0.03
     5   6     0.04  -0.01  -0.07     0.03   0.03   0.11    -0.08  -0.03   0.01
     6   6    -0.00  -0.12  -0.04    -0.04   0.00  -0.00    -0.09   0.01  -0.03
     7   1    -0.14  -0.02   0.49     0.07   0.03  -0.04     0.20   0.07  -0.10
     8   1     0.01   0.22   0.05    -0.05  -0.07   0.21    -0.09  -0.12   0.41
     9   1     0.14   0.25  -0.41     0.07  -0.01  -0.04     0.20  -0.01  -0.15
    10   1    -0.05  -0.09  -0.20    -0.21  -0.22  -0.36     0.20   0.10   0.02
    11   1     0.15   0.21   0.16     0.12   0.34   0.19     0.21   0.05   0.11
    12   1    -0.06  -0.03  -0.21     0.04   0.22  -0.05    -0.13  -0.27  -0.30
    13   1    -0.15   0.28  -0.01     0.09  -0.40  -0.03     0.20  -0.10   0.06
    14   1     0.01  -0.17   0.12    -0.19   0.40  -0.17     0.20  -0.12  -0.03
    15   1     0.07  -0.19   0.16     0.02  -0.17  -0.17    -0.10   0.41  -0.08
    16   6    -0.00   0.00  -0.00     0.00  -0.00  -0.00     0.00   0.00  -0.00
    17   8     0.00  -0.00   0.00     0.00   0.00   0.00    -0.00  -0.00   0.00
    18   6     0.00  -0.00  -0.00     0.00  -0.00   0.00    -0.00   0.00   0.00
    19   6    -0.00   0.01   0.00    -0.00   0.00  -0.00    -0.01   0.02   0.01
    20   1     0.01  -0.04  -0.03    -0.01   0.01   0.01     0.03  -0.17  -0.09
    21   1     0.01  -0.04  -0.01     0.01  -0.01  -0.00     0.02  -0.15  -0.06
    22   1    -0.00  -0.00   0.00    -0.01   0.01   0.00     0.06  -0.05  -0.03
    23   1    -0.01   0.01   0.01     0.01  -0.01  -0.01     0.06  -0.04  -0.03
    24   6     0.00   0.00   0.00     0.00  -0.00   0.00    -0.01   0.00   0.00
    25   8    -0.00  -0.00  -0.00    -0.00  -0.00   0.00     0.00   0.00  -0.00
                     40                     41                     42
                      A                      A                      A
 Frequencies --    989.0972              1236.6277              1240.6107
 Red. masses --      1.3334                 1.3884                 2.1229
 Frc consts  --      0.7686                 1.2510                 1.9251
 IR Inten    --     20.3552                 0.1446                71.3827
  Atom  AN      X      Y      Z        X      Y      Z        X      Y      Z
     1   1    -0.02  -0.00   0.00    -0.01  -0.01  -0.00    -0.02   0.03   0.02
     2  45     0.00   0.00  -0.00     0.00  -0.00  -0.00    -0.00   0.00   0.00
     3  15     0.01   0.00   0.00     0.00  -0.00  -0.00     0.00  -0.00  -0.00
     4   6    -0.01  -0.00   0.00     0.00  -0.00   0.00    -0.01  -0.00  -0.00
     5   6    -0.01  -0.00  -0.00     0.00  -0.00   0.00    -0.00   0.00   0.00
     6   6    -0.01  -0.01  -0.00    -0.00  -0.00   0.00    -0.00   0.00   0.00
     7   1     0.01   0.00   0.02     0.00  -0.00  -0.00     0.00   0.00  -0.00
     8   1    -0.01   0.00   0.04    -0.00   0.00  -0.00    -0.00  -0.00   0.00
     9   1     0.02   0.01  -0.03     0.00   0.00  -0.00     0.01  -0.00  -0.00
    10   1     0.02   0.00  -0.01    -0.01  -0.00   0.01     0.01   0.01   0.01
    11   1     0.02   0.01   0.01    -0.01   0.01   0.00     0.02   0.01   0.01
    12   1    -0.01  -0.02  -0.03    -0.00  -0.00  -0.01    -0.01  -0.01  -0.00
    13   1     0.01   0.01   0.00     0.00  -0.00   0.00     0.00  -0.00   0.00
    14   1     0.02  -0.02   0.00    -0.00   0.00  -0.00     0.00  -0.00  -0.00
    15   1    -0.01   0.03   0.00    -0.00  -0.00  -0.00    -0.00   0.00  -0.00
    16   6    -0.00   0.00   0.00    -0.00   0.00   0.00     0.01   0.00  -0.00
    17   8     0.00   0.00  -0.00     0.00   0.00   0.00    -0.00   0.00   0.00
    18   6    -0.09   0.07   0.06    -0.03   0.05  -0.12    -0.19  -0.13  -0.00
    19   6     0.02  -0.10  -0.05     0.03  -0.05   0.12     0.20   0.11  -0.01
    20   1    -0.09   0.42   0.24     0.27   0.38  -0.04     0.40   0.24  -0.16
    21   1    -0.06   0.37   0.15    -0.36  -0.32  -0.14     0.42   0.13   0.05
    22   1     0.34  -0.27  -0.19    -0.43  -0.14   0.18    -0.35  -0.34   0.11
    23   1     0.36  -0.33  -0.29     0.50   0.09   0.00    -0.36  -0.24  -0.12
    24   6    -0.00  -0.00   0.00     0.00   0.00  -0.00    -0.00   0.00   0.00
    25   8     0.00   0.00  -0.00    -0.00  -0.00   0.00    -0.00   0.00  -0.00
                     43                     44                     45
                      A                      A                      A
 Frequencies --   1332.9741              1334.6153              1352.7482
 Red. masses --      1.2329                 1.2326                 1.2165
 Frc consts  --      1.2907                 1.2936                 1.3116
 IR Inten    --     22.3130                22.9579                 3.6200
  Atom  AN      X      Y      Z        X      Y      Z        X      Y      Z
     1   1     0.00  -0.00  -0.00     0.00  -0.00   0.00    -0.00  -0.00   0.00
     2  45    -0.00  -0.00  -0.00    -0.00  -0.00  -0.00     0.00   0.00   0.00
     3  15     0.00   0.00   0.01     0.00   0.01  -0.00    -0.00   0.00   0.00
     4   6    -0.05  -0.06  -0.07    -0.03  -0.04  -0.03     0.04   0.04   0.05
     5   6     0.00  -0.00  -0.00     0.05  -0.10   0.02     0.04  -0.08   0.02
     6   6     0.04   0.02  -0.09    -0.02  -0.02   0.06     0.03   0.02  -0.07
     7   1    -0.18   0.05   0.35     0.14  -0.04  -0.23    -0.16   0.04   0.28
     8   1     0.01  -0.10   0.36    -0.01   0.09  -0.24     0.01  -0.09   0.30
     9   1    -0.20  -0.22   0.25     0.13   0.16  -0.18    -0.17  -0.18   0.21
    10   1     0.25   0.10   0.32     0.15   0.06   0.17    -0.19  -0.08  -0.23
    11   1     0.26   0.32   0.12     0.13   0.18   0.07    -0.20  -0.23  -0.09
    12   1     0.03   0.27   0.31     0.02   0.17   0.16    -0.02  -0.20  -0.22
    13   1     0.00   0.02   0.00    -0.24   0.38   0.09    -0.20   0.30   0.07
    14   1    -0.02   0.00  -0.00    -0.25   0.31  -0.22    -0.21   0.24  -0.17
    15   1     0.00   0.02   0.02    -0.00   0.42  -0.10     0.00   0.33  -0.08
    16   6     0.00   0.00  -0.00     0.00   0.00   0.00     0.00   0.00  -0.00
    17   8    -0.00  -0.00   0.00     0.00  -0.00  -0.00    -0.00  -0.00   0.00
    18   6     0.00   0.00  -0.00     0.00   0.00  -0.00    -0.00  -0.00   0.00
    19   6    -0.00  -0.00   0.00    -0.00  -0.00  -0.00     0.00   0.00   0.00
    20   1    -0.00   0.00   0.00    -0.00  -0.00   0.00     0.00   0.00  -0.00
    21   1    -0.00  -0.00  -0.00    -0.00   0.00   0.00     0.01  -0.00   0.00
    22   1    -0.00   0.01   0.00    -0.00   0.01   0.00     0.00  -0.01  -0.00
    23   1     0.00   0.00   0.00    -0.00   0.00   0.00     0.00  -0.00  -0.00
    24   6     0.00  -0.00   0.00     0.00  -0.00  -0.00    -0.00  -0.00   0.00
    25   8     0.00   0.00   0.00    -0.00  -0.00   0.00     0.00   0.00  -0.00
                     46                     47                     48
                      A                      A                      A
 Frequencies --   1454.5900              1461.6326              1462.4967
 Red. masses --      1.0523                 1.0482                 1.0483
 Frc consts  --      1.3118                 1.3193                 1.3211
 IR Inten    --      0.2958                 0.6948                 0.0618
  Atom  AN      X      Y      Z        X      Y      Z        X      Y      Z
     1   1    -0.00   0.00  -0.00     0.00   0.00  -0.00    -0.00   0.00   0.00
     2  45    -0.00  -0.00   0.00     0.00  -0.00   0.00     0.00  -0.00  -0.00
     3  15    -0.00  -0.00  -0.00    -0.00  -0.00  -0.00     0.00   0.00  -0.00
     4   6    -0.00  -0.03   0.03     0.02   0.01  -0.02     0.04  -0.02  -0.01
     5   6    -0.00  -0.01  -0.04    -0.04  -0.02  -0.00    -0.00   0.00   0.01
     6   6     0.00   0.03   0.01     0.02   0.01   0.01    -0.04   0.02  -0.01
     7   1    -0.24  -0.04   0.04    -0.22  -0.11  -0.14     0.17   0.15   0.29
     8   1    -0.01  -0.35  -0.10     0.01  -0.14   0.10    -0.03  -0.08  -0.28
     9   1     0.22  -0.01  -0.07    -0.08   0.17  -0.09     0.36  -0.31   0.09
    10   1     0.30   0.06  -0.03    -0.29  -0.04   0.19    -0.19  -0.01   0.38
    11   1    -0.27  -0.03  -0.05     0.02   0.20   0.03    -0.32   0.37   0.00
    12   1    -0.01   0.34  -0.28     0.00  -0.26   0.06    -0.01  -0.11  -0.25
    13   1     0.31  -0.04   0.05     0.40   0.30   0.22    -0.09   0.04  -0.00
    14   1    -0.27   0.09   0.02     0.21   0.22  -0.36     0.11  -0.02  -0.03
    15   1     0.03   0.09   0.44    -0.00  -0.25   0.18    -0.01  -0.05  -0.15
    16   6     0.00   0.00  -0.00    -0.00  -0.00  -0.00    -0.00  -0.00   0.00
    17   8     0.00   0.00   0.00     0.00   0.00   0.00    -0.00   0.00   0.00
    18   6    -0.00  -0.00  -0.00     0.00   0.00   0.00     0.00   0.00   0.00
    19   6    -0.00  -0.00   0.00     0.00   0.00  -0.00     0.00   0.00  -0.00
    20   1     0.01   0.01  -0.01    -0.01  -0.01   0.01    -0.00  -0.01   0.00
    21   1     0.02   0.00   0.01    -0.01   0.00  -0.00    -0.00   0.00  -0.00
    22   1     0.01   0.02  -0.01    -0.00  -0.02   0.01     0.01  -0.01  -0.00
    23   1     0.02   0.01   0.02    -0.02  -0.01  -0.01    -0.01  -0.01  -0.01
    24   6     0.00  -0.00   0.00     0.00  -0.00   0.00    -0.00   0.00  -0.00
    25   8     0.00   0.00   0.00    -0.00   0.00  -0.00     0.00  -0.00   0.00
                     49                     50                     51
                      A                      A                      A
 Frequencies --   1469.1755              1470.9695              1476.2327
 Red. masses --      1.0487                 1.0472                 1.1015
 Frc consts  --      1.3337                 1.3350                 1.4143
 IR Inten    --     15.3734                16.2315                 3.8101
  Atom  AN      X      Y      Z        X      Y      Z        X      Y      Z
     1   1    -0.00   0.00  -0.00    -0.00  -0.00   0.00    -0.01  -0.00  -0.00
     2  45     0.00   0.00   0.00    -0.00   0.00   0.00    -0.00  -0.00   0.00
     3  15    -0.00   0.00  -0.01    -0.00  -0.01  -0.00     0.00   0.00  -0.00
     4   6     0.00   0.03  -0.02     0.01  -0.02   0.01     0.00   0.01  -0.01
     5   6     0.01  -0.01  -0.04    -0.01  -0.01  -0.02     0.00  -0.00  -0.00
     6   6    -0.02  -0.00  -0.00    -0.01  -0.05  -0.02    -0.00   0.00   0.00
     7   1     0.16   0.08   0.11     0.42   0.08  -0.06     0.01   0.01   0.02
     8   1    -0.01   0.07  -0.11     0.02   0.58   0.15    -0.00  -0.01  -0.03
     9   1     0.11  -0.14   0.06    -0.36  -0.01   0.14     0.03  -0.02   0.00
    10   1    -0.31  -0.07   0.02     0.09   0.03   0.12    -0.07  -0.01   0.01
    11   1     0.26   0.04   0.05    -0.27   0.11  -0.03     0.07   0.01   0.01
    12   1     0.01  -0.34   0.27    -0.01   0.14  -0.25     0.00  -0.08   0.07
    13   1     0.19  -0.18  -0.04     0.22   0.03   0.06     0.02  -0.01   0.00
    14   1    -0.42   0.02   0.17    -0.07   0.08  -0.06    -0.03   0.01   0.01
    15   1     0.03   0.21   0.44     0.01  -0.02   0.23     0.00   0.01   0.03
    16   6     0.00   0.00  -0.00     0.00  -0.00  -0.00    -0.00   0.00   0.00
    17   8    -0.00  -0.00  -0.00     0.00   0.00   0.00     0.00   0.00   0.00
    18   6     0.01   0.01   0.00    -0.00  -0.00   0.00    -0.05  -0.04  -0.00
    19   6     0.01   0.00  -0.00    -0.00  -0.00   0.00    -0.06  -0.03   0.01
    20   1    -0.04  -0.03   0.04     0.02   0.01  -0.02     0.31   0.22  -0.32
    21   1    -0.06  -0.00  -0.02     0.03   0.00   0.01     0.45   0.01   0.19
    22   1    -0.03  -0.06   0.03     0.01   0.02  -0.01     0.20   0.39  -0.22
    23   1    -0.05  -0.03  -0.04     0.02   0.01   0.02     0.35   0.19   0.29
    24   6     0.00   0.00  -0.00    -0.00  -0.00  -0.00    -0.00  -0.00  -0.00
    25   8     0.00  -0.00   0.00     0.00  -0.00   0.00     0.00   0.00   0.00
                     52                     53                     54
                      A                      A                      A
 Frequencies --   1481.7358              1556.0889              2022.5266
 Red. masses --      1.0434                 1.5141                 1.2859
 Frc consts  --      1.3497                 2.1602                 3.0991
 IR Inten    --      8.4997                 7.7201                50.3137
  Atom  AN      X      Y      Z        X      Y      Z        X      Y      Z
     1   1    -0.00  -0.00   0.00    -0.00   0.00  -0.00     0.22  -0.25   0.93
     2  45     0.00   0.00   0.00    -0.00   0.00   0.00    -0.00   0.00  -0.01
     3  15     0.01  -0.00  -0.00     0.00  -0.00  -0.00    -0.00   0.00  -0.00
     4   6     0.03  -0.01  -0.01     0.00   0.00  -0.00     0.00  -0.00  -0.00
     5   6     0.03   0.01  -0.01     0.00  -0.00  -0.00     0.00   0.00   0.00
     6   6     0.03  -0.00   0.01    -0.00  -0.00  -0.00     0.00  -0.00  -0.00
     7   1    -0.25  -0.15  -0.26     0.00   0.00   0.00     0.00   0.00   0.00
     8   1     0.02  -0.07   0.22    -0.00   0.00   0.00    -0.00   0.00  -0.00
     9   1    -0.23   0.29  -0.12     0.00  -0.00   0.00     0.00  -0.00   0.00
    10   1    -0.19  -0.01   0.32    -0.02  -0.00   0.01    -0.00  -0.00  -0.00
    11   1    -0.23   0.31   0.01     0.01   0.01   0.00     0.00   0.00  -0.00
    12   1    -0.01  -0.13  -0.17    -0.00  -0.02   0.01     0.00   0.00   0.01
    13   1    -0.21  -0.24  -0.15     0.00  -0.00  -0.00     0.00  -0.00  -0.00
    14   1    -0.21  -0.14   0.27    -0.00  -0.00   0.00    -0.00   0.00   0.00
    15   1     0.01   0.21  -0.03     0.00   0.00   0.00     0.00  -0.00   0.00
    16   6     0.00   0.00   0.00     0.00  -0.00  -0.00    -0.02  -0.05  -0.00
    17   8    -0.00  -0.00  -0.00    -0.00   0.00   0.00     0.01   0.04   0.00
    18   6    -0.00  -0.00   0.00    -0.12  -0.10  -0.00     0.00  -0.00   0.00
    19   6    -0.00  -0.00  -0.00     0.14   0.06  -0.02     0.00  -0.00   0.00
    20   1     0.01   0.00  -0.01    -0.26  -0.21   0.36    -0.00  -0.00   0.00
    21   1     0.01   0.00   0.01    -0.43   0.02  -0.23    -0.01   0.01   0.00
    22   1     0.01   0.00  -0.01     0.15   0.38  -0.25    -0.00   0.01   0.00
    23   1     0.00   0.00   0.00     0.33   0.15   0.33     0.00   0.00   0.00
    24   6     0.00  -0.00   0.00    -0.00  -0.00  -0.00     0.02  -0.03   0.09
    25   8    -0.00   0.00  -0.00     0.00  -0.00   0.00    -0.02   0.03  -0.08
                     55                     56                     57
                      A                      A                      A
 Frequencies --   2106.6853              2148.2680              3052.5193
 Red. masses --      5.0900                 6.2474                 1.0341
 Frc consts  --     13.3097                16.9873                 5.6770
 IR Inten    --   1282.7232               960.5995                13.8649
  Atom  AN      X      Y      Z        X      Y      Z        X      Y      Z
     1   1     0.19  -0.21   0.77    -0.17   0.20  -0.71     0.00   0.00  -0.00
     2  45    -0.00   0.00  -0.01     0.00  -0.00   0.01    -0.00  -0.00  -0.00
     3  15    -0.00  -0.00  -0.00    -0.00  -0.00  -0.00     0.00   0.00  -0.00
     4   6     0.00  -0.00   0.00     0.00  -0.00  -0.00    -0.00  -0.00  -0.00
     5   6     0.00   0.00   0.00     0.00   0.00  -0.00    -0.00   0.00  -0.00
     6   6     0.00  -0.00   0.00     0.00   0.00  -0.00    -0.03  -0.01   0.04
     7   1    -0.00  -0.00  -0.00     0.01   0.00   0.01    -0.16   0.49  -0.11
     8   1    -0.00   0.00  -0.00     0.00   0.01  -0.02     0.65  -0.03   0.02
     9   1    -0.00   0.00  -0.00     0.01  -0.00   0.00    -0.19  -0.33  -0.37
    10   1    -0.00  -0.00  -0.00    -0.00  -0.00   0.00    -0.01   0.02  -0.00
    11   1     0.00   0.00  -0.00    -0.00  -0.00  -0.00    -0.01  -0.01   0.03
    12   1     0.00   0.00   0.00    -0.00   0.01   0.00     0.03  -0.00  -0.00
    13   1     0.01   0.00  -0.00    -0.00   0.00   0.00    -0.01  -0.01   0.04
    14   1     0.00   0.00  -0.00     0.00   0.00  -0.00    -0.01  -0.02  -0.02
    15   1     0.00  -0.01   0.00     0.00  -0.01   0.00     0.05   0.00  -0.00
    16   6     0.13   0.42   0.01     0.07   0.24   0.00     0.00   0.00   0.00
    17   8    -0.09  -0.30  -0.01    -0.05  -0.17  -0.00    -0.00  -0.00  -0.00
    18   6     0.00  -0.00  -0.00     0.00  -0.00  -0.00     0.00  -0.00   0.00
    19   6    -0.00  -0.00   0.00    -0.00  -0.00  -0.00    -0.00  -0.00  -0.00
    20   1    -0.00   0.01   0.00    -0.01   0.01   0.01    -0.00   0.00  -0.00
    21   1    -0.01   0.02   0.01    -0.01   0.01   0.00    -0.00  -0.00   0.00
    22   1    -0.00   0.00  -0.00     0.00   0.01  -0.01    -0.00   0.00  -0.00
    23   1     0.01  -0.00   0.00    -0.00   0.01   0.01     0.00   0.00  -0.00
    24   6    -0.03   0.05  -0.16     0.09  -0.15   0.43     0.00  -0.00   0.00
    25   8     0.02  -0.04   0.11    -0.06   0.11  -0.31    -0.00   0.00  -0.00
                     58                     59                     60
                      A                      A                      A
 Frequencies --   3054.0641              3054.6067              3140.6501
 Red. masses --      1.0344                 1.0347                 1.1035
 Frc consts  --      5.6848                 5.6881                 6.4129
 IR Inten    --     15.1795                11.3892                 7.9013
  Atom  AN      X      Y      Z        X      Y      Z        X      Y      Z
     1   1     0.00  -0.00   0.00     0.00   0.00   0.00     0.00  -0.00   0.00
     2  45    -0.00  -0.00  -0.00    -0.00   0.00  -0.00    -0.00  -0.00   0.00
     3  15     0.00  -0.00   0.00     0.00   0.00   0.00    -0.00   0.00  -0.00
     4   6    -0.00  -0.00  -0.00    -0.03  -0.02  -0.03     0.01  -0.01  -0.00
     5   6    -0.03   0.04  -0.01     0.00  -0.01   0.00     0.01   0.00   0.00
     6   6     0.00   0.00  -0.00     0.00   0.00  -0.00    -0.08   0.01  -0.04
     7   1     0.01  -0.04   0.01     0.01  -0.02   0.01     0.12  -0.44   0.10
     8   1    -0.05   0.00  -0.00    -0.02   0.00  -0.00     0.73  -0.03   0.01
     9   1     0.02   0.03   0.03     0.01   0.01   0.01     0.15   0.29   0.32
    10   1    -0.02   0.07  -0.01    -0.15   0.48  -0.09    -0.02   0.07  -0.01
    11   1    -0.02  -0.02   0.06    -0.13  -0.13   0.47    -0.01  -0.01   0.05
    12   1     0.09  -0.01  -0.01     0.67  -0.06  -0.09    -0.09   0.01   0.01
    13   1    -0.13  -0.15   0.46     0.02   0.02  -0.07    -0.00  -0.01   0.03
    14   1    -0.19  -0.34  -0.35     0.03   0.05   0.05    -0.02  -0.04  -0.04
    15   1     0.67   0.05  -0.05    -0.10  -0.01   0.01    -0.06  -0.00   0.01
    16   6     0.00   0.00  -0.00    -0.00   0.00   0.00     0.00   0.00  -0.00
    17   8    -0.00  -0.00  -0.00    -0.00  -0.00  -0.00    -0.00  -0.00   0.00
    18   6     0.00  -0.00   0.00     0.00  -0.00   0.00     0.00   0.00   0.00
    19   6    -0.00  -0.00   0.00     0.00  -0.00  -0.00     0.00  -0.00  -0.00
    20   1    -0.00   0.00  -0.00    -0.00   0.00  -0.00    -0.00   0.00  -0.00
    21   1    -0.00   0.00   0.00    -0.00  -0.00   0.00    -0.00  -0.00   0.00
    22   1    -0.00   0.00  -0.00    -0.00   0.00  -0.00    -0.01  -0.00  -0.01
    23   1     0.00   0.00   0.00     0.00   0.00  -0.00    -0.00  -0.01   0.01
    24   6     0.00  -0.00   0.00     0.00  -0.00   0.00     0.00   0.00  -0.00
    25   8    -0.00   0.00  -0.00    -0.00   0.00  -0.00     0.00  -0.00   0.00
                     61                     62                     63
                      A                      A                      A
 Frequencies --   3142.5033              3143.3049              3145.8116
 Red. masses --      1.1027                 1.1023                 1.0529
 Frc consts  --      6.4161                 6.4172                 6.1390
 IR Inten    --      3.8252                25.9040                23.8936
  Atom  AN      X      Y      Z        X      Y      Z        X      Y      Z
     1   1    -0.00   0.00  -0.00    -0.00   0.00  -0.00    -0.00   0.00   0.00
     2  45     0.00  -0.00  -0.00    -0.00   0.00   0.00     0.00   0.00  -0.00
     3  15    -0.00   0.00   0.00    -0.00  -0.00   0.00    -0.00  -0.00  -0.00
     4   6    -0.07   0.03   0.03    -0.03   0.02   0.01    -0.01   0.00   0.00
     5   6     0.03   0.02  -0.00    -0.07  -0.04   0.00    -0.00  -0.00   0.00
     6   6    -0.01  -0.00  -0.00    -0.01   0.00  -0.00    -0.00   0.00  -0.00
     7   1     0.00  -0.01   0.00     0.02  -0.07   0.02     0.00  -0.01   0.00
     8   1     0.06  -0.00  -0.00     0.10  -0.00  -0.00     0.02  -0.00  -0.00
     9   1     0.02   0.04   0.04     0.02   0.03   0.04     0.01   0.01   0.01
    10   1     0.12  -0.46   0.09     0.06  -0.21   0.04     0.01  -0.04   0.01
    11   1     0.09   0.10  -0.38     0.04   0.04  -0.16     0.01   0.01  -0.04
    12   1     0.64  -0.05  -0.07     0.28  -0.02  -0.03     0.05  -0.00  -0.01
    13   1    -0.04  -0.05   0.16     0.08   0.10  -0.33     0.00   0.01  -0.02
    14   1    -0.07  -0.15  -0.15     0.17   0.34   0.34     0.01   0.02   0.02
    15   1    -0.30  -0.02   0.02     0.65   0.03  -0.05     0.03   0.00  -0.00
    16   6    -0.00   0.00  -0.00     0.00   0.00  -0.00    -0.00   0.00   0.00
    17   8    -0.00  -0.00   0.00    -0.00  -0.00   0.00    -0.00  -0.00  -0.00
    18   6     0.00   0.00  -0.00     0.00   0.00  -0.00    -0.04  -0.05  -0.00
    19   6     0.00   0.00   0.00     0.00   0.00  -0.00    -0.02  -0.00   0.00
    20   1    -0.01   0.00  -0.01    -0.01   0.00  -0.01     0.22  -0.06   0.20
    21   1    -0.00  -0.00   0.01    -0.00  -0.01   0.01     0.06   0.10  -0.21
    22   1    -0.02  -0.00  -0.03    -0.03  -0.00  -0.04     0.32   0.05   0.49
    23   1    -0.00  -0.03   0.03    -0.01  -0.04   0.04     0.07   0.50  -0.49
    24   6     0.00   0.00   0.00     0.00  -0.00   0.00     0.00   0.00   0.00
    25   8    -0.00   0.00  -0.00    -0.00   0.00  -0.00    -0.00   0.00  -0.00
                     64                     65                     66
                      A                      A                      A
 Frequencies --   3149.5279              3153.8778              3155.8158
 Red. masses --      1.1027                 1.1026                 1.1026
 Frc consts  --      6.4444                 6.4620                 6.4699
 IR Inten    --      3.5629                 2.8641                 3.7759
  Atom  AN      X      Y      Z        X      Y      Z        X      Y      Z
     1   1    -0.00  -0.00  -0.00     0.00  -0.00   0.00     0.00  -0.00   0.00
     2  45     0.00   0.00   0.00     0.00   0.00   0.00     0.00  -0.00   0.00
     3  15    -0.00  -0.00  -0.00     0.00  -0.00  -0.00     0.00   0.00  -0.00
     4   6     0.00   0.00  -0.00     0.00  -0.01   0.01     0.00   0.06  -0.07
     5   6    -0.00  -0.00   0.00     0.00  -0.01  -0.09     0.00  -0.00  -0.01
     6   6    -0.00  -0.09  -0.03    -0.00  -0.00  -0.00    -0.00   0.00   0.00
     7   1    -0.21   0.65  -0.17    -0.01   0.02  -0.01     0.01  -0.02   0.01
     8   1     0.00  -0.01  -0.00     0.00  -0.00   0.00     0.00   0.00   0.00
     9   1     0.25   0.43   0.50     0.01   0.02   0.03    -0.00  -0.01  -0.01
    10   1     0.00  -0.00   0.00    -0.02   0.08  -0.01     0.19  -0.62   0.10
    11   1    -0.01  -0.01   0.03     0.02   0.02  -0.07    -0.19  -0.17   0.69
    12   1    -0.02   0.00   0.00    -0.00  -0.00   0.00    -0.05   0.01  -0.00
    13   1     0.01   0.01  -0.04    -0.19  -0.24   0.69    -0.02  -0.03   0.08
    14   1    -0.00  -0.01  -0.01     0.23   0.43   0.41     0.02   0.04   0.04
    15   1     0.02   0.00  -0.00    -0.07  -0.01  -0.01    -0.02  -0.00  -0.00
    16   6     0.00   0.00  -0.00    -0.00  -0.00  -0.00    -0.00  -0.00  -0.00
    17   8    -0.00   0.00   0.00     0.00   0.00   0.00     0.00   0.00   0.00
    18   6     0.00   0.00   0.00    -0.00  -0.00   0.00    -0.00   0.00  -0.00
    19   6     0.00   0.00  -0.00     0.00   0.00   0.00    -0.00  -0.00   0.00
    20   1    -0.00   0.00  -0.00    -0.00   0.00  -0.00     0.01  -0.00   0.01
    21   1    -0.00  -0.00   0.00    -0.00  -0.00   0.00     0.00   0.00  -0.01
    22   1    -0.00  -0.00  -0.00     0.00   0.00   0.00     0.00   0.00   0.00
    23   1    -0.00  -0.00   0.00     0.00   0.00  -0.00     0.00  -0.00   0.00
    24   6    -0.00  -0.00   0.00     0.00  -0.00  -0.00     0.00   0.00  -0.00
    25   8     0.00   0.00  -0.00    -0.00  -0.00   0.00    -0.00  -0.00   0.00
                     67                     68                     69
                      A                      A                      A
 Frequencies --   3160.6000              3223.0786              3247.8947
 Red. masses --      1.0624                 1.1150                 1.1168
 Frc consts  --      6.2531                 6.8247                 6.9410
 IR Inten    --      5.8313                 1.6578                12.5111
  Atom  AN      X      Y      Z        X      Y      Z        X      Y      Z
     1   1    -0.00   0.00   0.00     0.00  -0.00   0.00     0.00  -0.00   0.00
     2  45    -0.00   0.00   0.00     0.00  -0.00   0.00     0.00  -0.00   0.00
     3  15    -0.00   0.00   0.00    -0.00  -0.00  -0.00    -0.00   0.00  -0.00
     4   6    -0.00   0.00  -0.00     0.00  -0.00   0.00     0.00  -0.00   0.00
     5   6    -0.00  -0.00   0.00    -0.00   0.00  -0.00    -0.00  -0.00  -0.00
     6   6    -0.00   0.00  -0.00    -0.00  -0.00  -0.00    -0.00  -0.00  -0.00
     7   1     0.00  -0.00   0.00    -0.00   0.00  -0.00    -0.00   0.00   0.00
     8   1     0.00  -0.00   0.00     0.00  -0.00   0.00     0.00   0.00  -0.00
     9   1    -0.00  -0.00  -0.00     0.00   0.00   0.00     0.00   0.00   0.00
    10   1     0.00  -0.02   0.00    -0.00   0.00  -0.00    -0.00   0.00  -0.00
    11   1    -0.00  -0.00   0.00    -0.00  -0.00   0.00    -0.00  -0.00   0.00
    12   1     0.01  -0.00  -0.00    -0.00   0.00   0.00     0.00   0.00   0.00
    13   1     0.00   0.00  -0.00    -0.00  -0.00   0.00    -0.00  -0.00   0.00
    14   1     0.00   0.00   0.00     0.00   0.00   0.00     0.00   0.00   0.00
    15   1     0.00   0.00  -0.00     0.00   0.00   0.00     0.00   0.00   0.00
    16   6     0.00   0.00  -0.00    -0.00   0.00  -0.00    -0.00   0.00  -0.00
    17   8    -0.00  -0.00   0.00     0.00  -0.00   0.00    -0.00  -0.00   0.00
    18   6    -0.02  -0.02  -0.00    -0.03   0.03  -0.08    -0.02   0.02  -0.05
    19   6     0.06   0.01  -0.01     0.01  -0.02   0.05    -0.02   0.03  -0.08
    20   1    -0.51   0.14  -0.46    -0.24   0.06  -0.20     0.41  -0.10   0.35
    21   1    -0.16  -0.25   0.52     0.11   0.17  -0.34    -0.19  -0.27   0.56
    22   1     0.14   0.02   0.21     0.37   0.07   0.54     0.22   0.04   0.31
    23   1     0.03   0.21  -0.20    -0.06  -0.40   0.37    -0.04  -0.24   0.22
    24   6    -0.00   0.00   0.00     0.00   0.00  -0.00    -0.00   0.00  -0.00
    25   8    -0.00   0.00  -0.00    -0.00  -0.00   0.00     0.00  -0.00   0.00

 -------------------
 - Thermochemistry -
 -------------------
 Temperature   298.150 Kelvin.  Pressure   1.00000 Atm.
 Atom     1 has atomic number  1 and mass   1.00783
 Atom     2 has atomic number 45 and mass 102.90480
 Atom     3 has atomic number 15 and mass  30.97376
 Atom     4 has atomic number  6 and mass  12.00000
 Atom     5 has atomic number  6 and mass  12.00000
 Atom     6 has atomic number  6 and mass  12.00000
 Atom     7 has atomic number  1 and mass   1.00783
 Atom     8 has atomic number  1 and mass   1.00783
 Atom     9 has atomic number  1 and mass   1.00783
 Atom    10 has atomic number  1 and mass   1.00783
 Atom    11 has atomic number  1 and mass   1.00783
 Atom    12 has atomic number  1 and mass   1.00783
 Atom    13 has atomic number  1 and mass   1.00783
 Atom    14 has atomic number  1 and mass   1.00783
 Atom    15 has atomic number  1 and mass   1.00783
 Atom    16 has atomic number  6 and mass  12.00000
 Atom    17 has atomic number  8 and mass  15.99491
 Atom    18 has atomic number  6 and mass  12.00000
 Atom    19 has atomic number  6 and mass  12.00000
 Atom    20 has atomic number  1 and mass   1.00783
 Atom    21 has atomic number  1 and mass   1.00783
 Atom    22 has atomic number  1 and mass   1.00783
 Atom    23 has atomic number  1 and mass   1.00783
 Atom    24 has atomic number  6 and mass  12.00000
 Atom    25 has atomic number  8 and mass  15.99491
 Molecular mass:   263.97794 amu.
 Principal axes and moments of inertia in atomic units:
                           1         2         3
     Eigenvalues --  2141.803343065.716193375.83852
           X            0.99919  -0.03533  -0.01902
           Y            0.03674   0.99614   0.07974
           Z            0.01613  -0.08038   0.99663
 This molecule is an asymmetric top.
 Rotational symmetry number  1.
 Warning -- assumption of classical behavior for rotation
           may cause significant error
 Rotational temperatures (Kelvin)      0.04044     0.02825     0.02566
 Rotational constants (GHZ):           0.84263     0.58869     0.53461
 Zero-point vibrational energy     511169.4 (Joules/Mol)
                                  122.17243 (Kcal/Mol)
 Warning -- explicit consideration of  24 degrees of freedom as
           vibrations may cause significant error
 Vibrational temperatures:     45.26    79.34    96.00   108.80   136.55
          (Kelvin)            156.66   193.18   257.50   264.05   296.29
                              306.42   351.09   365.96   385.96   389.21
                              490.06   514.54   546.50   567.14   633.16
                              661.29   683.78   757.22   762.91  1003.25
                             1017.25  1087.12  1088.34  1101.34  1156.72
                             1204.66  1222.59  1256.81  1261.47  1363.32
                             1376.34  1396.31  1400.59  1408.64  1423.09
                             1779.23  1784.96  1917.85  1920.21  1946.30
                             2092.83  2102.96  2104.21  2113.82  2116.40
                             2123.97  2131.89  2238.86  2909.96  3031.05
                             3090.88  4391.89  4394.12  4394.90  4518.69
                             4521.36  4522.51  4526.12  4531.47  4537.73
                             4540.52  4547.40  4637.29  4673.00
 
 Zero-point correction=                           0.194694 (Hartree/Particle)
 Thermal correction to Energy=                    0.210835
 Thermal correction to Enthalpy=                  0.211779
 Thermal correction to Gibbs Free Energy=         0.150597
 Sum of electronic and zero-point Energies=           -877.478848
 Sum of electronic and thermal Energies=              -877.462707
 Sum of electronic and thermal Enthalpies=            -877.461763
 Sum of electronic and thermal Free Energies=         -877.522946
 
                     E (Thermal)             CV                S
                      KCal/Mol        Cal/Mol-Kelvin    Cal/Mol-Kelvin
 Total                  132.301             57.180            128.770
 Electronic               0.000              0.000              0.000
 Translational            0.889              2.981             42.611
 Rotational               0.889              2.981             31.472
 Vibrational            130.524             51.218             54.686
 Vibration     1          0.594              1.983              5.735
 Vibration     2          0.596              1.976              4.624
 Vibration     3          0.598              1.970              4.248
 Vibration     4          0.599              1.965              4.001
 Vibration     5          0.603              1.953              3.556
 Vibration     6          0.606              1.942              3.289
 Vibration     7          0.613              1.919              2.884
 Vibration     8          0.629              1.868              2.339
 Vibration     9          0.631              1.862              2.292
 Vibration    10          0.640              1.831              2.079
 Vibration    11          0.644              1.821              2.018
 Vibration    12          0.659              1.773              1.773
 Vibration    13          0.665              1.755              1.700
 Vibration    14          0.673              1.731              1.607
 Vibration    15          0.674              1.728              1.593
 Vibration    16          0.720              1.594              1.209
 Vibration    17          0.733              1.560              1.132
 Vibration    18          0.750              1.513              1.040
 Vibration    19          0.761              1.483              0.984
 Vibration    20          0.800              1.383              0.826
 Vibration    21          0.818              1.340              0.767
 Vibration    22          0.832              1.305              0.723
 Vibration    23          0.881              1.192              0.596
 Vibration    24          0.885              1.183              0.587
                       Q            Log10(Q)             Ln(Q)
 Total Bot       0.537499D-69        -69.269622       -159.499199
 Total V=0       0.192042D+21         20.283395         46.704244
 Vib (Bot)       0.189182D-83        -83.723120       -192.779607
 Vib (Bot)    1  0.658130D+01          0.818312          1.884233
 Vib (Bot)    2  0.374688D+01          0.573669          1.320922
 Vib (Bot)    3  0.309246D+01          0.490303          1.128965
 Vib (Bot)    4  0.272516D+01          0.435393          1.002528
 Vib (Bot)    5  0.216453D+01          0.335364          0.772204
 Vib (Bot)    6  0.188140D+01          0.274480          0.632014
 Vib (Bot)    7  0.151668D+01          0.180895          0.416526
 Vib (Bot)    8  0.112265D+01          0.050245          0.115693
 Vib (Bot)    9  0.109307D+01          0.038649          0.088992
 Vib (Bot)   10  0.966022D+00         -0.015013         -0.034569
 Vib (Bot)   11  0.931482D+00         -0.030826         -0.070978
 Vib (Bot)   12  0.802057D+00         -0.095795         -0.220575
 Vib (Bot)   13  0.765731D+00         -0.115924         -0.266924
 Vib (Bot)   14  0.721070D+00         -0.142023         -0.327020
 Vib (Bot)   15  0.714242D+00         -0.146155         -0.336533
 Vib (Bot)   16  0.544945D+00         -0.263647         -0.607071
 Vib (Bot)   17  0.513328D+00         -0.289605         -0.666840
 Vib (Bot)   18  0.476068D+00         -0.322331         -0.742195
 Vib (Bot)   19  0.454081D+00         -0.342866         -0.789479
 Vib (Bot)   20  0.392808D+00         -0.405820         -0.934436
 Vib (Bot)   21  0.370177D+00         -0.431591         -0.993775
 Vib (Bot)   22  0.353341D+00         -0.451806         -1.040322
 Vib (Bot)   23  0.304924D+00         -0.515809         -1.187694
 Vib (Bot)   24  0.301538D+00         -0.520658         -1.198859
 Vib (V=0)       0.675924D+06          5.829898         13.423836
 Vib (V=0)    1  0.710027D+01          0.851275          1.960133
 Vib (V=0)    2  0.428009D+01          0.631453          1.453974
 Vib (V=0)    3  0.363262D+01          0.560219          1.289953
 Vib (V=0)    4  0.327065D+01          0.514634          1.184989
 Vib (V=0)    5  0.272153D+01          0.434813          1.001194
 Vib (V=0)    6  0.244670D+01          0.388581          0.894741
 Vib (V=0)    7  0.209697D+01          0.321593          0.740496
 Vib (V=0)    8  0.172896D+01          0.237785          0.547521
 Vib (V=0)    9  0.170200D+01          0.230960          0.531805
 Vib (V=0)   10  0.158775D+01          0.200782          0.462317
 Vib (V=0)   11  0.155719D+01          0.192343          0.442885
 Vib (V=0)   12  0.144514D+01          0.159911          0.368208
 Vib (V=0)   13  0.141452D+01          0.150609          0.346789
 Vib (V=0)   14  0.137746D+01          0.139080          0.320243
 Vib (V=0)   15  0.137186D+01          0.137310          0.316168
 Vib (V=0)   16  0.123957D+01          0.093271          0.214765
 Vib (V=0)   17  0.121659D+01          0.085145          0.196054
 Vib (V=0)   18  0.119039D+01          0.075690          0.174282
 Vib (V=0)   19  0.117542D+01          0.070192          0.161624
 Vib (V=0)   20  0.113584D+01          0.055319          0.127376
 Vib (V=0)   21  0.112212D+01          0.050039          0.115218
 Vib (V=0)   22  0.111225D+01          0.046202          0.106385
 Vib (V=0)   23  0.108564D+01          0.035687          0.082173
 Vib (V=0)   24  0.108389D+01          0.034984          0.080555
 Electronic      0.100000D+01          0.000000          0.000000
 Translational   0.168580D+09          8.226805         18.942919
 Rotational      0.168536D+07          6.226692         14.337489
 
                                                      Auto-generated job for I3
                                                             IR Spectrum
 
 3333333333333                                  2 2  2               11111111 111  11                                                
 2211111111000                                  1 1  0               54444444 333  22     9999998888877776  5544433332222221111      
 4265554444555                                  4 0  2               58776665 533  43     8777547753065509  327649854765410873097653 
 8316406331543                                  8 7  3               62619225 353  17     9930787407456677  065004081184436494956751 
 
 XXXXXXXXXXXXX                                  X X  X               XXXXXXXX XXX  XX     XXXXXXXXXX XXXXX  XXXXXXXXXXXX XXXXXXXXXXX 
                                                X X                                        X         X                               
                                                X X                                        X                                         
                                                X X                                                                                  
                                                X X                                                                                  
                                                X X                                                                                  
                                                X X                                                                                  
                                                X X                                                                                  
                                                X X                                                                                  
                                                X X                                                                                  
                                                X X                                                                                  
                                                X X                                                                                  
                                                X X                                                                                  
                                                X X                                                                                  
                                                X X                                                                                  
                                                  X                                                                                  
                                                  X                                                                                  
                                                  X                                                                                  
                                                  X                                                                                  
                                                  X                                                                                  
 
 ***** Axes restored to original set *****
 -------------------------------------------------------------------
 Center     Atomic                   Forces (Hartrees/Bohr)
 Number     Number              X              Y              Z
 -------------------------------------------------------------------
      1        1          -0.000000237   -0.000000733   -0.000030178
      2       45          -0.000029395   -0.000023604    0.000002411
      3       15          -0.000006999    0.000000232    0.000008361
      4        6           0.000006735    0.000001609   -0.000000736
      5        6           0.000002567   -0.000004616    0.000001412
      6        6           0.000014062   -0.000002839   -0.000007375
      7        1          -0.000002534   -0.000003757   -0.000002783
      8        1          -0.000002064   -0.000005216   -0.000005395
      9        1          -0.000005867   -0.000003039   -0.000001379
     10        1           0.000004216   -0.000001678   -0.000001700
     11        1           0.000006594   -0.000000522   -0.000001695
     12        1           0.000001971   -0.000004946   -0.000006457
     13        1          -0.000000720   -0.000003666   -0.000001498
     14        1          -0.000004129   -0.000003013    0.000000491
     15        1          -0.000002367   -0.000001592   -0.000002885
     16        6           0.000013399    0.000028327    0.000014122
     17        8          -0.000010432   -0.000004417    0.000006503
     18        6          -0.000011755    0.000002661    0.000008058
     19        6           0.000006883    0.000036094    0.000009897
     20        1           0.000007694    0.000003400   -0.000004033
     21        1           0.000008378   -0.000002292    0.000001834
     22        1           0.000008239   -0.000004532   -0.000000933
     23        1           0.000000769   -0.000003705   -0.000007712
     24        6           0.000000838   -0.000001329    0.000016040
     25        8          -0.000005847    0.000003173    0.000005631
 -------------------------------------------------------------------
 Cartesian Forces:  Max     0.000036094 RMS     0.000009525
 FormGI is forming the generalized inverse of G from B-inverse, IUseBI=4.
 Leave Link  716 at Tue Oct  4 18:35:59 2022, MaxMem=  2952790016 cpu:               0.7 elap:               0.1
 (Enter /mnt/data/applications/G16/g16/l103.exe)

 GradGradGradGradGradGradGradGradGradGradGradGradGradGradGradGradGradGrad
 Berny optimization.
 Red2BG is reusing G-inverse.
 Internal  Forces:  Max     0.000029347 RMS     0.000005804
 Search for a local minimum.
 Step number   1 out of a maximum of    2
 All quantities printed in internal units (Hartrees-Bohrs-Radians)
 Second derivative matrix not updated -- analytic derivatives used.
 ITU=  0
     Eigenvalues ---    0.00089   0.00200   0.00277   0.00307   0.00318
     Eigenvalues ---    0.01198   0.01640   0.01764   0.01846   0.02027
     Eigenvalues ---    0.02126   0.02221   0.02261   0.02480   0.02612
     Eigenvalues ---    0.02958   0.03830   0.03871   0.04056   0.04063
     Eigenvalues ---    0.04105   0.04136   0.04215   0.04275   0.04613
     Eigenvalues ---    0.04900   0.05136   0.07040   0.07221   0.07510
     Eigenvalues ---    0.07692   0.07783   0.10104   0.10343   0.10677
     Eigenvalues ---    0.10773   0.11102   0.11125   0.11174   0.11390
     Eigenvalues ---    0.11644   0.12142   0.12252   0.12682   0.13633
     Eigenvalues ---    0.14371   0.14437   0.14698   0.18029   0.18925
     Eigenvalues ---    0.22205   0.22325   0.23498   0.34054   0.34070
     Eigenvalues ---    0.34158   0.34409   0.34520   0.34575   0.34793
     Eigenvalues ---    0.34872   0.34905   0.35679   0.35917   0.36093
     Eigenvalues ---    0.36347   0.40128   1.15424   1.19029
 Angle between quadratic step and forces=  52.04 degrees.
 Linear search not attempted -- first point.
 Iteration  1 RMS(Cart)=  0.00037803 RMS(Int)=  0.00000005
 Iteration  2 RMS(Cart)=  0.00000007 RMS(Int)=  0.00000002
 ITry= 1 IFail=0 DXMaxC= 1.82D-03 DCOld= 1.00D+10 DXMaxT= 5.00D-02 DXLimC= 3.00D+00 Rises=F
 Variable       Old X    -DE/DX   Delta X   Delta X   Delta X     New X
                                 (Linear)    (Quad)   (Total)
    R1        3.01323   0.00003   0.00000   0.00015   0.00015   3.01338
    R2        4.41656  -0.00002   0.00000  -0.00015  -0.00015   4.41641
    R3        3.61870   0.00002   0.00000   0.00020   0.00020   3.61890
    R4        4.16531   0.00000   0.00000  -0.00022  -0.00022   4.16510
    R5        4.16674  -0.00000   0.00000  -0.00028  -0.00028   4.16646
    R6        3.66583   0.00002   0.00000   0.00012   0.00012   3.66595
    R7        3.43767  -0.00001   0.00000  -0.00005  -0.00005   3.43763
    R8        3.43826  -0.00001   0.00000  -0.00003  -0.00003   3.43822
    R9        3.44222  -0.00001   0.00000  -0.00006  -0.00006   3.44216
   R10        2.06126   0.00000   0.00000   0.00000   0.00000   2.06126
   R11        2.06096  -0.00000   0.00000  -0.00000  -0.00000   2.06096
   R12        2.06422  -0.00000   0.00000   0.00000   0.00000   2.06422
   R13        2.06117   0.00000   0.00000   0.00000   0.00000   2.06117
   R14        2.06183   0.00000   0.00000   0.00000   0.00000   2.06183
   R15        2.06411  -0.00000   0.00000  -0.00000  -0.00000   2.06411
   R16        2.06214  -0.00000   0.00000  -0.00000  -0.00000   2.06214
   R17        2.06402  -0.00000   0.00000   0.00000   0.00000   2.06402
   R18        2.06203  -0.00000   0.00000  -0.00000  -0.00000   2.06203
   R19        2.15371  -0.00001   0.00000  -0.00002  -0.00002   2.15369
   R20        2.64769   0.00002   0.00000   0.00012   0.00012   2.64780
   R21        2.04640   0.00000   0.00000   0.00001   0.00001   2.04641
   R22        2.04861  -0.00000   0.00000   0.00000   0.00000   2.04861
   R23        2.04712  -0.00000   0.00000   0.00000   0.00000   2.04713
   R24        2.04520  -0.00000   0.00000   0.00001   0.00001   2.04521
   R25        2.14749   0.00000   0.00000  -0.00000  -0.00000   2.14749
    A1        1.40736   0.00001   0.00000   0.00015   0.00015   1.40750
    A2        1.45688   0.00001   0.00000   0.00032   0.00032   1.45720
    A3        1.48411  -0.00001   0.00000  -0.00018  -0.00018   1.48393
    A4        1.49606  -0.00001   0.00000  -0.00019  -0.00019   1.49587
    A5        1.90705  -0.00001   0.00000  -0.00026  -0.00026   1.90679
    A6        1.75931   0.00001   0.00000   0.00037   0.00037   1.75968
    A7        2.38980   0.00001   0.00000   0.00043   0.00043   2.39023
    A8        1.69582  -0.00001   0.00000  -0.00025  -0.00025   1.69557
    A9        2.53843   0.00000   0.00000   0.00002   0.00002   2.53845
   A10        1.91049  -0.00000   0.00000  -0.00009  -0.00009   1.91040
   A11        1.73615  -0.00001   0.00000  -0.00023  -0.00023   1.73592
   A12        1.62561   0.00001   0.00000   0.00015   0.00015   1.62576
   A13        1.64774   0.00001   0.00000   0.00025   0.00025   1.64800
   A14        2.02268  -0.00000   0.00000  -0.00008  -0.00008   2.02260
   A15        1.99483  -0.00000   0.00000  -0.00005  -0.00005   1.99477
   A16        2.04582  -0.00000   0.00000  -0.00004  -0.00004   2.04579
   A17        1.79051   0.00000   0.00000   0.00009   0.00009   1.79059
   A18        1.78588   0.00000   0.00000   0.00006   0.00006   1.78594
   A19        1.78839   0.00000   0.00000   0.00006   0.00006   1.78845
   A20        1.90939  -0.00000   0.00000  -0.00006  -0.00006   1.90933
   A21        1.90663  -0.00000   0.00000  -0.00005  -0.00005   1.90658
   A22        1.94579   0.00000   0.00000   0.00009   0.00009   1.94588
   A23        1.88912   0.00000   0.00000  -0.00001  -0.00001   1.88911
   A24        1.90487  -0.00000   0.00000   0.00001   0.00001   1.90488
   A25        1.90716   0.00000   0.00000   0.00002   0.00002   1.90718
   A26        1.90397  -0.00000   0.00000  -0.00005  -0.00005   1.90392
   A27        1.90544  -0.00000   0.00000  -0.00001  -0.00001   1.90543
   A28        1.95151   0.00000   0.00000   0.00006   0.00006   1.95157
   A29        1.88587   0.00000   0.00000   0.00001   0.00001   1.88588
   A30        1.90867  -0.00000   0.00000  -0.00000  -0.00000   1.90867
   A31        1.90723  -0.00000   0.00000  -0.00001  -0.00001   1.90722
   A32        1.91005   0.00000   0.00000   0.00002   0.00002   1.91007
   A33        1.94803  -0.00000   0.00000  -0.00003  -0.00003   1.94800
   A34        1.90907   0.00000   0.00000   0.00003   0.00003   1.90910
   A35        1.90326  -0.00000   0.00000  -0.00002  -0.00002   1.90324
   A36        1.88867   0.00000   0.00000   0.00003   0.00003   1.88870
   A37        1.90380   0.00000   0.00000  -0.00002  -0.00002   1.90378
   A38        1.92274   0.00001   0.00000   0.00019   0.00019   1.92293
   A39        1.95135   0.00001   0.00000   0.00016   0.00016   1.95151
   A40        2.09075  -0.00000   0.00000  -0.00005  -0.00005   2.09070
   A41        2.09076   0.00001   0.00000   0.00003   0.00003   2.09079
   A42        2.00085  -0.00001   0.00000  -0.00012  -0.00012   2.00073
   A43        1.93843   0.00000   0.00000   0.00018   0.00018   1.93862
   A44        1.91198   0.00000   0.00000   0.00022   0.00022   1.91220
   A45        2.09538   0.00000   0.00000   0.00000   0.00000   2.09539
   A46        2.09539  -0.00000   0.00000  -0.00007  -0.00007   2.09531
   A47        2.00417  -0.00001   0.00000  -0.00011  -0.00011   2.00407
   A48        3.10318  -0.00000   0.00000  -0.00011  -0.00011   3.10307
   A49        3.09838  -0.00001   0.00000  -0.00002  -0.00002   3.09836
   A50        3.12501  -0.00001   0.00000  -0.00021  -0.00021   3.12479
   A51        3.10078  -0.00000   0.00000  -0.00007  -0.00007   3.10071
   A52        3.18317  -0.00000   0.00000  -0.00016  -0.00016   3.18301
   A53        3.12921   0.00001   0.00000   0.00020   0.00020   3.12941
    D1        1.01452  -0.00001   0.00000  -0.00012  -0.00012   1.01440
    D2       -1.06253  -0.00001   0.00000  -0.00014  -0.00014  -1.06267
    D3        3.12797  -0.00001   0.00000  -0.00014  -0.00014   3.12783
    D4        2.40466   0.00001   0.00000   0.00034   0.00034   2.40500
    D5        0.32760   0.00001   0.00000   0.00033   0.00033   0.32793
    D6       -1.76508   0.00001   0.00000   0.00033   0.00033  -1.76475
    D7       -0.43519   0.00000   0.00000   0.00010   0.00010  -0.43509
    D8       -2.51224   0.00000   0.00000   0.00009   0.00009  -2.51216
    D9        1.67826   0.00000   0.00000   0.00008   0.00008   1.67835
   D10       -0.26498   0.00000   0.00000   0.00021   0.00021  -0.26477
   D11       -2.34204   0.00000   0.00000   0.00020   0.00020  -2.34184
   D12        1.84847   0.00000   0.00000   0.00020   0.00020   1.84866
   D13       -2.08626  -0.00000   0.00000  -0.00006  -0.00006  -2.08631
   D14        2.11987  -0.00000   0.00000  -0.00007  -0.00007   2.11980
   D15        0.02719  -0.00000   0.00000  -0.00007  -0.00007   0.02712
   D16       -0.45960  -0.00000   0.00000   0.00002   0.00002  -0.45958
   D17       -2.70589  -0.00000   0.00000  -0.00010  -0.00010  -2.70599
   D18        0.92731   0.00001   0.00000   0.00008   0.00008   0.92739
   D19       -1.31898   0.00001   0.00000  -0.00003  -0.00003  -1.31901
   D20       -1.69694  -0.00000   0.00000  -0.00029  -0.00029  -1.69723
   D21        2.33995  -0.00000   0.00000  -0.00041  -0.00041   2.33955
   D22        2.63615  -0.00000   0.00000  -0.00011  -0.00011   2.63604
   D23        0.38986  -0.00000   0.00000  -0.00023  -0.00023   0.38963
   D24        2.73443   0.00000   0.00000   0.00008   0.00008   2.73450
   D25        0.50215  -0.00000   0.00000  -0.00009  -0.00009   0.50206
   D26       -2.30264   0.00000   0.00000  -0.00011  -0.00011  -2.30275
   D27        1.74827   0.00000   0.00000  -0.00027  -0.00027   1.74800
   D28        1.31152  -0.00000   0.00000  -0.00021  -0.00021   1.31132
   D29       -0.92076  -0.00000   0.00000  -0.00037  -0.00037  -0.92113
   D30       -0.46302  -0.00000   0.00000  -0.00004  -0.00004  -0.46307
   D31       -2.69530  -0.00000   0.00000  -0.00021  -0.00021  -2.69551
   D32        1.07398  -0.00000   0.00000   0.00022   0.00022   1.07420
   D33       -0.99107   0.00000   0.00000   0.00029   0.00029  -0.99077
   D34       -3.10065   0.00000   0.00000   0.00024   0.00024  -3.10041
   D35       -3.02336  -0.00000   0.00000   0.00016   0.00016  -3.02320
   D36        1.19478  -0.00000   0.00000   0.00024   0.00024   1.19502
   D37       -0.91480  -0.00000   0.00000   0.00019   0.00019  -0.91461
   D38       -1.17376   0.00000   0.00000   0.00027   0.00027  -1.17350
   D39        3.04437   0.00000   0.00000   0.00034   0.00034   3.04472
   D40        0.93479   0.00000   0.00000   0.00029   0.00029   0.93509
   D41        1.01042   0.00000   0.00000   0.00003   0.00003   1.01045
   D42       -1.04685   0.00000   0.00000   0.00005   0.00005  -1.04680
   D43        3.12379   0.00000   0.00000   0.00003   0.00003   3.12382
   D44       -1.19353   0.00000   0.00000   0.00010   0.00010  -1.19344
   D45        3.03238   0.00000   0.00000   0.00012   0.00012   3.03250
   D46        0.91983   0.00000   0.00000   0.00010   0.00010   0.91993
   D47       -3.04119  -0.00000   0.00000  -0.00001  -0.00001  -3.04120
   D48        1.18472  -0.00000   0.00000   0.00001   0.00001   1.18473
   D49       -0.92782  -0.00000   0.00000  -0.00001  -0.00001  -0.92783
   D50       -1.04716  -0.00000   0.00000   0.00005   0.00005  -1.04712
   D51        3.12761  -0.00000   0.00000   0.00008   0.00008   3.12768
   D52        1.01916   0.00000   0.00000   0.00010   0.00010   1.01927
   D53        1.18597  -0.00000   0.00000  -0.00003  -0.00003   1.18593
   D54       -0.92245  -0.00000   0.00000  -0.00000  -0.00000  -0.92245
   D55       -3.03089  -0.00000   0.00000   0.00003   0.00003  -3.03086
   D56        3.03720   0.00000   0.00000   0.00009   0.00009   3.03730
   D57        0.92879   0.00000   0.00000   0.00012   0.00012   0.92891
   D58       -1.17966   0.00000   0.00000   0.00015   0.00015  -1.17950
   D59       -2.66602   0.00001   0.00000   0.00041   0.00041  -2.66561
   D60        0.01415  -0.00000   0.00000  -0.00006  -0.00006   0.01409
   D61       -0.01655   0.00000   0.00000   0.00005   0.00005  -0.01649
   D62        2.66362  -0.00001   0.00000  -0.00042  -0.00042   2.66321
         Item               Value     Threshold  Converged?
 Maximum Force            0.000029     0.000450     YES
 RMS     Force            0.000006     0.000300     YES
 Maximum Displacement     0.001820     0.001800     NO 
 RMS     Displacement     0.000378     0.001200     YES
 Predicted change in Energy=-4.023221D-08
                           ----------------------------
                           ! Non-Optimized Parameters !
                           ! (Angstroms and Degrees)  !
 --------------------------                            --------------------------
 ! Name  Definition              Value          Derivative Info.                !
 --------------------------------------------------------------------------------
 ! R1    R(1,2)                  1.5946         -DE/DX =    0.0                 !
 ! R2    R(2,3)                  2.3371         -DE/DX =    0.0                 !
 ! R3    R(2,16)                 1.915          -DE/DX =    0.0                 !
 ! R4    R(2,18)                 2.2041         -DE/DX =    0.0                 !
 ! R5    R(2,19)                 2.2048         -DE/DX =    0.0                 !
 ! R6    R(2,24)                 1.9399         -DE/DX =    0.0                 !
 ! R7    R(3,4)                  1.8191         -DE/DX =    0.0                 !
 ! R8    R(3,5)                  1.8194         -DE/DX =    0.0                 !
 ! R9    R(3,6)                  1.8215         -DE/DX =    0.0                 !
 ! R10   R(4,10)                 1.0908         -DE/DX =    0.0                 !
 ! R11   R(4,11)                 1.0906         -DE/DX =    0.0                 !
 ! R12   R(4,12)                 1.0923         -DE/DX =    0.0                 !
 ! R13   R(5,13)                 1.0907         -DE/DX =    0.0                 !
 ! R14   R(5,14)                 1.0911         -DE/DX =    0.0                 !
 ! R15   R(5,15)                 1.0923         -DE/DX =    0.0                 !
 ! R16   R(6,7)                  1.0912         -DE/DX =    0.0                 !
 ! R17   R(6,8)                  1.0922         -DE/DX =    0.0                 !
 ! R18   R(6,9)                  1.0912         -DE/DX =    0.0                 !
 ! R19   R(16,17)                1.1397         -DE/DX =    0.0                 !
 ! R20   R(18,19)                1.4012         -DE/DX =    0.0                 !
 ! R21   R(18,22)                1.0829         -DE/DX =    0.0                 !
 ! R22   R(18,23)                1.0841         -DE/DX =    0.0                 !
 ! R23   R(19,20)                1.0833         -DE/DX =    0.0                 !
 ! R24   R(19,21)                1.0823         -DE/DX =    0.0                 !
 ! R25   R(24,25)                1.1364         -DE/DX =    0.0                 !
 ! A1    A(1,2,3)               80.6439         -DE/DX =    0.0                 !
 ! A2    A(1,2,16)              83.4916         -DE/DX =    0.0                 !
 ! A3    A(1,2,18)              85.023          -DE/DX =    0.0                 !
 ! A4    A(1,2,19)              85.7071         -DE/DX =    0.0                 !
 ! A5    A(3,2,16)             109.2511         -DE/DX =    0.0                 !
 ! A6    A(3,2,18)             100.822          -DE/DX =    0.0                 !
 ! A7    A(3,2,19)             136.95           -DE/DX =    0.0                 !
 ! A8    A(3,2,24)              97.1488         -DE/DX =    0.0                 !
 ! A9    A(16,2,18)            145.4424         -DE/DX =    0.0                 !
 ! A10   A(16,2,19)            109.4579         -DE/DX =    0.0                 !
 ! A11   A(16,2,24)             99.4611         -DE/DX =    0.0                 !
 ! A12   A(18,2,24)             93.1491         -DE/DX =    0.0                 !
 ! A13   A(19,2,24)             94.4232         -DE/DX =    0.0                 !
 ! A14   A(2,3,4)              115.8862         -DE/DX =    0.0                 !
 ! A15   A(2,3,5)              114.292          -DE/DX =    0.0                 !
 ! A16   A(2,3,6)              117.2151         -DE/DX =    0.0                 !
 ! A17   A(4,3,5)              102.5935         -DE/DX =    0.0                 !
 ! A18   A(4,3,6)              102.3269         -DE/DX =    0.0                 !
 ! A19   A(5,3,6)              102.4704         -DE/DX =    0.0                 !
 ! A20   A(3,4,10)             109.3967         -DE/DX =    0.0                 !
 ! A21   A(3,4,11)             109.2393         -DE/DX =    0.0                 !
 ! A22   A(3,4,12)             111.4906         -DE/DX =    0.0                 !
 ! A23   A(10,4,11)            108.238          -DE/DX =    0.0                 !
 ! A24   A(10,4,12)            109.1416         -DE/DX =    0.0                 !
 ! A25   A(11,4,12)            109.2736         -DE/DX =    0.0                 !
 ! A26   A(3,5,13)             109.0867         -DE/DX =    0.0                 !
 ! A27   A(3,5,14)             109.173          -DE/DX =    0.0                 !
 ! A28   A(3,5,15)             111.8164         -DE/DX =    0.0                 !
 ! A29   A(13,5,14)            108.0529         -DE/DX =    0.0                 !
 ! A30   A(13,5,15)            109.3588         -DE/DX =    0.0                 !
 ! A31   A(14,5,15)            109.2757         -DE/DX =    0.0                 !
 ! A32   A(3,6,7)              109.4389         -DE/DX =    0.0                 !
 ! A33   A(3,6,8)              111.612          -DE/DX =    0.0                 !
 ! A34   A(3,6,9)              109.3833         -DE/DX =    0.0                 !
 ! A35   A(7,6,8)              109.0475         -DE/DX =    0.0                 !
 ! A36   A(7,6,9)              108.2144         -DE/DX =    0.0                 !
 ! A37   A(8,6,9)              109.0787         -DE/DX =    0.0                 !
 ! A38   A(2,18,22)            110.176          -DE/DX =    0.0                 !
 ! A39   A(2,18,23)            111.8135         -DE/DX =    0.0                 !
 ! A40   A(19,18,22)           119.7883         -DE/DX =    0.0                 !
 ! A41   A(19,18,23)           119.7935         -DE/DX =    0.0                 !
 ! A42   A(22,18,23)           114.6332         -DE/DX =    0.0                 !
 ! A43   A(2,19,20)            111.0746         -DE/DX =    0.0                 !
 ! A44   A(2,19,21)            109.5608         -DE/DX =    0.0                 !
 ! A45   A(18,19,20)           120.0567         -DE/DX =    0.0                 !
 ! A46   A(18,19,21)           120.0526         -DE/DX =    0.0                 !
 ! A47   A(20,19,21)           114.8245         -DE/DX =    0.0                 !
 ! A48   L(1,2,24,3,-1)        177.7928         -DE/DX =    0.0                 !
 ! A49   L(2,16,17,5,-1)       177.5232         -DE/DX =    0.0                 !
 ! A50   L(2,24,25,6,-1)       179.0375         -DE/DX =    0.0                 !
 ! A51   L(1,2,24,3,-2)        177.6577         -DE/DX =    0.0                 !
 ! A52   L(2,16,17,5,-2)       182.3731         -DE/DX =    0.0                 !
 ! A53   L(2,24,25,6,-2)       179.3017         -DE/DX =    0.0                 !
 ! D1    D(1,2,3,4)             58.1207         -DE/DX =    0.0                 !
 ! D2    D(1,2,3,5)            -60.8865         -DE/DX =    0.0                 !
 ! D3    D(1,2,3,6)            179.2116         -DE/DX =    0.0                 !
 ! D4    D(16,2,3,4)           137.7962         -DE/DX =    0.0                 !
 ! D5    D(16,2,3,5)            18.789          -DE/DX =    0.0                 !
 ! D6    D(16,2,3,6)          -101.1129         -DE/DX =    0.0                 !
 ! D7    D(18,2,3,4)           -24.9287         -DE/DX =    0.0                 !
 ! D8    D(18,2,3,5)          -143.9359         -DE/DX =    0.0                 !
 ! D9    D(18,2,3,6)            96.1622         -DE/DX =    0.0                 !
 ! D10   D(19,2,3,4)           -15.1703         -DE/DX =    0.0                 !
 ! D11   D(19,2,3,5)          -134.1776         -DE/DX =    0.0                 !
 ! D12   D(19,2,3,6)           105.9206         -DE/DX =    0.0                 !
 ! D13   D(24,2,3,4)          -119.537          -DE/DX =    0.0                 !
 ! D14   D(24,2,3,5)           121.4558         -DE/DX =    0.0                 !
 ! D15   D(24,2,3,6)             1.5539         -DE/DX =    0.0                 !
 ! D16   D(1,2,18,22)          -26.3322         -DE/DX =    0.0                 !
 ! D17   D(1,2,18,23)         -155.0418         -DE/DX =    0.0                 !
 ! D18   D(3,2,18,22)           53.1357         -DE/DX =    0.0                 !
 ! D19   D(3,2,18,23)          -75.5739         -DE/DX =    0.0                 !
 ! D20   D(16,2,18,22)         -97.2441         -DE/DX =    0.0                 !
 ! D21   D(16,2,18,23)         134.0462         -DE/DX =    0.0                 !
 ! D22   D(24,2,18,22)         151.0337         -DE/DX =    0.0                 !
 ! D23   D(24,2,18,23)          22.324          -DE/DX =    0.0                 !
 ! D24   D(1,2,19,20)          156.6755         -DE/DX =    0.0                 !
 ! D25   D(1,2,19,21)           28.766          -DE/DX =    0.0                 !
 ! D26   D(3,2,19,20)         -131.9377         -DE/DX =    0.0                 !
 ! D27   D(3,2,19,21)          100.1528         -DE/DX =    0.0                 !
 ! D28   D(16,2,19,20)          75.1329         -DE/DX =    0.0                 !
 ! D29   D(16,2,19,21)         -52.7767         -DE/DX =    0.0                 !
 ! D30   D(24,2,19,20)         -26.5319         -DE/DX =    0.0                 !
 ! D31   D(24,2,19,21)        -154.4414         -DE/DX =    0.0                 !
 ! D32   D(2,3,4,10)            61.547          -DE/DX =    0.0                 !
 ! D33   D(2,3,4,11)           -56.7672         -DE/DX =    0.0                 !
 ! D34   D(2,3,4,12)          -177.6402         -DE/DX =    0.0                 !
 ! D35   D(5,3,4,10)          -173.2164         -DE/DX =    0.0                 !
 ! D36   D(5,3,4,11)            68.4694         -DE/DX =    0.0                 !
 ! D37   D(5,3,4,12)           -52.4035         -DE/DX =    0.0                 !
 ! D38   D(6,3,4,10)           -67.2364         -DE/DX =    0.0                 !
 ! D39   D(6,3,4,11)           174.4494         -DE/DX =    0.0                 !
 ! D40   D(6,3,4,12)            53.5764         -DE/DX =    0.0                 !
 ! D41   D(2,3,5,13)            57.8945         -DE/DX =    0.0                 !
 ! D42   D(2,3,5,14)           -59.9773         -DE/DX =    0.0                 !
 ! D43   D(2,3,5,15)           178.9816         -DE/DX =    0.0                 !
 ! D44   D(4,3,5,13)           -68.3788         -DE/DX =    0.0                 !
 ! D45   D(4,3,5,14)           173.7493         -DE/DX =    0.0                 !
 ! D46   D(4,3,5,15)            52.7083         -DE/DX =    0.0                 !
 ! D47   D(6,3,5,13)          -174.2481         -DE/DX =    0.0                 !
 ! D48   D(6,3,5,14)            67.88           -DE/DX =    0.0                 !
 ! D49   D(6,3,5,15)           -53.161          -DE/DX =    0.0                 !
 ! D50   D(2,3,6,7)            -59.9955         -DE/DX =    0.0                 !
 ! D51   D(2,3,6,8)            179.2031         -DE/DX =    0.0                 !
 ! D52   D(2,3,6,9)             58.3998         -DE/DX =    0.0                 !
 ! D53   D(4,3,6,7)             67.9491         -DE/DX =    0.0                 !
 ! D54   D(4,3,6,8)            -52.8524         -DE/DX =    0.0                 !
 ! D55   D(4,3,6,9)           -173.6557         -DE/DX =    0.0                 !
 ! D56   D(5,3,6,7)            174.0242         -DE/DX =    0.0                 !
 ! D57   D(5,3,6,8)             53.2228         -DE/DX =    0.0                 !
 ! D58   D(5,3,6,9)            -67.5805         -DE/DX =    0.0                 !
 ! D59   D(22,18,19,20)       -152.7284         -DE/DX =    0.0                 !
 ! D60   D(22,18,19,21)          0.8071         -DE/DX =    0.0                 !
 ! D61   D(23,18,19,20)         -0.945          -DE/DX =    0.0                 !
 ! D62   D(23,18,19,21)        152.5904         -DE/DX =    0.0                 !
 --------------------------------------------------------------------------------
 GradGradGradGradGradGradGradGradGradGradGradGradGradGradGradGradGradGrad

 Leave Link  103 at Tue Oct  4 18:35:59 2022, MaxMem=  2952790016 cpu:               0.4 elap:               0.1
 (Enter /mnt/data/applications/G16/g16/l9999.exe)

 ----------------------------------------------------------------------

 Electric dipole moment (input orientation):
 (Debye = 10**-18 statcoulomb cm , SI units = C m)
                  (au)            (Debye)         (10**-30 SI)
   Tot        0.195183D+01      0.496105D+01      0.165483D+02
   x         -0.188922D+01     -0.480191D+01     -0.160174D+02
   y         -0.476824D+00     -0.121196D+01     -0.404268D+01
   z          0.114593D+00      0.291267D+00      0.971561D+00

 Dipole polarizability, Alpha (input orientation).
 (esu units = cm**3 , SI units = C**2 m**2 J**-1)
 Alpha(0;0):
               (au)            (10**-24 esu)      (10**-40 SI)
   iso        0.180783D+03      0.267892D+02      0.298070D+02
   aniso      0.215617D+02      0.319512D+01      0.355505D+01
   xx         0.189233D+03      0.280414D+02      0.312003D+02
   yx        -0.406245D+01     -0.601993D+00     -0.669808D+00
   yy         0.184833D+03      0.273894D+02      0.304748D+02
   zx        -0.263980D+01     -0.391177D+00     -0.435244D+00
   zy         0.307514D+01      0.455689D+00      0.507023D+00
   zz         0.168282D+03      0.249368D+02      0.277459D+02

 ----------------------------------------------------------------------

 Dipole orientation:
     1         -3.25171271         -0.12123616         -0.88573409
    45         -0.26596649         -0.32981105         -1.23412146
    15         -0.41753303          0.72225057          3.05262028
     6         -2.20527898         -1.41922058          5.06151799
     6         -1.87902735          3.76378489          3.71194884
     6          2.58330419          0.96230795          4.72182915
     1          3.56447764         -0.84930432          4.63361073
     1          2.31321973          1.48650284          6.69982023
     1          3.76536436          2.38082597          3.80393771
     1         -1.34670322         -3.29216493          5.00065097
     1         -4.13288145         -1.56977315          4.34790559
     1         -2.25225252         -0.75939101          7.01687851
     1         -3.79683507          3.76799925          2.95669309
     1         -0.81316575          5.24835830          2.75741824
     1         -1.93996546          4.16271202          5.73622476
     6         -0.70290460          2.66677592         -3.21516711
     8         -1.06486474          4.47567847         -4.32661736
     6         -0.89590439         -4.44314528         -1.05109878
     6         -1.08713539         -3.67559399         -3.57786354
     1          0.44410668         -4.05350309         -4.88292735
     1         -2.92588111         -3.46659197         -4.44859325
     1         -2.59205701         -4.85013594          0.01903469
     1          0.77586564         -5.44138202         -0.41429355
     6          3.37286909         -0.69496070         -1.48681581
     8          5.50526433         -0.92545269         -1.59397614

 Electric dipole moment (dipole orientation):
 (Debye = 10**-18 statcoulomb cm , SI units = C m)
                  (au)            (Debye)         (10**-30 SI)
   Tot        0.195183D+01      0.496105D+01      0.165483D+02
   x          0.000000D+00      0.000000D+00      0.000000D+00
   y          0.000000D+00      0.000000D+00      0.000000D+00
   z          0.195183D+01      0.496105D+01      0.165483D+02

 Dipole polarizability, Alpha (dipole orientation).
 (esu units = cm**3 , SI units = C**2 m**2 J**-1)
 Alpha(0;0):
               (au)            (10**-24 esu)      (10**-40 SI)
   iso        0.180783D+03      0.267892D+02      0.298070D+02
   aniso      0.215617D+02      0.319512D+01      0.355505D+01
   xx         0.167676D+03      0.248470D+02      0.276461D+02
   yx        -0.153314D+01     -0.227187D+00     -0.252780D+00
   yy         0.187483D+03      0.277821D+02      0.309117D+02
   zx        -0.506860D+00     -0.751089D-01     -0.835699D-01
   zy         0.484835D+01      0.718452D+00      0.799386D+00
   zz         0.187189D+03      0.277385D+02      0.308633D+02

 ----------------------------------------------------------------------
 1\1\GINC-KIMIK2158\Freq\RwB97XD\Gen\C7H14O2P1Rh1\DGARAY\04-Oct-2022\0\
 \#P Geom=AllCheck Guess=TCheck SCRF=Check GenChk RwB97XD/ChkBas Freq\\
 Auto-generated job for I3\\0,1\H,0.2699791716,0.4382847137,-1.70872541
 \Rh,0.6549030152,0.0262864957,-0.2172073162\P,-1.6743485254,0.01537176
 18,-0.0256518988\C,-2.5590811215,-1.1023738636,-1.1557665782\C,-2.4605
 395616,1.6216514021,-0.3605512456\C,-2.37494658,-0.4352133507,1.594276
 5234\H,-2.0558945929,-1.4443967801,1.8598971558\H,-3.4664801427,-0.397
 243426,1.5851573353\H,-2.0004693633,0.2520729861,2.3545930278\H,-2.254
 2557752,-2.1312293469,-0.9600197418\H,-2.2931617431,-0.857475843,-2.18
 47222571\H,-3.6414667792,-1.0201190401,-1.0337766847\H,-2.1909857724,1
 .9480576608,-1.3657761963\H,-2.082179096,2.3603923516,0.347649155\H,-3
 .5482382239,1.566366745,-0.2773013291\C,1.2888236191,1.8303662283,-0.1
 151694359\O,1.6222739569,2.9200999918,-0.1012497049\C,1.0089506616,-1.
 9769027152,-1.0659314212\C,2.2008024774,-1.244377053,-1.1431569009\H,3
 .0071744276,-1.4453489425,-0.448252127\H,2.5101132052,-0.8101270226,-2
 .0849996139\H,0.4056349446,-2.1180065816,-1.9540712133\H,0.9025675417,
 -2.7552790992,-0.31891065\C,1.0490904423,-0.5534562256,1.5915562288\O,
 1.2610798139,-0.9067260466,2.6506472987\\Version=AM64L-G16RevA.03\Stat
 e=1-A\HF=-877.6735425\RMSD=1.879e-09\RMSF=9.525e-06\ZeroPoint=0.194694
 2\Thermal=0.2108351\Dipole=-1.8892165,-0.4768236,0.1145931\DipoleDeriv
 =0.191871,0.0387593,-0.1190749,0.047886,0.1021153,0.1207632,-0.1921111
 ,0.1917374,-0.3454162,-1.6522991,-0.0778135,0.112545,-0.1264274,-2.013
 8456,-0.1194215,0.1734135,-0.2411485,-1.4617751,1.8729649,-0.02795,-0.
 0607711,-0.052732,1.208031,0.0125286,0.0284419,0.0113333,1.1704984,-0.
 4269448,-0.0467813,-0.0645491,0.0213574,-0.2749584,-0.0550173,0.019603
 ,-0.0532093,-0.2744663,-0.4123804,0.121895,-0.0105873,-0.0174395,-0.32
 51995,0.0276492,0.0097644,0.0196394,-0.2307884,-0.4455469,-0.0181246,0
 .1275558,0.0131008,-0.230144,0.027278,-0.0196912,0.0322107,-0.3252373,
 0.0842217,0.0434951,0.0018958,0.0446179,-0.0478706,0.0425242,-0.013335
 ,0.0532605,0.0567367,-0.1888431,-0.0032385,0.0575393,-0.0211476,0.1022
 355,0.0166987,0.1138282,0.0119922,0.0393797,0.0778591,-0.0424275,-0.02
 63189,-0.0356348,0.0329849,-0.0610903,-0.0394456,-0.0684856,-0.0158682
 ,0.0925943,0.0345983,-0.0221711,0.0423393,-0.0717843,0.0118678,-0.0085
 331,0.005009,0.0747673,0.0925459,-0.0232033,0.0293405,-0.0112271,0.075
 7195,0.0118628,0.0300892,0.0164533,-0.0639402,-0.2096041,-0.0165181,-0
 .0112957,-0.054779,0.0829764,-0.0249469,-0.0550098,-0.0225661,0.079017
 8,0.0903348,0.0001545,0.0365923,-0.0078551,0.0541332,0.0561681,0.03020
 99,0.050912,-0.0363507,0.0776155,-0.0257653,-0.0444444,-0.0398984,-0.0
 075482,-0.0694716,-0.0348964,-0.0635847,0.0292785,-0.2028037,0.0504689
 ,0.010293,0.0950218,0.0419231,0.0086597,-0.00941,0.0150139,0.1031396,0
 .7857435,0.654636,0.0071193,0.9967723,2.8860879,0.0195595,-0.0043705,-
 0.035096,0.5417658,-0.424041,-0.5842335,-0.0256998,-0.7681776,-2.29301
 32,-0.0825966,0.0022902,0.0131574,-0.2326118,0.3858689,-0.4852556,-0.2
 508978,0.0871885,0.0058591,-0.0836423,-0.0137399,0.1184391,0.2434973,-
 0.2014164,0.3573551,0.223992,-0.3202702,0.4331983,0.1931672,-0.0433997
 ,-0.0024847,0.2331308,-0.0892339,0.0604247,-0.0040399,0.0927227,0.0356
 77,-0.0060415,-0.0336499,-0.0051705,-0.0136136,-0.0193442,0.0425471,0.
 0455662,0.0281778,0.0314063,0.0260942,0.0901769,0.0236077,-0.0474557,0
 .0309589,-0.0395658,-0.0698177,0.004239,-0.0284963,-0.0232341,-0.08829
 22,-0.0547382,-0.0345067,0.0727598,-0.0070337,0.0055402,-0.0187168,-0.
 1072654,0.0125207,0.0227086,0.0472462,-0.0198669,0.7701506,-0.1075022,
 0.3854765,-0.1516839,0.7008943,-0.6477531,0.4995938,-0.5769332,2.49347
 71,-0.3530315,0.101079,-0.3337883,0.1525661,-0.3931164,0.5858734,-0.46
 4235,0.5134048,-1.962792\Polar=189.2330049,-4.0624519,184.8327265,-2.6
 39796,3.075143,168.2818534\Quadrupole=4.5212297,-3.0595974,-1.4616323,
 -1.4840375,-0.0305648,0.6285496\PG=C01 [X(C7H14O2P1Rh1)]\NImag=0\\0.02
 648809,-0.00906483,0.03167639,0.02881768,-0.03027395,0.14375751,-0.041
 85194,0.00437253,-0.01957570,0.28452479,0.00271219,-0.04293297,0.01570
 043,0.01023819,0.32760139,-0.01448974,0.01830484,-0.12175290,0.0155271
 4,-0.00146740,0.31767070,0.00065893,0.00080288,-0.00165864,-0.05939814
 ,0.00289954,0.00384317,0.32527385,-0.00055491,0.00163719,0.00126905,-0
 .00105580,-0.01786668,0.00448653,0.00174921,0.34553180,0.00421264,0.00
 100091,-0.00203834,-0.00135609,0.00362853,-0.03007927,0.00402569,-0.00
 065156,0.34688933,0.00174278,0.00028799,0.00014548,-0.01003629,-0.0027
 5218,-0.00668730,-0.07921843,-0.04779871,-0.04807711,0.51644666,-0.000
 28635,-0.00004957,-0.00040245,0.00139751,0.00142564,0.00049439,-0.0315
 7810,-0.09060330,-0.04151262,-0.04199004,0.49529942,-0.00035442,0.0000
 2389,-0.00021422,0.00174410,0.00018948,0.00266423,-0.03187435,-0.04114
 120,-0.09111462,-0.04359942,-0.05600049,0.49408281,0.00158692,-0.00011
 884,0.00004353,-0.00884236,0.00640831,-0.00452516,-0.07343751,0.062583
 75,-0.01321962,0.00411613,-0.01177326,0.00182942,0.52700840,0.00024700
 ,-0.00018479,0.00036176,-0.00099774,0.00128803,-0.00076959,0.04072154,
 -0.13533271,0.01793949,0.00750246,-0.01646949,0.00324897,0.05287645,0.
 43547579,-0.00025687,-0.00005363,-0.00004288,0.00070925,-0.00070217,0.
 00223622,-0.00807484,0.01651349,-0.05287274,0.00669009,-0.01712168,0.0
 0479651,-0.01180134,0.02377917,0.54490766,-0.00034773,0.00001686,-0.00
 013630,-0.00442630,-0.00356817,0.00905815,-0.06899075,-0.01630466,0.05
 739873,0.00343126,0.00254184,-0.01173314,0.00299300,0.00362561,-0.0099
 6076,0.53003915,-0.00005735,-0.00005811,-0.00002982,0.00029275,0.00146
 086,-0.00051850,-0.00987995,-0.05602739,0.02331379,0.00582656,0.005674
 90,-0.01686981,-0.00895170,-0.00598706,0.02436194,-0.01318038,0.539823
 85,0.00016462,-0.00002623,0.00004128,-0.00045200,-0.00039662,0.0015481
 0,0.03560139,0.02418886,-0.13645446,0.00711254,0.00435444,-0.01691934,
 0.00285965,0.00185754,-0.00456266,0.04825799,0.03257642,0.43345764,-0.
 00001128,0.00000062,-0.00007533,0.00007424,0.00042903,-0.00049582,0.00
 172767,-0.00986566,0.00086985,-0.00002212,0.00018606,-0.00056799,-0.00
 070627,-0.00031220,0.00265639,-0.06773564,0.07267327,-0.01978799,0.070
 90397,-0.00000104,0.00000835,-0.00009620,0.00002868,0.00051987,-0.0005
 6425,0.00222533,-0.00580711,-0.00051458,0.00001064,0.00033803,0.000015
 62,-0.00096121,0.00024522,0.00130800,0.07528460,-0.28181839,0.06110076
 ,-0.08134146,0.30176980,-0.00005880,0.00001941,0.00006876,-0.00038534,
 -0.00076463,0.00058339,-0.00804199,0.02123326,-0.00459920,-0.00041566,
 -0.00056193,0.00139824,0.00261905,0.00107528,-0.00611152,-0.02275276,0
 .06724815,-0.05771871,0.02138997,-0.06695500,0.06117183,-0.00000063,-0
 .00001436,0.00004025,-0.00049884,-0.00042385,0.00116365,-0.00958772,0.
 00029989,-0.00023931,0.00105841,0.00010585,-0.00060135,0.00104994,0.00
 013385,-0.00055016,-0.31814623,0.01125876,-0.00708934,-0.00696180,-0.0
 0092644,0.00023301,0.34034800,-0.00002301,-0.00000377,-0.00003331,-0.0
 0021143,0.00007422,0.00062060,-0.00666110,-0.00124305,0.00061284,0.000
 51036,-0.00020040,-0.00046782,-0.00058989,0.00017661,-0.00060179,0.008
 56992,-0.04626013,-0.00128205,0.02943847,0.00108891,-0.00049969,-0.011
 57020,0.04483843,0.00004423,-0.00003456,0.00011645,0.00102107,0.000970
 81,-0.00175268,0.02370512,-0.00012885,-0.00330096,0.00022023,-0.000085
 88,0.00185823,-0.00019357,-0.00101504,0.00156415,0.00193779,-0.0015857
 2,-0.04153710,-0.00804111,-0.00060973,-0.00108865,0.00540337,-0.000115
 38,0.04426254,-0.00000113,0.00004374,-0.00006501,0.00010388,-0.0000207
 1,-0.00060328,0.00231858,0.00756690,0.00607720,-0.00073406,-0.00108194
 ,0.00241043,-0.00001189,0.00019143,-0.00060996,-0.07661928,-0.05802435
 ,-0.06511911,0.00232182,0.00575166,0.00751098,-0.00847179,-0.01993949,
 -0.02230083,0.08055146,0.00003460,-0.00000587,0.00004858,0.00017706,-0
 .00011948,0.00017914,0.00264321,0.00324954,0.00554753,-0.00054781,-0.0
 0039307,0.00211728,0.00022277,0.00037213,-0.00061963,-0.05859803,-0.15
 208800,-0.12111613,-0.01037049,-0.01666557,-0.02145797,0.00119726,0.00
 111883,0.00263356,0.06519775,0.16397376,-0.00006977,-0.00007359,0.0000
 8823,-0.00028967,0.00040248,0.00122782,-0.00922957,-0.01543648,-0.0142
 8169,0.00279234,0.00231382,-0.00544099,-0.00035112,-0.00007047,0.00136
 417,-0.06934574,-0.12700593,-0.17839457,0.00370156,0.00618180,0.006595
 42,0.00093125,0.00150826,0.00042342,0.07187682,0.13233822,0.18888359,-
 0.00006312,-0.00002320,-0.00012990,0.00020976,0.00042884,0.00030386,0.
 00285112,-0.01145230,0.00416774,-0.06495023,0.07096994,-0.01271812,-0.
 00144074,-0.00189896,-0.00258191,0.00011828,0.00054453,0.00053257,0.00
 017205,0.00009207,-0.00013072,-0.00004545,0.00007719,-0.00006097,-0.00
 016459,-0.00006742,0.00016919,0.06828974,-0.00003676,-0.00004082,-0.00
 014648,0.00016479,0.00047281,0.00001910,0.00556154,-0.01405028,0.00473
 298,0.07543383,-0.29300107,0.04997658,-0.00238575,-0.00192476,-0.00305
 202,0.00026371,0.00079002,0.00027178,0.00009574,0.00018311,-0.00043180
 ,-0.00003197,-0.00004429,-0.00000865,-0.00020794,0.00014840,0.00008878
 ,-0.08007610,0.31223238,-0.00003420,-0.00002485,-0.00002726,0.00049514
 ,0.00025628,-0.00022241,0.00550097,-0.01527611,0.00250777,-0.01137837,
 0.04455209,-0.04992785,-0.00224384,-0.00289611,-0.00321663,0.00049129,
 0.00080806,0.00086235,-0.00004439,-0.00007901,-0.00075671,0.00000300,-
 0.00002979,-0.00004393,-0.00020568,0.00009860,0.00030397,0.01535955,-0
 .05167656,0.05389830,-0.00018960,-0.00020717,0.00007739,0.00014622,0.0
 0021439,0.00048118,0.00223657,0.00476823,-0.01138531,-0.06037941,-0.01
 361913,0.06223063,0.00007191,0.00046236,0.00057285,-0.00141887,-0.0026
 1419,-0.00199839,-0.00013893,-0.00007250,0.00033622,0.00020997,-0.0000
 8691,-0.00010563,0.00082064,0.00021651,-0.00097958,0.00108525,0.001370
 79,-0.00890229,0.06313226,-0.00010914,-0.00003182,0.00013339,0.0004753
 7,-0.00013832,0.00029059,0.00469156,0.00327249,-0.01510308,-0.01258352
 ,-0.05492862,0.05649628,0.00045651,0.00079664,0.00081267,-0.00216603,-
 0.00309660,-0.00293782,-0.00013344,0.00011048,-0.00001013,-0.00012338,
 -0.00013569,0.00035313,0.00044347,0.00063190,-0.00135305,-0.00779122,-
 0.00506859,0.02920743,0.01648029,0.05949412,0.00016324,-0.00003384,0.0
 0043218,0.00034051,0.00018890,0.00067121,0.00508609,0.00535041,-0.0144
 4798,0.06607737,0.06206988,-0.29363037,0.00026389,0.00023235,0.0007691
 9,-0.00242722,-0.00308367,-0.00203595,-0.00006835,0.00003188,0.0003094
 4,-0.00014593,-0.00003816,0.00042389,0.00053640,0.00046120,-0.00101846
 ,0.00083311,-0.00014918,-0.00366104,-0.07000775,-0.06458098,0.31270966
 ,0.00039917,0.00013307,-0.00004596,-0.00157291,-0.00032732,-0.00108228
 ,-0.01203982,0.00085227,0.00129695,-0.31295306,0.02380659,0.03379870,0
 .00108397,0.00054017,0.00039594,0.00104486,0.00038865,0.00046211,-0.00
 003245,-0.00003191,0.00002788,0.00026732,0.00012818,-0.00066398,0.0002
 6434,-0.00004667,0.00020581,-0.00649240,-0.00067473,0.00085475,-0.0053
 3102,0.00056691,-0.00055217,0.33443940,0.00036554,-0.00000703,-0.00005
 934,-0.00184167,-0.00035605,-0.00135422,-0.01631208,-0.00131472,0.0005
 8090,0.01748639,-0.04522525,0.00065927,-0.00037011,0.00112319,0.000805
 78,0.00044624,0.00040104,0.00111377,0.00009725,-0.00002888,0.00002011,
 0.00040174,0.00023548,-0.00021524,0.00000769,-0.00014038,0.00031792,0.
 02974823,-0.00000268,-0.00428023,-0.00709993,-0.00046021,-0.00007400,-
 0.02398104,0.04611872,0.00055368,0.00004593,0.00035374,-0.00182270,-0.
 00030330,-0.00111473,-0.01655469,-0.00010822,-0.00089111,0.02708601,0.
 00044327,-0.04687186,0.00037215,0.00113115,0.00048947,-0.00048853,0.00
 073254,0.00120896,0.00001708,-0.00000287,-0.00006002,0.00048200,-0.000
 11965,-0.00040500,0.00018901,-0.00005253,0.00039464,-0.00580062,-0.000
 16891,-0.00041632,0.02968878,-0.00340490,-0.00091984,-0.03463932,0.002
 58336,0.04797980,-0.00018149,0.00021007,0.00020274,0.00010112,-0.00047
 811,0.00035110,0.00167758,0.00162742,-0.01084499,0.00001215,-0.0006430
 8,0.00020602,-0.06085951,-0.02061439,0.06113690,-0.00103690,0.00297881
 ,-0.00019432,0.00078490,0.00027568,-0.00083020,0.00021602,0.00013596,-
 0.00007689,-0.00012924,-0.00009930,0.00032367,-0.00015253,-0.00007670,
 -0.00012760,0.00018623,-0.00000927,0.00011021,-0.00003683,0.00001502,0
 .00009735,0.06300703,0.00003056,0.00008536,-0.00031874,-0.00058814,0.0
 0032912,-0.00063292,-0.00676641,-0.00615470,0.02117457,-0.00046180,0.0
 0140259,-0.00051363,-0.02330905,-0.06634033,0.08204429,0.00288947,-0.0
 0595590,0.00068642,-0.00071095,-0.00023291,0.00192120,0.00016613,0.000
 15453,-0.00051804,0.00016630,0.00018491,-0.00011097,0.00031500,0.00032
 253,0.00000699,-0.00012051,-0.00070035,-0.00044449,0.00002574,-0.00005
 925,0.00001690,0.02206145,0.07046078,0.00021524,-0.00015185,0.00027258
 ,0.00009904,-0.00053551,0.00028329,0.00160723,-0.00037954,-0.00466574,
 -0.00000137,0.00007902,0.00030578,0.06355027,0.07618470,-0.28106897,-0
 .00079775,0.00081379,0.00041453,0.00019246,0.00000852,-0.00011180,-0.0
 0006515,-0.00012277,0.00011975,0.00001558,-0.00010689,0.00023440,-0.00
 004937,0.00003383,0.00011080,0.00009367,-0.00008883,0.00015238,-0.0000
 3294,0.00000397,-0.00002542,-0.06901583,-0.08275955,0.30109283,-0.0000
 3424,0.00005302,-0.00007565,0.00021331,-0.00060836,0.00002983,0.002885
 53,0.00656304,0.00858442,-0.00103157,0.00278946,-0.00100391,-0.0771595
 7,-0.06396625,-0.06048606,0.00005318,-0.00069595,0.00016560,-0.0001434
 6,-0.00001043,0.00018581,-0.00004300,-0.00002673,-0.00009361,0.0001545
 7,-0.00003137,-0.00012010,0.00085372,0.00060697,0.00053017,-0.00016310
 ,-0.00020921,-0.00020010,0.00023919,0.00015708,-0.00001960,0.00182200,
 0.00611122,0.00501953,0.08136670,0.00003180,-0.00010942,0.00010908,-0.
 00054663,0.00089673,0.00053955,-0.00922490,-0.01408690,-0.01567197,0.0
 0299721,-0.00544381,0.00190700,-0.06828116,-0.17116299,-0.12710859,-0.
 00042148,0.00136547,0.00000881,0.00031372,0.00025988,-0.00012249,0.000
 03443,-0.00005912,0.00000619,-0.00006888,-0.00030460,0.00072288,-0.000
 94692,-0.00099568,-0.00138270,0.00015695,0.00027872,0.00007370,0.00021
 996,0.00039859,0.00034675,0.00426748,0.00772572,0.00739611,0.07046571,
 0.18140776,-0.00000882,-0.00002030,0.00003558,0.00021664,0.00044381,-0
 .00010574,0.00186637,0.00459784,0.00231278,-0.00045153,0.00173702,-0.0
 0010974,-0.06135520,-0.12174555,-0.15995907,0.00024584,-0.00053512,0.0
 0033614,-0.00006791,-0.00011153,0.00017094,0.00001838,0.00002267,-0.00
 002913,-0.00007246,0.00035016,-0.00024940,0.00014242,0.00036733,0.0005
 4643,-0.00005115,0.00011266,0.00015598,-0.00005167,-0.00003496,-0.0001
 2638,-0.01028334,-0.02100487,-0.01724262,0.06808625,0.13246607,0.17198
 314,0.00034552,-0.00006079,-0.00010129,-0.00131897,0.00102143,-0.00069
 413,-0.01056206,-0.00093829,0.00077823,0.00104104,-0.00060184,0.000000
 01,-0.31590467,-0.01824489,0.02180983,0.00102046,-0.00054923,0.0000916
 0,0.00025007,-0.00008391,0.00016185,0.00022179,0.00025280,-0.00060713,
 -0.00003797,0.00001451,0.00003240,0.00021288,-0.00013258,-0.00013275,-
 0.00004388,-0.00000825,-0.00004421,0.00029335,0.00045749,0.00039363,-0
 .00540717,0.00012844,-0.00070540,-0.00845997,0.00061608,0.00159786,0.3
 3797807,-0.00059959,0.00004845,-0.00012345,0.00206625,-0.00093543,0.00
 145677,0.02320407,-0.00220546,-0.00132853,0.00014353,0.00179893,0.0000
 3962,-0.00942860,-0.04222496,-0.00053121,-0.00017493,0.00156533,-0.000
 92689,-0.00012469,0.00015179,-0.00049689,-0.00058434,-0.00012529,0.000
 46180,-0.00009095,-0.00002621,0.00001495,-0.00010231,0.00039353,0.0003
 7112,-0.00006160,-0.00003106,-0.00000072,-0.00061919,-0.00042850,-0.00
 022600,-0.00968272,-0.00144322,-0.00047455,-0.02138687,-0.00050880,0.0
 0364075,0.01744031,0.04499799,0.00023703,-0.00017880,0.00027732,-0.000
 44222,0.00030582,-0.00000531,-0.00504641,0.00038278,-0.00113063,0.0004
 6104,-0.00032271,-0.00023326,0.01956253,0.00001743,-0.04783337,-0.0006
 5714,-0.00053896,0.00017093,0.00014462,-0.00012273,0.00011343,0.000190
 99,0.00030792,-0.00004242,-0.00003589,0.00002047,-0.00005964,-0.000107
 80,-0.00000709,-0.00010767,0.00007220,-0.00003013,-0.00004603,0.000082
 20,-0.00017307,0.00018773,0.02908844,0.00042309,0.00022089,-0.02056376
 ,0.00069382,0.00220951,-0.02308965,-0.00111439,0.04594757,0.00386163,-
 0.00316658,-0.00025272,-0.05249492,-0.02302645,-0.01377274,-0.01907480
 ,-0.01321970,0.00035290,-0.00135535,0.00036081,0.00027208,0.00380325,0
 .00046117,-0.00008475,-0.00030798,0.00052138,-0.00004897,0.00006972,0.
 00010762,-0.00019129,0.00001843,0.00025629,0.00021086,-0.00003446,0.00
 003621,0.00035492,0.00003799,0.00015433,0.00007002,-0.00004665,-0.0000
 2729,-0.00008553,-0.00020292,-0.00018955,-0.00035081,-0.00018075,0.000
 34385,-0.00020488,-0.00048263,0.00050035,0.00009444,0.00093036,-0.0010
 0034,0.00018627,0.18350134,0.00192925,0.00262160,0.00552682,-0.0130804
 3,-0.07712615,-0.01306346,-0.01999218,-0.00881600,-0.00236667,0.000819
 72,-0.00045277,-0.00016747,0.00683608,0.00075646,0.00000055,0.00419553
 ,-0.00025199,0.00079781,-0.00024132,-0.00017467,0.00007421,0.00101585,
 0.00061612,-0.00120883,-0.00016248,0.00019449,0.00024943,-0.00008670,0
 .00002608,0.00004580,-0.00021730,0.00005809,-0.00016346,0.00053339,0.0
 0046343,0.00007337,0.00020299,0.00047704,0.00031069,0.00051207,0.00033
 460,-0.00071305,0.00147073,-0.00247123,0.00054702,0.32534017,1.1325559
 2,-0.00642837,-0.00939435,-0.00144330,-0.00115973,0.00912801,-0.048744
 81,0.00285709,0.00025598,0.00479846,0.00030146,-0.00000435,-0.00019629
 ,-0.00017376,0.00008738,-0.00009575,-0.00007941,0.00011583,-0.00004529
 ,0.00003604,0.00006470,-0.00009611,-0.00002685,0.00002381,-0.00005845,
 0.00004951,-0.00002540,-0.00015374,0.00005446,0.00003935,0.00000641,-0
 .00011865,-0.00009355,-0.00012772,0.00007464,0.00009046,0.00005637,-0.
 00018852,0.00010323,-0.00019258,0.00010937,-0.00023030,0.00000339,-0.0
 0003037,0.00006112,-0.00012593,0.00507670,0.01312651,0.08401606,-0.000
 69287,0.00179737,0.00011650,0.00892794,-0.02113351,0.00382085,0.007957
 97,0.00360952,-0.00016387,0.00007168,0.00001694,-0.00005704,-0.0013623
 3,-0.00044707,0.00008065,-0.00018415,-0.00005911,-0.00002993,0.0000126
 3,0.00000677,0.00000712,-0.00007356,-0.00008910,0.00003418,0.00001117,
 -0.00002477,-0.00008065,0.00005829,0.00002270,0.00000638,0.00004095,-0
 .00000731,0.00003317,-0.00005659,0.00000903,0.00002341,0.00002976,-0.0
 0009118,-0.00002341,-0.00011654,-0.00000601,0.00010383,-0.00024397,0.0
 0053868,-0.00003823,-0.12920588,-0.29877759,-0.00269659,0.11773654,0.0
 0107373,0.00181598,-0.00192116,-0.02395943,-0.06077458,0.00412183,0.00
 998390,0.00170018,0.00118270,-0.00217058,0.00062527,0.00029145,-0.0036
 1103,-0.00061395,0.00006072,-0.00313114,0.00039663,-0.00049414,0.00017
 329,0.00016599,-0.00019031,-0.00069032,-0.00032066,0.00096372,0.000086
 44,-0.00009701,-0.00004323,0.00022012,0.00020938,0.00008270,0.00018221
 ,-0.00004747,0.00007687,-0.00070057,-0.00047538,-0.00045536,-0.0001301
 3,-0.00028241,-0.00025920,-0.00030699,-0.00006395,0.00049138,-0.000723
 01,0.00149824,-0.00026558,-0.30042787,-1.01150949,-0.01101105,0.320504
 17,1.05636173,0.00221504,0.00265304,0.00068636,-0.00169064,-0.00770442
 ,0.01593973,-0.00121660,-0.00016588,-0.00089041,-0.00010721,0.00001908
 ,0.00005038,0.00005463,-0.00001227,0.00003185,-0.00015366,-0.00001765,
 0.00000104,-0.00001152,-0.00002180,0.00002430,-0.00002301,-0.00003052,
 0.00005674,-0.00000218,0.00000346,0.00001850,-0.00001553,-0.00000803,-
 0.00000286,0.00002485,0.00001646,0.00001703,-0.00002691,-0.00002637,-0
 .00003458,0.00004561,0.00000955,0.00001873,-0.00000081,0.00002728,-0.0
 0002099,0.00000590,-0.00002999,-0.00000251,-0.00264765,-0.01097849,-0.
 03542080,0.00372791,0.01378592,0.01792268,0.00306433,-0.00096345,0.000
 50823,0.00200105,-0.02842443,-0.02404658,-0.00669240,0.00941259,0.0035
 4003,0.00381916,-0.00075518,-0.00034518,-0.00087729,-0.00006811,0.0001
 5621,0.00131596,-0.00042302,0.00010171,0.00000397,-0.00018272,0.000092
 53,0.00030000,-0.00015817,-0.00047506,-0.00002435,0.00004730,-0.000118
 40,-0.00003239,0.00019902,-0.00026979,0.00003023,-0.00020998,-0.000017
 64,0.00090279,0.00113453,0.00095437,-0.00003922,-0.00003784,-0.0000516
 2,-0.00003051,-0.00009328,0.00004341,-0.00000900,0.00021220,-0.0001551
 9,-0.00583340,0.00385369,0.00557783,0.00130291,-0.00537773,-0.00228028
 ,0.46695471,0.00045686,-0.00123765,-0.00159905,0.00231144,-0.05506294,
 -0.01231186,-0.00043219,-0.00123487,-0.00001173,-0.00116950,-0.0001305
 2,-0.00007321,0.00000872,0.00003663,0.00002450,-0.00053044,0.00008150,
 -0.00004570,-0.00000994,0.00007262,-0.00001411,-0.00012957,0.00001815,
 0.00013396,-0.00000341,-0.00002827,0.00003171,-0.00005129,0.00032957,0
 .00002656,-0.00004144,-0.00001652,0.00005091,-0.00042977,0.00010369,-0
 .00021463,-0.00000425,0.00000035,0.00000978,-0.00006759,0.00007562,-0.
 00000296,-0.00002287,0.00001483,0.00002483,0.00427371,-0.01949981,-0.0
 1013891,-0.00326862,0.00272888,0.00373955,0.22657895,0.45333996,-0.000
 20172,0.00451687,0.00227322,-0.00797718,-0.00686345,-0.02441103,0.0019
 2111,-0.00315473,0.00056419,-0.00161712,0.00021596,-0.00018832,0.00015
 322,-0.00005454,-0.00014054,-0.00052031,0.00002796,-0.00011867,0.00002
 963,0.00009349,-0.00007760,-0.00015020,0.00005994,0.00014177,0.0000340
 6,-0.00000240,-0.00003486,-0.00013259,-0.00001931,0.00046119,-0.000238
 71,0.00030106,-0.00005103,-0.00042065,-0.00043116,-0.00050248,-0.00000
 696,0.00007346,-0.00001213,0.00003066,0.00000272,-0.00000793,-0.000022
 52,-0.00003748,0.00003146,0.00780225,-0.00924322,0.00260834,-0.0030070
 6,0.00356525,-0.00087843,0.13952946,-0.13590844,0.53980719,-0.00107247
 ,0.00256785,0.00162056,-0.05371226,0.03865594,0.02349365,-0.00452662,0
 .00044704,0.00266143,-0.00100598,0.00018241,0.00014923,-0.00141414,-0.
 00025754,0.00003492,-0.00221357,0.00009752,-0.00035621,0.00003543,-0.0
 0000056,0.00001706,-0.00040909,-0.00021197,0.00065651,0.00006243,-0.00
 000696,-0.00010281,-0.00010411,0.00001605,-0.00000055,-0.00004062,-0.0
 0002109,-0.00004967,-0.00027343,-0.00021492,-0.00026281,0.00002651,0.0
 0003820,0.00000013,0.00003119,-0.00007155,-0.00003067,-0.00034007,0.00
 042051,-0.00012371,0.00722514,-0.01148145,-0.00393153,-0.00215086,0.00
 568206,0.00164140,-0.28291138,-0.16742200,-0.00799301,0.64226751,-0.00
 005205,0.00236965,-0.00137793,0.00290038,0.00194495,0.01274791,0.00592
 192,-0.00636897,-0.00417253,-0.00286075,0.00064435,0.00051137,0.000843
 46,0.00001325,-0.00000540,-0.00028026,0.00025337,0.00001600,0.00000943
 ,0.00012489,-0.00006854,-0.00021857,0.00016802,0.00019408,0.00001524,-
 0.00004567,0.00010226,-0.00009531,-0.00015859,0.00022938,-0.00006229,0
 .00020886,-0.00003420,-0.00057253,-0.00083318,-0.00076188,0.00005157,0
 .00000048,0.00005953,0.00001439,0.00012953,-0.00003761,-0.00002990,-0.
 00015035,0.00017021,0.01265023,-0.01417533,-0.00721552,-0.00390356,0.0
 0875946,0.00261947,-0.11017366,-0.14405664,0.01543876,0.13054154,0.266
 70696,-0.00401653,0.00134919,0.00239243,0.01189462,-0.00352100,-0.0265
 1432,0.00398296,-0.00395606,0.00022096,-0.00092532,0.00021879,0.000159
 59,0.00116756,0.00019734,-0.00009828,-0.00054921,0.00022333,-0.0000777
 5,0.00001298,0.00005992,-0.00003947,-0.00016443,-0.00000915,0.00015676
 ,0.00003038,-0.00003557,0.00000023,0.00003674,0.00005857,-0.00009423,0
 .00005092,-0.00008454,0.00007697,-0.00024243,-0.00017769,-0.00011165,-
 0.00004899,0.00005154,0.00002383,-0.00001862,0.00008399,-0.00002561,0.
 00012461,-0.00030626,0.00012243,0.00249372,-0.00157193,0.00074188,-0.0
 0054476,0.00130418,0.00011957,0.01324568,0.03203029,-0.08845027,0.0472
 4152,-0.18319858,0.55479957,-0.00013677,-0.00000878,0.00003293,-0.0052
 4475,0.00411272,0.00127928,0.00043691,-0.00054024,-0.00015032,-0.00034
 541,0.00002680,0.00004386,-0.00003652,0.00000825,0.00002251,-0.0001696
 6,0.00003580,-0.00000474,0.00000320,0.00000443,-0.00001639,-0.00005058
 ,-0.00001303,0.00005126,0.00000241,0.00000124,-0.00000210,0.00003398,0
 .00005742,-0.00001102,0.00002884,-0.00001357,0.00003516,-0.00010257,-0
 .00002561,-0.00004754,0.00000366,-0.00000196,0.00000449,0.00000295,0.0
 0000373,-0.00000626,-0.00003415,0.00001091,-0.00000532,0.00037046,-0.0
 0155957,-0.00038116,0.00001260,0.00107054,0.00018126,-0.01136430,0.004
 32417,-0.01726045,-0.20926154,0.03137885,-0.14088781,0.21909120,0.0003
 3134,-0.00037228,-0.00062480,0.00871857,-0.00621273,0.00209508,-0.0000
 3941,0.00050537,-0.00039742,0.00035879,-0.00004850,-0.00002209,0.00006
 253,0.00002150,0.00002867,0.00041269,-0.00002132,0.00007398,-0.0000130
 7,-0.00000261,0.00000840,0.00009951,0.00003942,-0.00012452,-0.00001341
 ,-0.00000114,0.00002747,0.00004295,0.00003516,-0.00006105,0.00003519,-
 0.00004779,0.00001646,0.00009032,0.00012815,0.00010613,-0.00000071,-0.
 00001163,-0.00000643,-0.00000402,0.00000855,0.00000751,0.00005309,-0.0
 0002478,0.00000018,-0.00054584,0.00276018,0.00048656,0.00002686,-0.001
 56632,-0.00021732,-0.01803174,0.00535116,-0.01447322,0.03923643,-0.045
 37229,0.05256997,-0.03606563,0.04599003,0.00019488,-0.00015325,0.00015
 722,0.00781204,-0.00523667,0.00058893,-0.00019317,0.00046584,-0.000267
 95,0.00035415,-0.00003935,-0.00003031,0.00005673,0.00002304,0.00000653
 ,0.00033919,-0.00002750,0.00005467,-0.00000277,-0.00000117,0.00000797,
 0.00008354,0.00003018,-0.00010536,-0.00000661,-0.00000388,0.00001706,0
 .00002486,-0.00000080,-0.00002622,0.00002326,-0.00001965,-0.00000080,0
 .00010503,0.00008526,0.00008572,0.00000338,-0.00001408,-0.00000287,-0.
 00000393,0.00000431,0.00000907,0.00004410,-0.00002179,0.00000657,-0.00
 101331,0.00180637,0.00036020,0.00021009,-0.00126001,-0.00022572,-0.000
 48667,0.00039106,0.00264008,-0.13869426,0.04707322,-0.17010768,0.14954
 697,-0.04519086,0.17761028,-0.00031479,0.00043373,-0.00039664,-0.00514
 712,0.00295422,0.00785026,0.00031263,-0.00045010,-0.00003340,-0.000247
 43,0.00003437,0.00004214,-0.00010940,-0.00001970,0.00001290,-0.0001164
 7,0.00000974,-0.00000433,0.00000918,0.00001942,-0.00002634,-0.00003845
 ,0.00001369,0.00004314,0.00000122,0.00000196,-0.00000100,0.00001919,0.
 00002377,0.00002872,-0.00002186,0.00001352,-0.00002238,-0.00006256,-0.
 00003739,-0.00008809,0.00000372,0.00001149,-0.00000286,0.00000902,-0.0
 0000711,-0.00000657,-0.00004139,0.00003746,-0.00001421,0.00083105,-0.0
 0191710,-0.00057784,-0.00015626,0.00139350,0.00023649,-0.00065549,-0.0
 1049162,0.02047608,-0.07516114,-0.04100831,0.06479780,0.00862519,0.008
 47140,-0.01910821,0.07497441,0.00020757,-0.00047419,0.00053635,0.00769
 662,-0.00269712,-0.01230808,0.00009972,0.00024632,0.00031408,0.0002656
 7,-0.00010175,-0.00006445,0.00016211,0.00003113,-0.00002882,0.00015565
 ,-0.00003577,0.00000277,0.00000831,-0.00001679,-0.00000857,0.00004349,
 -0.00001014,-0.00006505,-0.00000400,0.00001084,-0.00001173,0.00002969,
 0.00002398,0.00001119,-0.00000776,0.00001155,0.00001387,0.00004805,0.0
 0007315,0.00008386,-0.00001359,0.00000856,0.00000302,-0.00000766,0.000
 00591,0.00000023,0.00005363,-0.00005853,0.00001565,-0.00097124,0.00303
 337,0.00100692,0.00019183,-0.00200819,-0.00038200,-0.00727272,-0.00703
 232,0.01872951,-0.03772516,-0.07527374,0.10586644,-0.00210957,-0.00122
 988,0.00314131,0.04111944,0.08603727,-0.00049109,0.00016104,0.00095258
 ,0.00236024,-0.00129191,-0.00454417,-0.00014632,0.00015365,0.00027754,
 0.00013434,-0.00004073,-0.00004577,0.00007895,0.00000147,-0.00001877,0
 .00003081,-0.00001273,-0.00000798,-0.00000028,-0.00000742,0.00000103,0
 .00001555,-0.00000516,-0.00001632,-0.00000153,0.00000374,-0.00000663,-
 0.00000848,-0.00000705,0.00000493,-0.00001252,0.00000796,0.00000163,0.
 00003036,0.00002227,0.00003555,-0.00000315,0.00000573,0.00000126,-0.00
 000182,0.00000141,-0.00000058,0.00002619,-0.00002701,0.00000564,0.0001
 1166,0.00169694,-0.00003093,-0.00008409,-0.00086854,-0.00001370,-0.003
 22770,-0.00151556,0.00477676,0.06728154,0.11439800,-0.27587517,0.00624
 959,0.00620314,-0.01223057,-0.07246594,-0.11772710,0.28401696,-0.00007
 628,0.00016477,-0.00017883,0.00243472,0.00393176,0.00668304,0.00038060
 ,0.00004400,0.00017002,0.00022906,0.00003086,0.00002938,-0.00000888,-0
 .00006434,-0.00009781,-0.00013283,-0.00005994,-0.00007143,0.00000526,0
 .00001287,0.00001180,-0.00000583,0.00001773,0.00005008,0.00001641,0.00
 000118,-0.00002707,-0.00031086,-0.00020655,0.00019482,-0.00042335,0.00
 022407,-0.00016792,0.00013799,-0.00015511,-0.00011591,0.00000715,0.000
 01461,0.00000952,0.00002065,-0.00003023,-0.00000024,0.00000467,0.00000
 846,0.00001856,-0.00031329,0.00064196,-0.00068542,0.00021125,0.0001633
 2,0.00025614,-0.12770518,-0.03065758,-0.13257665,-0.01519482,-0.002470
 27,-0.02454739,-0.00205528,-0.00591774,-0.00132496,0.00023941,0.003243
 56,0.00127767,0.14019243,0.00030732,-0.00050016,0.00062325,-0.00257405
 ,-0.00917914,-0.01247133,-0.00097063,0.00052699,-0.00006549,0.00026197
 ,-0.00000997,-0.00017424,0.00002309,0.00004534,0.00004881,0.00026977,0
 .00000322,0.00007945,0.00000962,-0.00001364,-0.00000261,0.00004918,0.0
 0000108,-0.00009648,-0.00001858,-0.00000070,0.00002574,-0.00000522,0.0
 0017971,0.00005263,0.00039265,-0.00011066,0.00014168,-0.00000466,0.000
 17156,0.00022634,-0.00000650,-0.00002611,-0.00000839,-0.00002068,0.000
 02315,0.00001354,0.00002960,-0.00001002,-0.00000552,0.00025461,0.00000
 532,0.00085575,-0.00036562,-0.00082391,-0.00037060,-0.03496572,-0.0454
 2363,-0.02184486,-0.00452744,0.00453170,-0.00941434,-0.00198602,0.0017
 0746,0.00167421,0.00126438,-0.00218188,-0.00101310,0.03026316,0.047004
 48,0.00009309,0.00062936,0.00100247,-0.00116576,-0.00269697,-0.0048943
 9,-0.00095413,-0.00009948,-0.00046274,0.00023036,-0.00007487,0.0001320
 8,-0.00000086,0.00006995,0.00011861,0.00009590,0.00006114,0.00007536,-
 0.00002085,-0.00001665,-0.00000700,0.00002815,-0.00001550,-0.00001766,
 -0.00001481,0.00000364,0.00003621,0.00026082,0.00015190,-0.00021292,-0
 .00001325,-0.00008013,0.00005572,0.00001146,0.00023244,0.00009790,-0.0
 0000750,-0.00001420,-0.00000409,-0.00002279,0.00005274,-0.00000042,0.0
 0001707,0.00001429,0.00000122,0.00024350,0.00010394,0.00069533,-0.0001
 7881,-0.00037636,-0.00022332,-0.14166722,-0.02032228,-0.24937679,0.004
 99646,0.00226718,0.00703020,0.00095064,0.00159302,0.00171739,0.0002866
 0,-0.00166844,0.00054383,0.14673899,0.02428378,0.25615572,-0.00015289,
 0.00037405,0.00057830,-0.00084494,0.00497686,-0.00326962,0.00068501,0.
 00002201,-0.00028319,-0.00015254,0.00015936,-0.00001358,0.00000641,-0.
 00002358,-0.00001120,-0.00007566,0.00004306,-0.00005680,-0.00003508,-0
 .00001515,0.00009083,-0.00000248,-0.00003361,0.00002864,0.00002173,-0.
 00003437,-0.00000767,-0.00018285,-0.00006960,-0.00009610,0.00006874,-0
 .00002243,0.00009334,-0.00004037,-0.00015630,0.00002006,0.00001183,-0.
 00001740,0.00000901,0.00001662,-0.00001988,-0.00000021,-0.00000562,-0.
 00001215,0.00000307,0.00064927,0.00061627,0.00094476,-0.00004043,0.000
 44885,-0.00030214,-0.04663509,-0.02446468,0.00361839,-0.00152050,-0.02
 106879,0.02259941,0.00059189,0.00285356,0.00137470,-0.00244782,-0.0056
 3090,-0.00120024,0.00251835,0.01229379,-0.01003810,0.04749213,0.000020
 53,-0.00033284,-0.00022946,0.00169814,-0.01049233,0.00067215,-0.001273
 71,0.00043679,0.00033293,0.00051697,-0.00011822,-0.00010287,0.00007255
 ,0.00003529,0.00000846,0.00023348,-0.00005684,0.00004728,0.00006035,-0
 .00001395,-0.00006572,0.00004234,0.00001989,-0.00008389,-0.00002237,0.
 00002338,0.00001184,0.00014782,0.00003734,0.00004829,-0.00003267,-0.00
 000723,-0.00003144,0.00009808,0.00016978,0.00010131,-0.00002099,0.0000
 1010,-0.00001175,-0.00002923,0.00002919,0.00000870,0.00003950,-0.00000
 937,0.00000179,-0.00087080,0.00010731,-0.00078601,-0.00001358,-0.00101
 074,0.00028379,-0.03222848,-0.18902577,0.15329102,0.00168658,-0.002121
 41,0.00900224,0.00070692,-0.00145165,-0.00177449,-0.00197611,0.0019380
 6,0.00005890,0.00057245,0.00479826,-0.00401569,0.03011423,0.19777534,0
 .00009290,-0.00026784,0.00018841,0.00090877,-0.00853344,0.00178059,-0.
 00044614,0.00040396,0.00012109,0.00022508,-0.00001743,-0.00011664,-0.0
 0000806,0.00001306,-0.00000378,0.00011145,-0.00003825,0.00004391,0.000
 01577,0.00003011,-0.00000871,0.00001677,0.00003387,-0.00005686,-0.0000
 1123,-0.00000434,0.00001128,-0.00000185,0.00009150,-0.00001911,0.00007
 240,-0.00007065,0.00003386,0.00002932,0.00012242,0.00008913,-0.0000055
 5,-0.00000980,0.00000076,-0.00001673,0.00000268,0.00000689,0.00001056,
 0.00000168,-0.00000054,-0.00072696,-0.00021678,-0.00111483,0.00003777,
 -0.00074135,0.00041727,0.00830200,0.14747012,-0.18539712,0.00055860,0.
 00319914,-0.00047555,0.00087794,-0.00229073,-0.00028120,-0.00036691,0.
 00251589,0.00187415,0.00406983,0.01672455,-0.01282767,-0.01413360,-0.1
 5734812,0.19579423,0.01183961,0.00249387,-0.01102386,-0.08003063,-0.00
 387014,0.01402411,-0.00919888,0.00391499,-0.01234815,0.00073847,-0.000
 35145,0.00010661,0.00072240,0.00018997,0.00026988,0.00331530,-0.000256
 46,0.00044989,-0.00034193,-0.00020930,0.00016826,0.00075762,0.00036026
 ,-0.00129057,-0.00034610,0.00009203,0.00022506,-0.00001348,-0.00010940
 ,-0.00011194,0.00013031,0.00010075,0.00026967,0.00021288,0.00008599,0.
 00047043,0.00011487,-0.00023846,0.00016186,-0.00001162,0.00015445,-0.0
 0002302,0.00019525,-0.00032142,0.00034336,0.01127651,0.00163291,0.0020
 0364,-0.00307143,-0.00128483,-0.00011705,0.00471289,0.00109036,-0.0027
 8716,0.00193708,-0.00268149,0.00572117,-0.00037357,-0.00039718,0.00088
 645,-0.00076134,0.00082614,0.00015192,-0.00021188,0.00011658,0.0001786
 0,0.00001776,0.00089815,0.00063195,0.13913396,0.00291719,0.01121069,0.
 01369063,-0.00214199,-0.07073953,-0.01679478,0.00636701,0.00501626,0.0
 0167984,-0.00083801,0.00002531,0.00038940,-0.00163987,-0.00036117,0.00
 017949,-0.00137132,-0.00002483,0.00004548,-0.00039078,-0.00044399,-0.0
 0004055,-0.00026139,-0.00024453,0.00065498,0.00005681,0.00020344,-0.00
 017990,0.00001147,-0.00011247,-0.00014631,0.00005403,-0.00000664,-0.00
 000171,-0.00026302,-0.00021142,-0.00024522,0.00003116,-0.00003284,0.00
 007071,0.00015662,-0.00027134,-0.00009516,-0.00040635,0.00042165,-0.00
 023763,-0.00332132,-0.01775003,0.01941123,0.00260788,0.01009727,-0.004
 77485,-0.00392112,0.00120091,-0.00516659,0.00304018,0.00487909,0.00019
 241,0.00101716,-0.00048539,-0.00143476,0.00027853,-0.00054990,-0.00028
 819,0.00051790,-0.00130192,-0.00020424,-0.00051678,-0.00097947,-0.0016
 0276,-0.06491885,0.20765811,-0.01165128,0.01327330,-0.02467343,0.00931
 599,-0.02042646,-0.03067339,-0.01736586,0.00163001,0.00036842,0.003854
 68,-0.00060458,-0.00122941,0.00365348,0.00082138,-0.00082901,0.0044674
 0,-0.00010367,-0.00013858,0.00056959,0.00081110,0.00049360,0.00081051,
 0.00059452,-0.00215984,0.00061233,-0.00096845,-0.00006993,-0.00028355,
 -0.00023100,0.00010680,-0.00017326,0.00002351,-0.00011963,0.00106260,0
 .00063584,0.00108546,-0.00020780,0.00007125,-0.00009229,-0.00024405,0.
 00011683,0.00023397,0.00097725,-0.00110816,0.00051587,0.00598448,0.033
 09517,-0.00959018,-0.00419393,-0.01912879,0.00367059,0.00520944,-0.003
 46624,-0.00796287,0.00054887,-0.00657048,-0.00839671,-0.00194816,0.001
 62442,0.00059070,-0.00135816,0.00041244,0.00010354,0.00019936,0.001635
 91,0.00025276,-0.00049740,0.00254658,0.00044811,0.18944880,-0.31994499
 ,1.06719278,-0.00485975,-0.00012441,0.00153224,0.02668334,0.00564981,-
 0.01824261,0.00332416,-0.00128049,0.00396553,-0.00027494,0.00007158,0.
 00000591,-0.00027124,-0.00004551,-0.00003265,-0.00140944,0.00008081,-0
 .00058610,-0.00024519,0.00001685,-0.00000289,-0.00011208,-0.00014621,0
 .00050289,-0.00007581,-0.00005640,0.00011223,0.00001051,0.00003738,0.0
 0002370,0.00000916,-0.00001732,-0.00005330,-0.00008833,-0.00002850,-0.
 00015736,0.00001911,0.00004126,-0.00002747,0.00000758,-0.00004384,-0.0
 0000639,-0.00008459,0.00010731,-0.00011075,-0.00304213,-0.00208449,-0.
 00060727,0.00098119,0.00153151,0.00020596,-0.00159797,0.00015255,0.001
 31744,-0.00027270,0.00115071,-0.00145456,-0.00002817,0.00023553,-0.000
 22549,0.00025651,-0.00040885,-0.00010569,0.00004054,-0.00009061,-0.000
 04757,0.00005651,-0.00044015,-0.00024408,-0.08074405,0.06293486,-0.188
 79132,0.06171779,0.00011954,-0.00513235,-0.00076322,0.00445903,0.01861
 983,0.02622790,-0.00374076,-0.00101081,-0.00024491,0.00075080,-0.00005
 812,-0.00026893,0.00086415,0.00018498,-0.00015163,0.00082148,-0.000133
 88,0.00000401,0.00001884,0.00017957,0.00009091,0.00012612,0.00009737,-
 0.00047635,0.00013108,-0.00019565,-0.00005220,-0.00003088,0.00001522,0
 .00005560,-0.00009019,-0.00003531,-0.00007228,0.00022005,0.00015616,0.
 00017255,-0.00007791,0.00007757,-0.00006842,-0.00005823,0.00006720,0.0
 0004141,0.00022430,-0.00023753,0.00008560,0.00150622,0.00821747,-0.005
 95740,-0.00114471,-0.00476496,0.00158256,0.00184908,-0.00060493,0.0008
 8342,-0.00067169,-0.00217839,-0.00093308,-0.00043496,0.00030134,0.0004
 8343,-0.00017317,0.00025006,0.00009026,-0.00029089,0.00058349,0.000121
 43,0.00018356,0.00023909,0.00053251,0.06268251,-0.14719727,0.31526056,
 -0.06724339,0.13255982,0.00105735,-0.00129075,-0.00290400,-0.01612752,
 0.02922940,-0.05037907,0.01080552,-0.00043356,-0.00056270,-0.00242476,
 0.00029129,0.00082114,-0.00239252,-0.00047788,0.00056960,-0.00283263,0
 .00008437,-0.00020384,-0.00045163,-0.00060295,-0.00026286,-0.00036468,
 -0.00044387,0.00149065,-0.00029411,0.00058761,0.00011096,0.00013610,0.
 00007518,-0.00007378,0.00026213,0.00010229,0.00024971,-0.00067941,-0.0
 0044749,-0.00058508,0.00027621,-0.00024692,0.00016669,0.00012988,-0.00
 004586,-0.00012622,-0.00064364,0.00069120,-0.00022324,-0.00387418,-0.0
 1776126,0.00415029,0.00289651,0.01108834,-0.00126144,-0.00411955,0.001
 69141,0.00430586,0.00064334,0.00441615,0.00442229,0.00144536,-0.001432
 56,-0.00057368,0.00069876,-0.00038931,0.00019519,0.00008440,-0.0009186
 7,0.00011220,0.00054939,-0.00196585,-0.00050765,-0.18780992,0.31484346
 ,-0.98912732,0.20302960,-0.33664375,1.03019630\\0.00000024,0.00000073,
 0.00003018,0.00002940,0.00002360,-0.00000241,0.00000700,-0.00000023,-0
 .00000836,-0.00000673,-0.00000161,0.00000074,-0.00000257,0.00000462,-0
 .00000141,-0.00001406,0.00000284,0.00000737,0.00000253,0.00000376,0.00
 000278,0.00000206,0.00000522,0.00000540,0.00000587,0.00000304,0.000001
 38,-0.00000422,0.00000168,0.00000170,-0.00000659,0.00000052,0.00000170
 ,-0.00000197,0.00000495,0.00000646,0.00000072,0.00000367,0.00000150,0.
 00000413,0.00000301,-0.00000049,0.00000237,0.00000159,0.00000289,-0.00
 001340,-0.00002833,-0.00001412,0.00001043,0.00000442,-0.00000650,0.000
 01175,-0.00000266,-0.00000806,-0.00000688,-0.00003609,-0.00000990,-0.0
 0000769,-0.00000340,0.00000403,-0.00000838,0.00000229,-0.00000183,-0.0
 0000824,0.00000453,0.00000093,-0.00000077,0.00000370,0.00000771,-0.000
 00084,0.00000133,-0.00001604,0.00000585,-0.00000317,-0.00000563\\\@


 KEEP CLOSE TO NATURES HEART, YOURSELF;
 AND BREAK CLEAR AWAY, ONCE IN A WHILE, AND
 CLIMB A MOUNTAIN OR SPEND A WEEK IN THE
 WOODS.  WASH YOUR SPIRIT CLEAN...
                                         -- JOHN MUIR
 Job cpu time:       0 days 15 hours  2 minutes 33.1 seconds.
 Elapsed time:       0 days  1 hours 15 minutes 28.7 seconds.
 File lengths (MBytes):  RWF=    556 Int=      0 D2E=      0 Chk=     26 Scr=      1
 Normal termination of Gaussian 16 at Tue Oct  4 18:36:00 2022.
