 Entering Gaussian System, Link 0=g16
 Initial command:
 /mnt/data/applications/G16/g16/l1.exe "/scratch/Gau-18159.inp" -scrdir="/scratch/"
 Entering Link 1 = /mnt/data/applications/G16/g16/l1.exe PID=     18160.
  
 Copyright (c) 1988,1990,1992,1993,1995,1998,2003,2009,2016,
            Gaussian, Inc.  All Rights Reserved.
  
 This is part of the Gaussian(R) 16 program.  It is based on
 the Gaussian(R) 09 system (copyright 2009, Gaussian, Inc.),
 the Gaussian(R) 03 system (copyright 2003, Gaussian, Inc.),
 the Gaussian(R) 98 system (copyright 1998, Gaussian, Inc.),
 the Gaussian(R) 94 system (copyright 1995, Gaussian, Inc.),
 the Gaussian 92(TM) system (copyright 1992, Gaussian, Inc.),
 the Gaussian 90(TM) system (copyright 1990, Gaussian, Inc.),
 the Gaussian 88(TM) system (copyright 1988, Gaussian, Inc.),
 the Gaussian 86(TM) system (copyright 1986, Carnegie Mellon
 University), and the Gaussian 82(TM) system (copyright 1983,
 Carnegie Mellon University). Gaussian is a federally registered
 trademark of Gaussian, Inc.
  
 This software contains proprietary and confidential information,
 including trade secrets, belonging to Gaussian, Inc.
  
 This software is provided under written license and may be
 used, copied, transmitted, or stored only in accord with that
 written license.
  
 The following legend is applicable only to US Government
 contracts under FAR:
  
                    RESTRICTED RIGHTS LEGEND
  
 Use, reproduction and disclosure by the US Government is
 subject to restrictions as set forth in subparagraphs (a)
 and (c) of the Commercial Computer Software - Restricted
 Rights clause in FAR 52.227-19.
  
 Gaussian, Inc.
 340 Quinnipiac St., Bldg. 40, Wallingford CT 06492
  
  
 ---------------------------------------------------------------
 Warning -- This program may not be used in any manner that
 competes with the business of Gaussian, Inc. or will provide
 assistance to any competitor of Gaussian, Inc.  The licensee
 of this program is prohibited from giving any competitor of
 Gaussian, Inc. access to this program.  By using this program,
 the user acknowledges that Gaussian, Inc. is engaged in the
 business of creating and licensing software in the field of
 computational chemistry and represents and warrants to the
 licensee that it is not a competitor of Gaussian, Inc. and that
 it will not use this program in any manner prohibited above.
 ---------------------------------------------------------------
  

 Cite this work as:
 Gaussian 16, Revision A.03,
 M. J. Frisch, G. W. Trucks, H. B. Schlegel, G. E. Scuseria, 
 M. A. Robb, J. R. Cheeseman, G. Scalmani, V. Barone, 
 G. A. Petersson, H. Nakatsuji, X. Li, M. Caricato, A. V. Marenich, 
 J. Bloino, B. G. Janesko, R. Gomperts, B. Mennucci, H. P. Hratchian, 
 J. V. Ortiz, A. F. Izmaylov, J. L. Sonnenberg, D. Williams-Young, 
 F. Ding, F. Lipparini, F. Egidi, J. Goings, B. Peng, A. Petrone, 
 T. Henderson, D. Ranasinghe, V. G. Zakrzewski, J. Gao, N. Rega, 
 G. Zheng, W. Liang, M. Hada, M. Ehara, K. Toyota, R. Fukuda, 
 J. Hasegawa, M. Ishida, T. Nakajima, Y. Honda, O. Kitao, H. Nakai, 
 T. Vreven, K. Throssell, J. A. Montgomery, Jr., J. E. Peralta, 
 F. Ogliaro, M. J. Bearpark, J. J. Heyd, E. N. Brothers, K. N. Kudin, 
 V. N. Staroverov, T. A. Keith, R. Kobayashi, J. Normand, 
 K. Raghavachari, A. P. Rendell, J. C. Burant, S. S. Iyengar, 
 J. Tomasi, M. Cossi, J. M. Millam, M. Klene, C. Adamo, R. Cammi, 
 J. W. Ochterski, R. L. Martin, K. Morokuma, O. Farkas, 
 J. B. Foresman, and D. J. Fox, Gaussian, Inc., Wallingford CT, 2016.
 
 ******************************************
 Gaussian 16:  AM64L-G16RevA.03 25-Dec-2016
                 5-Oct-2022 
 ******************************************
 %nprocshared=12
 Will use up to   12 processors via shared memory.
 %mem=22GB
 %chk=PMe3.chk
 -----------------------------------------------------------------
 #p opt=(maxstep=5) freq def2tzvp WB97XD scrf(smd,solvent=toluene)
 -----------------------------------------------------------------
 1/8=5,18=20,19=15,26=3,38=1/1,3;
 2/9=110,12=2,17=6,18=5,40=1/2;
 3/5=44,7=101,11=2,25=1,30=1,70=32201,71=1,72=13,74=-58/1,2,3;
 4//1;
 5/5=2,38=5,53=13/2;
 6/7=2,8=2,9=2,10=2,28=1/1;
 7//1,2,3,16;
 1/8=5,18=20,19=15,26=3/3(2);
 2/9=110/2;
 99//99;
 2/9=110/2;
 3/5=44,7=101,11=2,25=1,30=1,70=32205,71=1,72=13,74=-58/1,2,3;
 4/5=5,16=3,69=1/1;
 5/5=2,38=5,53=13/2;
 7//1,2,3,16;
 1/8=5,18=20,19=15,26=3/3(-5);
 2/9=110/2;
 6/7=2,8=2,9=2,10=2,19=2,28=1/1;
 99/9=1/99;
 Leave Link    1 at Wed Oct  5 09:38:38 2022, MaxMem=  2952790016 cpu:               0.9 elap:               0.1
 (Enter /mnt/data/applications/G16/g16/l101.exe)
 ------------------
 trimethylphosphine
 ------------------
 Symbolic Z-matrix:
 Charge =  0 Multiplicity = 1
 P                     1.63266  -0.17232  -0.00003 
 C                     2.38505  -1.00474  -1.42817 
 C                     2.38445  -0.99977   1.43131 
 C                     2.44171   1.45727  -0.00271 
 H                     2.13116   2.01503  -0.88762 
 H                     3.52949   1.36435  -0.0027 
 H                     2.13143   2.01778   0.88056 
 H                     2.04538  -0.52569  -2.34725 
 H                     2.06277  -2.0457   -1.44691 
 H                     3.47503  -0.95871  -1.37993 
 H                     2.06205  -2.04063   1.4536 
 H                     2.0445   -0.51742   2.34857 
 H                     3.47445  -0.95404   1.38329 
 
 ITRead=  0  0  0  0  0  0  0  0  0  0  0  0  0
 MicOpt= -1 -1 -1 -1 -1 -1 -1 -1 -1 -1 -1 -1 -1
 NAtoms=     13 NQM=       13 NQMF=       0 NMMI=      0 NMMIF=      0
                NMic=       0 NMicF=      0.
                    Isotopes and Nuclear Properties:
 (Nuclear quadrupole moments (NQMom) in fm**2, nuclear magnetic moments (NMagM)
  in nuclear magnetons)

  Atom         1           2           3           4           5           6           7           8           9          10
 IAtWgt=          31          12          12          12           1           1           1           1           1           1
 AtmWgt=  30.9737634  12.0000000  12.0000000  12.0000000   1.0078250   1.0078250   1.0078250   1.0078250   1.0078250   1.0078250
 NucSpn=           1           0           0           0           1           1           1           1           1           1
 AtZEff=  -0.0000000  -0.0000000  -0.0000000  -0.0000000  -0.0000000  -0.0000000  -0.0000000  -0.0000000  -0.0000000  -0.0000000
 NQMom=    0.0000000   0.0000000   0.0000000   0.0000000   0.0000000   0.0000000   0.0000000   0.0000000   0.0000000   0.0000000
 NMagM=    1.1316000   0.0000000   0.0000000   0.0000000   2.7928460   2.7928460   2.7928460   2.7928460   2.7928460   2.7928460
 AtZNuc=  15.0000000   6.0000000   6.0000000   6.0000000   1.0000000   1.0000000   1.0000000   1.0000000   1.0000000   1.0000000

  Atom        11          12          13
 IAtWgt=           1           1           1
 AtmWgt=   1.0078250   1.0078250   1.0078250
 NucSpn=           1           1           1
 AtZEff=  -0.0000000  -0.0000000  -0.0000000
 NQMom=    0.0000000   0.0000000   0.0000000
 NMagM=    2.7928460   2.7928460   2.7928460
 AtZNuc=   1.0000000   1.0000000   1.0000000
 Leave Link  101 at Wed Oct  5 09:38:39 2022, MaxMem=  2952790016 cpu:               5.0 elap:               0.4
 (Enter /mnt/data/applications/G16/g16/l103.exe)

 GradGradGradGradGradGradGradGradGradGradGradGradGradGradGradGradGradGrad
 Berny optimization.
 Initialization pass.
                           ----------------------------
                           !    Initial Parameters    !
                           ! (Angstroms and Degrees)  !
 --------------------------                            --------------------------
 ! Name  Definition              Value          Derivative Info.                !
 --------------------------------------------------------------------------------
 ! R1    R(1,2)                  1.8162         estimate D2E/DX2                !
 ! R2    R(1,3)                  1.8162         estimate D2E/DX2                !
 ! R3    R(1,4)                  1.8194         estimate D2E/DX2                !
 ! R4    R(2,8)                  1.0907         estimate D2E/DX2                !
 ! R5    R(2,9)                  1.0899         estimate D2E/DX2                !
 ! R6    R(2,10)                 1.092          estimate D2E/DX2                !
 ! R7    R(3,11)                 1.0899         estimate D2E/DX2                !
 ! R8    R(3,12)                 1.0907         estimate D2E/DX2                !
 ! R9    R(3,13)                 1.092          estimate D2E/DX2                !
 ! R10   R(4,5)                  1.0912         estimate D2E/DX2                !
 ! R11   R(4,6)                  1.0917         estimate D2E/DX2                !
 ! R12   R(4,7)                  1.0912         estimate D2E/DX2                !
 ! A1    A(2,1,3)              103.8519         estimate D2E/DX2                !
 ! A2    A(2,1,4)              103.0112         estimate D2E/DX2                !
 ! A3    A(3,1,4)              103.0118         estimate D2E/DX2                !
 ! A4    A(1,2,8)              109.4078         estimate D2E/DX2                !
 ! A5    A(1,2,9)              109.1946         estimate D2E/DX2                !
 ! A6    A(1,2,10)             111.0659         estimate D2E/DX2                !
 ! A7    A(8,2,9)              108.2361         estimate D2E/DX2                !
 ! A8    A(8,2,10)             109.2417         estimate D2E/DX2                !
 ! A9    A(9,2,10)             109.6445         estimate D2E/DX2                !
 ! A10   A(1,3,11)             109.1947         estimate D2E/DX2                !
 ! A11   A(1,3,12)             109.4075         estimate D2E/DX2                !
 ! A12   A(1,3,13)             111.0656         estimate D2E/DX2                !
 ! A13   A(11,3,12)            108.2372         estimate D2E/DX2                !
 ! A14   A(11,3,13)            109.6428         estimate D2E/DX2                !
 ! A15   A(12,3,13)            109.243          estimate D2E/DX2                !
 ! A16   A(1,4,5)              109.4192         estimate D2E/DX2                !
 ! A17   A(1,4,6)              111.5212         estimate D2E/DX2                !
 ! A18   A(1,4,7)              109.4181         estimate D2E/DX2                !
 ! A19   A(5,4,6)              109.092          estimate D2E/DX2                !
 ! A20   A(5,4,7)              108.2379         estimate D2E/DX2                !
 ! A21   A(6,4,7)              109.0897         estimate D2E/DX2                !
 ! D1    D(3,1,2,8)           -176.0468         estimate D2E/DX2                !
 ! D2    D(3,1,2,9)             65.6611         estimate D2E/DX2                !
 ! D3    D(3,1,2,10)           -55.374          estimate D2E/DX2                !
 ! D4    D(4,1,2,8)            -68.8901         estimate D2E/DX2                !
 ! D5    D(4,1,2,9)            172.8178         estimate D2E/DX2                !
 ! D6    D(4,1,2,10)            51.7827         estimate D2E/DX2                !
 ! D7    D(2,1,3,11)           -65.668          estimate D2E/DX2                !
 ! D8    D(2,1,3,12)           176.0387         estimate D2E/DX2                !
 ! D9    D(2,1,3,13)            55.3647         estimate D2E/DX2                !
 ! D10   D(4,1,3,11)          -172.8242         estimate D2E/DX2                !
 ! D11   D(4,1,3,12)            68.8825         estimate D2E/DX2                !
 ! D12   D(4,1,3,13)           -51.7916         estimate D2E/DX2                !
 ! D13   D(2,1,4,5)             66.91           estimate D2E/DX2                !
 ! D14   D(2,1,4,6)            -53.8754         estimate D2E/DX2                !
 ! D15   D(2,1,4,7)           -174.6572         estimate D2E/DX2                !
 ! D16   D(3,1,4,5)            174.704          estimate D2E/DX2                !
 ! D17   D(3,1,4,6)             53.9186         estimate D2E/DX2                !
 ! D18   D(3,1,4,7)            -66.8632         estimate D2E/DX2                !
 --------------------------------------------------------------------------------
 Trust Radius=5.00D-02 FncErr=1.00D-07 GrdErr=1.00D-06 EigMax=2.50D+02 EigMin=1.00D-04
 Number of steps in this run=     61 maximum allowed number of steps=    100.
 GradGradGradGradGradGradGradGradGradGradGradGradGradGradGradGradGradGrad

 Leave Link  103 at Wed Oct  5 09:38:39 2022, MaxMem=  2952790016 cpu:               0.1 elap:               0.0
 (Enter /mnt/data/applications/G16/g16/l202.exe)
                          Input orientation:                          
 ---------------------------------------------------------------------
 Center     Atomic      Atomic             Coordinates (Angstroms)
 Number     Number       Type             X           Y           Z
 ---------------------------------------------------------------------
      1         15           0        1.632658   -0.172324   -0.000032
      2          6           0        2.385054   -1.004743   -1.428167
      3          6           0        2.384447   -0.999766    1.431307
      4          6           0        2.441714    1.457267   -0.002708
      5          1           0        2.131161    2.015031   -0.887620
      6          1           0        3.529494    1.364353   -0.002702
      7          1           0        2.131427    2.017782    0.880561
      8          1           0        2.045382   -0.525685   -2.347252
      9          1           0        2.062768   -2.045705   -1.446907
     10          1           0        3.475033   -0.958706   -1.379932
     11          1           0        2.062053   -2.040630    1.453603
     12          1           0        2.044496   -0.517418    2.348566
     13          1           0        3.474449   -0.954036    1.383285
 ---------------------------------------------------------------------
                    Distance matrix (angstroms):
                    1          2          3          4          5
     1  P    0.000000
     2  C    1.816202   0.000000
     3  C    1.816199   2.859478   0.000000
     4  C    1.819381   2.845459   2.845468   0.000000
     5  H    2.412642   3.078261   3.811899   1.091152   0.000000
     6  H    2.441182   2.992375   2.992753   1.091741   1.778144
     7  H    2.412629   3.811851   3.077814   1.091155   1.768183
     8  H    2.409283   1.090684   3.823248   3.096137   2.931403
     9  H    2.405826   1.089872   3.079218   3.807903   4.099641
    10  H    2.432461   1.092017   3.015647   2.966719   3.300223
    11  H    2.405827   3.079284   1.089877   3.807922   4.683427
    12  H    2.409276   3.823242   1.090683   3.096070   4.110196
    13  H    2.432454   3.015562   1.092017   2.966800   3.972001
                    6          7          8          9         10
     6  H    0.000000
     7  H    1.778121   0.000000
     8  H    3.357342   4.110402   0.000000
     9  H    3.983153   4.683348   1.766744   0.000000
    10  H    2.701172   3.971723   1.779640   1.783408   0.000000
    11  H    3.983480   4.099256   4.091679   2.900515   3.346041
    12  H    3.357788   2.930842   4.695825   4.091651   4.017819
    13  H    2.701651   3.299718   4.017788   3.345829   2.763221
                   11         12         13
    11  H    0.000000
    12  H    1.766760   0.000000
    13  H    1.783394   1.779654   0.000000
 Stoichiometry    C3H9P
 Framework group  C1[X(C3H9P)]
 Deg. of freedom    33
 Full point group                 C1      NOp   1
 Largest Abelian subgroup         C1      NOp   1
 Largest concise Abelian subgroup C1      NOp   1
                         Standard orientation:                         
 ---------------------------------------------------------------------
 Center     Atomic      Atomic             Coordinates (Angstroms)
 Number     Number       Type             X           Y           Z
 ---------------------------------------------------------------------
      1         15           0       -0.000004   -0.007058   -0.527179
      2          6           0        1.429632   -0.817468    0.246104
      3          6           0       -1.429846   -0.817095    0.246106
      4          6           0        0.000223    1.642894    0.239504
      5          1           0        0.884168    2.193868   -0.085583
      6          1           0        0.000602    1.578116    1.329322
      7          1           0       -0.884015    2.193788   -0.084933
      8          1           0        2.347871   -0.345872   -0.106069
      9          1           0        1.449979   -1.866378   -0.049185
     10          1           0        1.381559   -0.743363    1.334542
     11          1           0       -1.450536   -1.865976   -0.049283
     12          1           0       -2.347954   -0.345163   -0.105957
     13          1           0       -1.381662   -0.743142    1.334550
 ---------------------------------------------------------------------
 Rotational constants (GHZ):           5.9485207           5.8911454           3.6400054
 Leave Link  202 at Wed Oct  5 09:38:39 2022, MaxMem=  2952790016 cpu:               0.1 elap:               0.0
 (Enter /mnt/data/applications/G16/g16/l301.exe)
 Standard basis: def2TZVP (5D, 7F)
 Ernie: Thresh=  0.10000D-02 Tol=  0.10000D-05 Strict=F.
 There are   204 symmetry adapted cartesian basis functions of A   symmetry.
 There are   184 symmetry adapted basis functions of A   symmetry.
   184 basis functions,   294 primitive gaussians,   204 cartesian basis functions
    21 alpha electrons       21 beta electrons
       nuclear repulsion energy       178.6206169774 Hartrees.
 IExCor= 4639 DFT=T Ex+Corr=wB97XD ExCW=0 ScaHFX=  1.000000
 ScaDFX=  1.000000  1.000000  1.000000  1.000000 ScalE2=  1.000000  1.000000
 IRadAn=      5 IRanWt=     -1 IRanGd=            0 ICorTp=0 IEmpDi=121
 HFx  wShort=  0.000000 wLong=  0.200000 cFull=  0.222036 cShort=  0.000000 cLong=  0.777964
 DFx  wShort=  0.000000 wLong=  0.200000 cFull=  0.000000 cShort=  0.000000 cLong=  1.000000
 NAtoms=   13 NActive=   13 NUniq=   13 SFac= 1.00D+00 NAtFMM=   60 NAOKFM=F Big=F
 Integral buffers will be    131072 words long.
 Raffenetti 2 integral format.
 Two-electron integral symmetry is turned on.
 R6Disp:  Grimme-D2 Dispersion energy=       -0.0050965111 Hartrees.
 Nuclear repulsion after empirical dispersion term =      178.6155204663 Hartrees.
 ------------------------------------------------------------------------------
 Polarizable Continuum Model (PCM)
 =================================
 Model                : PCM.
 Atomic radii         : SMD-Coulomb.
 Polarization charges : Total charges.
 Charge compensation  : None.
 Solution method      : On-the-fly selection.
 Cavity type          : VdW (van der Waals Surface) (Alpha=1.000).
 Cavity algorithm     : GePol (No added spheres)
                        Default sphere list used, NSphG=   13.
                        Lebedev-Laikov grids with approx.  5.0 points / Ang**2.
                        Smoothing algorithm: York/Karplus (Gamma=1.0000).
                        Polarization charges: spherical gaussians, with
                                              point-specific exponents (IZeta= 3).
                        Self-potential: point-specific (ISelfS= 7).
                        Self-field    : sphere-specific E.n sum rule (ISelfD= 2).
 1st derivatives      : Analytical E(r).r(x)/FMM algorithm (CHGder, D1EAlg=3).
                        Cavity 1st derivative terms included.
 Solvent              : Toluene, Eps=   2.374100 Eps(inf)=   2.238315
 ------------------------------------------------------------------------------
 Spheres list:
 ISph  on   Nord     Re0    Alpha      Xe            Ye            Ze
    1   P      1    2.1200  1.000     -0.000004     -0.007058     -0.527179
    2   C      2    1.8500  1.000      1.429632     -0.817468      0.246104
    3   C      3    1.8500  1.000     -1.429846     -0.817095      0.246106
    4   C      4    1.8500  1.000      0.000223      1.642894      0.239504
    5   H      5    1.2000  1.000      0.884168      2.193868     -0.085583
    6   H      6    1.2000  1.000      0.000602      1.578116      1.329322
    7   H      7    1.2000  1.000     -0.884015      2.193788     -0.084933
    8   H      8    1.2000  1.000      2.347871     -0.345872     -0.106069
    9   H      9    1.2000  1.000      1.449979     -1.866378     -0.049185
   10   H     10    1.2000  1.000      1.381559     -0.743363      1.334542
   11   H     11    1.2000  1.000     -1.450536     -1.865976     -0.049283
   12   H     12    1.2000  1.000     -2.347954     -0.345163     -0.105957
   13   H     13    1.2000  1.000     -1.381662     -0.743142      1.334550
 ------------------------------------------------------------------------------
 GePol: Number of generator spheres                  =      13
 GePol: Total number of spheres                      =      13
 GePol: Number of exposed spheres                    =      13 (100.00%)
 GePol: Number of points                             =    1005
 GePol: Average weight of points                     =       0.12
 GePol: Minimum weight of points                     =   0.41D-07
 GePol: Maximum weight of points                     =    0.20615
 GePol: Number of points with low weight             =      62
 GePol: Fraction of low-weight points (<1% of avg)   =       6.17%
 GePol: Cavity surface area                          =    120.304 Ang**2
 GePol: Cavity volume                                =     94.933 Ang**3
 ------------------------------------------------------------------------------
 Atomic radii for non-electrostatic terms: SMD-CDS.
 ------------------------------------------------------------------------------
 PCM non-electrostatic energy =         0.0004158808 Hartrees.
 Nuclear repulsion after PCM non-electrostatic terms =      178.6159363471 Hartrees.
 Leave Link  301 at Wed Oct  5 09:38:39 2022, MaxMem=  2952790016 cpu:               1.5 elap:               0.1
 (Enter /mnt/data/applications/G16/g16/l302.exe)
 NPDir=0 NMtPBC=     1 NCelOv=     1 NCel=       1 NClECP=     1 NCelD=      1
         NCelK=      1 NCelE2=     1 NClLst=     1 CellRange=     0.0.
 One-electron integrals computed using PRISM.
 One-electron integral symmetry used in STVInt
   1 Symmetry operations used in ECPInt.
 ECPInt:  NShTT=    3403 NPrTT=   10140 LenC2=    3392 LenP2D=    8548.
 LDataN:  DoStor=T MaxTD1= 6 Len=  172
 NBasis=   184 RedAO= T EigKep=  9.84D-04  NBF=   184
 NBsUse=   184 1.00D-06 EigRej= -1.00D+00 NBFU=   184
 Precomputing XC quadrature grid using
 IXCGrd= 4 IRadAn=           5 IRanWt=          -1 IRanGd=           0 AccXCQ= 0.00D+00.
 Generated NRdTot=       0 NPtTot=           0 NUsed=           0 NTot=          32
 NSgBfM=   203   203   203   203   203 MxSgAt=    13 MxSgA2=    13.
 Leave Link  302 at Wed Oct  5 09:38:39 2022, MaxMem=  2952790016 cpu:               6.0 elap:               0.5
 (Enter /mnt/data/applications/G16/g16/l303.exe)
 DipDrv:  MaxL=1.
 Leave Link  303 at Wed Oct  5 09:38:39 2022, MaxMem=  2952790016 cpu:               0.5 elap:               0.1
 (Enter /mnt/data/applications/G16/g16/l401.exe)
 ExpMin= 9.04D-02 ExpMax= 5.24D+04 ExpMxC= 1.79D+03 IAcc=3 IRadAn=         5 AccDes= 0.00D+00
 Harris functional with IExCor= 4639 and IRadAn=       5 diagonalized for initial guess.
 HarFok:  IExCor= 4639 AccDes= 0.00D+00 IRadAn=         5 IDoV= 1 UseB2=F ITyADJ=14
 ICtDFT=  3500011 ScaDFX=  1.000000  1.000000  1.000000  1.000000
 FoFCou: FMM=F IPFlag=           0 FMFlag=      100000 FMFlg1=           0
         NFxFlg=           0 DoJE=T BraDBF=F KetDBF=T FulRan=T
         wScrn=  0.000000 ICntrl=       500 IOpCl=  0 I1Cent=   200000004 NGrid=           0
         NMat0=    1 NMatS0=      1 NMatT0=    0 NMatD0=    1 NMtDS0=    0 NMtDT0=    0
 Petite list used in FoFCou.
 Harris En= -448.527074597733    
 JPrj=0 DoOrth=F DoCkMO=F.
 Leave Link  401 at Wed Oct  5 09:38:41 2022, MaxMem=  2952790016 cpu:              20.3 elap:               1.7
 (Enter /mnt/data/applications/G16/g16/l502.exe)
 Integral symmetry usage will be decided dynamically.
 Closed shell SCF:
 Using DIIS extrapolation, IDIIS=  1040.
 NGot=  2952790016 LenX=  2952702271 LenY=  2952660214
 Requested convergence on RMS density matrix=1.00D-08 within 128 cycles.
 Requested convergence on MAX density matrix=1.00D-06.
 Requested convergence on             energy=1.00D-06.
 No special actions if energy rises.
 Fock matrices will be formed incrementally for  20 cycles.

 Cycle   1  Pass 1  IDiag  1:
 FoFJK:  IHMeth= 1 ICntrl=       0 DoSepK=T KAlg= 0 I1Cent=           0 FoldK=F
 IRaf=         1 NMat=       1 IRICut=       1 DoRegI=T DoRafI=F ISym2E= 0 IDoP0=0 IntGTp=1.
 FoFCou: FMM=F IPFlag=           0 FMFlag=      100000 FMFlg1=           0
         NFxFlg=           0 DoJE=T BraDBF=F KetDBF=F FulRan=T
         wScrn=  0.000000 ICntrl=       500 IOpCl=  0 I1Cent=           0 NGrid=           0
         NMat0=    1 NMatS0=      1 NMatT0=    0 NMatD0=    1 NMtDS0=    0 NMtDT0=    0
 Symmetry not used in FoFCou.
 Inv3:  Mode=1 IEnd=     3030075.
 Iteration    1 A*A^-1 deviation from unit magnitude is 1.67D-15 for    109.
 Iteration    1 A*A^-1 deviation from orthogonality  is 1.97D-15 for    730    321.
 Iteration    1 A^-1*A deviation from unit magnitude is 1.67D-15 for    505.
 Iteration    1 A^-1*A deviation from orthogonality  is 1.49D-15 for    819    338.
 E= -460.966263066124    
 DIIS: error= 9.44D-02 at cycle   1 NSaved=   1.
 NSaved= 1 IEnMin= 1 EnMin= -460.966263066124     IErMin= 1 ErrMin= 9.44D-02
 ErrMax= 9.44D-02  0.00D+00 EMaxC= 1.00D-01 BMatC= 6.83D-01 BMatP= 6.83D-01
 IDIUse=3 WtCom= 5.59D-02 WtEn= 9.44D-01
 Coeff-Com:  0.100D+01
 Coeff-En:   0.100D+01
 Coeff:      0.100D+01
 Gap=     0.436 Goal=   None    Shift=    0.000
 GapD=    0.436 DampG=2.000 DampE=0.500 DampFc=1.0000 IDamp=-1.
 RMSDP=2.27D-03 MaxDP=1.53D-01              OVMax= 1.01D-01

 Cycle   2  Pass 1  IDiag  1:
 RMSU=  2.27D-03    CP:  9.96D-01
 E= -461.062731778387     Delta-E=       -0.096468712262 Rises=F Damp=F
 DIIS: error= 2.64D-02 at cycle   2 NSaved=   2.
 NSaved= 2 IEnMin= 2 EnMin= -461.062731778387     IErMin= 2 ErrMin= 2.64D-02
 ErrMax= 2.64D-02  0.00D+00 EMaxC= 1.00D-01 BMatC= 1.16D-01 BMatP= 6.83D-01
 IDIUse=3 WtCom= 7.36D-01 WtEn= 2.64D-01
 Coeff-Com:  0.268D+00 0.732D+00
 Coeff-En:   0.134D+00 0.866D+00
 Coeff:      0.232D+00 0.768D+00
 Gap=     0.412 Goal=   None    Shift=    0.000
 RMSDP=1.18D-03 MaxDP=9.70D-02 DE=-9.65D-02 OVMax= 6.21D-02

 Cycle   3  Pass 1  IDiag  1:
 RMSU=  6.62D-04    CP:  9.96D-01  5.70D-01
 E= -461.111268798425     Delta-E=       -0.048537020039 Rises=F Damp=F
 DIIS: error= 7.09D-03 at cycle   3 NSaved=   3.
 NSaved= 3 IEnMin= 3 EnMin= -461.111268798425     IErMin= 3 ErrMin= 7.09D-03
 ErrMax= 7.09D-03  0.00D+00 EMaxC= 1.00D-01 BMatC= 8.61D-03 BMatP= 1.16D-01
 IDIUse=3 WtCom= 9.29D-01 WtEn= 7.09D-02
 Coeff-Com:  0.402D-01 0.248D+00 0.711D+00
 Coeff-En:   0.000D+00 0.000D+00 0.100D+01
 Coeff:      0.374D-01 0.231D+00 0.732D+00
 Gap=     0.399 Goal=   None    Shift=    0.000
 RMSDP=3.45D-04 MaxDP=2.11D-02 DE=-4.85D-02 OVMax= 2.02D-02

 Cycle   4  Pass 1  IDiag  1:
 RMSU=  1.51D-04    CP:  9.95D-01  6.97D-01  8.30D-01
 E= -461.117730756720     Delta-E=       -0.006461958294 Rises=F Damp=F
 DIIS: error= 1.43D-03 at cycle   4 NSaved=   4.
 NSaved= 4 IEnMin= 4 EnMin= -461.117730756720     IErMin= 4 ErrMin= 1.43D-03
 ErrMax= 1.43D-03  0.00D+00 EMaxC= 1.00D-01 BMatC= 2.71D-04 BMatP= 8.61D-03
 IDIUse=3 WtCom= 9.86D-01 WtEn= 1.43D-02
 Coeff-Com:  0.251D-02 0.371D-01 0.225D+00 0.736D+00
 Coeff-En:   0.000D+00 0.000D+00 0.000D+00 0.100D+01
 Coeff:      0.247D-02 0.366D-01 0.222D+00 0.739D+00
 Gap=     0.398 Goal=   None    Shift=    0.000
 RMSDP=7.07D-05 MaxDP=3.19D-03 DE=-6.46D-03 OVMax= 3.03D-03

 Cycle   5  Pass 1  IDiag  1:
 RMSU=  3.60D-05    CP:  9.96D-01  6.88D-01  9.13D-01  1.09D+00
 E= -461.117981533268     Delta-E=       -0.000250776548 Rises=F Damp=F
 DIIS: error= 1.67D-04 at cycle   5 NSaved=   5.
 NSaved= 5 IEnMin= 5 EnMin= -461.117981533268     IErMin= 5 ErrMin= 1.67D-04
 ErrMax= 1.67D-04  0.00D+00 EMaxC= 1.00D-01 BMatC= 3.25D-06 BMatP= 2.71D-04
 IDIUse=3 WtCom= 9.98D-01 WtEn= 1.67D-03
 Coeff-Com: -0.730D-03-0.640D-02-0.878D-02 0.647D-01 0.951D+00
 Coeff-En:   0.000D+00 0.000D+00 0.000D+00 0.000D+00 0.100D+01
 Coeff:     -0.729D-03-0.639D-02-0.876D-02 0.646D-01 0.951D+00
 Gap=     0.397 Goal=   None    Shift=    0.000
 RMSDP=3.12D-05 MaxDP=2.11D-03 DE=-2.51D-04 OVMax= 8.16D-04

 Cycle   6  Pass 1  IDiag  1:
 RMSU=  1.40D-05    CP:  9.96D-01  6.88D-01  9.38D-01  1.23D+00  1.14D+00
 E= -461.117986581296     Delta-E=       -0.000005048028 Rises=F Damp=F
 DIIS: error= 7.21D-05 at cycle   6 NSaved=   6.
 NSaved= 6 IEnMin= 6 EnMin= -461.117986581296     IErMin= 6 ErrMin= 7.21D-05
 ErrMax= 7.21D-05  0.00D+00 EMaxC= 1.00D-01 BMatC= 4.46D-07 BMatP= 3.25D-06
 IDIUse=1 WtCom= 1.00D+00 WtEn= 0.00D+00
 Coeff-Com: -0.411D-03-0.432D-02-0.208D-01-0.540D-01 0.243D+00 0.837D+00
 Coeff:     -0.411D-03-0.432D-02-0.208D-01-0.540D-01 0.243D+00 0.837D+00
 Gap=     0.397 Goal=   None    Shift=    0.000
 RMSDP=1.19D-05 MaxDP=7.62D-04 DE=-5.05D-06 OVMax= 5.42D-04

 Cycle   7  Pass 1  IDiag  1:
 RMSU=  2.27D-06    CP:  9.96D-01  6.89D-01  9.46D-01  1.28D+00  1.31D+00
                    CP:  1.11D+00
 E= -461.117987342082     Delta-E=       -0.000000760786 Rises=F Damp=F
 DIIS: error= 9.94D-06 at cycle   7 NSaved=   7.
 NSaved= 7 IEnMin= 7 EnMin= -461.117987342082     IErMin= 7 ErrMin= 9.94D-06
 ErrMax= 9.94D-06  0.00D+00 EMaxC= 1.00D-01 BMatC= 1.29D-08 BMatP= 4.46D-07
 IDIUse=1 WtCom= 1.00D+00 WtEn= 0.00D+00
 Coeff-Com:  0.547D-04 0.541D-03 0.177D-02-0.248D-02-0.693D-01-0.285D-01
 Coeff-Com:  0.110D+01
 Coeff:      0.547D-04 0.541D-03 0.177D-02-0.248D-02-0.693D-01-0.285D-01
 Coeff:      0.110D+01
 Gap=     0.397 Goal=   None    Shift=    0.000
 RMSDP=4.48D-06 MaxDP=2.66D-04 DE=-7.61D-07 OVMax= 1.74D-04

 Cycle   8  Pass 1  IDiag  1:
 RMSU=  6.70D-07    CP:  9.96D-01  6.90D-01  9.49D-01  1.30D+00  1.36D+00
                    CP:  1.24D+00  1.51D+00
 E= -461.117987383772     Delta-E=       -0.000000041690 Rises=F Damp=F
 DIIS: error= 2.42D-06 at cycle   8 NSaved=   8.
 NSaved= 8 IEnMin= 8 EnMin= -461.117987383772     IErMin= 8 ErrMin= 2.42D-06
 ErrMax= 2.42D-06  0.00D+00 EMaxC= 1.00D-01 BMatC= 6.65D-10 BMatP= 1.29D-08
 IDIUse=1 WtCom= 1.00D+00 WtEn= 0.00D+00
 Coeff-Com:  0.164D-04 0.167D-03 0.770D-03 0.164D-02-0.131D-01-0.247D-01
 Coeff-Com:  0.661D-01 0.969D+00
 Coeff:      0.164D-04 0.167D-03 0.770D-03 0.164D-02-0.131D-01-0.247D-01
 Coeff:      0.661D-01 0.969D+00
 Gap=     0.397 Goal=   None    Shift=    0.000
 RMSDP=8.21D-07 MaxDP=4.11D-05 DE=-4.17D-08 OVMax= 3.93D-05

 Cycle   9  Pass 1  IDiag  1:
 RMSU=  1.64D-07    CP:  9.96D-01  6.90D-01  9.50D-01  1.31D+00  1.37D+00
                    CP:  1.27D+00  1.68D+00  1.31D+00
 E= -461.117987385864     Delta-E=       -0.000000002092 Rises=F Damp=F
 DIIS: error= 9.51D-07 at cycle   9 NSaved=   9.
 NSaved= 9 IEnMin= 9 EnMin= -461.117987385864     IErMin= 9 ErrMin= 9.51D-07
 ErrMax= 9.51D-07  0.00D+00 EMaxC= 1.00D-01 BMatC= 1.79D-10 BMatP= 6.65D-10
 IDIUse=1 WtCom= 1.00D+00 WtEn= 0.00D+00
 Coeff-Com: -0.248D-05-0.195D-04 0.130D-04 0.979D-03 0.538D-02-0.421D-02
 Coeff-Com: -0.138D+00 0.314D+00 0.821D+00
 Coeff:     -0.248D-05-0.195D-04 0.130D-04 0.979D-03 0.538D-02-0.421D-02
 Coeff:     -0.138D+00 0.314D+00 0.821D+00
 Gap=     0.397 Goal=   None    Shift=    0.000
 RMSDP=3.14D-07 MaxDP=1.57D-05 DE=-2.09D-09 OVMax= 1.59D-05

 Cycle  10  Pass 1  IDiag  1:
 RMSU=  6.79D-08    CP:  9.96D-01  6.90D-01  9.50D-01  1.31D+00  1.37D+00
                    CP:  1.27D+00  1.74D+00  1.49D+00  1.22D+00
 E= -461.117987386228     Delta-E=       -0.000000000364 Rises=F Damp=F
 DIIS: error= 1.98D-07 at cycle  10 NSaved=  10.
 NSaved=10 IEnMin=10 EnMin= -461.117987386228     IErMin=10 ErrMin= 1.98D-07
 ErrMax= 1.98D-07  0.00D+00 EMaxC= 1.00D-01 BMatC= 1.07D-11 BMatP= 1.79D-10
 IDIUse=1 WtCom= 1.00D+00 WtEn= 0.00D+00
 Coeff-Com: -0.186D-05-0.170D-04-0.556D-04 0.101D-03 0.225D-02 0.788D-03
 Coeff-Com: -0.349D-01-0.215D-01 0.188D+00 0.865D+00
 Coeff:     -0.186D-05-0.170D-04-0.556D-04 0.101D-03 0.225D-02 0.788D-03
 Coeff:     -0.349D-01-0.215D-01 0.188D+00 0.865D+00
 Gap=     0.397 Goal=   None    Shift=    0.000
 RMSDP=7.77D-08 MaxDP=3.49D-06 DE=-3.64D-10 OVMax= 4.10D-06

 Cycle  11  Pass 1  IDiag  1:
 RMSU=  1.38D-08    CP:  9.96D-01  6.90D-01  9.50D-01  1.31D+00  1.37D+00
                    CP:  1.28D+00  1.76D+00  1.54D+00  1.41D+00  1.21D+00
 E= -461.117987386250     Delta-E=       -0.000000000023 Rises=F Damp=F
 DIIS: error= 5.83D-08 at cycle  11 NSaved=  11.
 NSaved=11 IEnMin=11 EnMin= -461.117987386250     IErMin=11 ErrMin= 5.83D-08
 ErrMax= 5.83D-08  0.00D+00 EMaxC= 1.00D-01 BMatC= 4.53D-13 BMatP= 1.07D-11
 IDIUse=1 WtCom= 1.00D+00 WtEn= 0.00D+00
 Coeff-Com:  0.222D-06 0.169D-05 0.629D-06-0.654D-04-0.393D-03 0.224D-03
 Coeff-Com:  0.105D-01-0.288D-01-0.556D-01 0.642D-01 0.101D+01
 Coeff:      0.222D-06 0.169D-05 0.629D-06-0.654D-04-0.393D-03 0.224D-03
 Coeff:      0.105D-01-0.288D-01-0.556D-01 0.642D-01 0.101D+01
 Gap=     0.397 Goal=   None    Shift=    0.000
 RMSDP=2.00D-08 MaxDP=5.79D-07 DE=-2.25D-11 OVMax= 9.83D-07

 Cycle  12  Pass 1  IDiag  1:
 RMSU=  4.09D-09    CP:  9.96D-01  6.90D-01  9.50D-01  1.31D+00  1.37D+00
                    CP:  1.28D+00  1.76D+00  1.55D+00  1.47D+00  1.34D+00
                    CP:  1.29D+00
 E= -461.117987386249     Delta-E=        0.000000000001 Rises=F Damp=F
 DIIS: error= 1.33D-08 at cycle  12 NSaved=  12.
 NSaved=12 IEnMin=11 EnMin= -461.117987386250     IErMin=12 ErrMin= 1.33D-08
 ErrMax= 1.33D-08  0.00D+00 EMaxC= 1.00D-01 BMatC= 1.11D-14 BMatP= 4.53D-13
 IDIUse=1 WtCom= 1.00D+00 WtEn= 0.00D+00
 Coeff-Com: -0.163D-07 0.999D-07 0.739D-06 0.884D-05-0.517D-05-0.308D-04
 Coeff-Com: -0.693D-03 0.498D-02 0.356D-02-0.359D-01-0.176D+00 0.120D+01
 Coeff:     -0.163D-07 0.999D-07 0.739D-06 0.884D-05-0.517D-05-0.308D-04
 Coeff:     -0.693D-03 0.498D-02 0.356D-02-0.359D-01-0.176D+00 0.120D+01
 Gap=     0.397 Goal=   None    Shift=    0.000
 RMSDP=4.00D-09 MaxDP=1.47D-07 DE= 1.48D-12 OVMax= 1.88D-07

 Error on total polarization charges =  0.02951
 SCF Done:  E(RwB97XD) =  -461.117987386     A.U. after   12 cycles
            NFock= 12  Conv=0.40D-08     -V/T= 2.0028
 KE= 4.598235801695D+02 PE=-1.446403692888D+03 EE= 3.468461889851D+02
 SMD-CDS (non-electrostatic) energy       (kcal/mol) =       0.26
 (included in total energy above)
 Leave Link  502 at Wed Oct  5 09:41:40 2022, MaxMem=  2952790016 cpu:            2131.3 elap:             178.4
 (Enter /mnt/data/applications/G16/g16/l601.exe)
 Copying SCF densities to generalized density rwf, IOpCl= 0 IROHF=0.

 **********************************************************************

            Population analysis using the SCF density.

 **********************************************************************

 Orbital symmetries:
       Occupied  (A) (A) (A) (A) (A) (A) (A) (A) (A) (A) (A) (A)
                 (A) (A) (A) (A) (A) (A) (A) (A) (A)
       Virtual   (A) (A) (A) (A) (A) (A) (A) (A) (A) (A) (A) (A)
                 (A) (A) (A) (A) (A) (A) (A) (A) (A) (A) (A) (A)
                 (A) (A) (A) (A) (A) (A) (A) (A) (A) (A) (A) (A)
                 (A) (A) (A) (A) (A) (A) (A) (A) (A) (A) (A) (A)
                 (A) (A) (A) (A) (A) (A) (A) (A) (A) (A) (A) (A)
                 (A) (A) (A) (A) (A) (A) (A) (A) (A) (A) (A) (A)
                 (A) (A) (A) (A) (A) (A) (A) (A) (A) (A) (A) (A)
                 (A) (A) (A) (A) (A) (A) (A) (A) (A) (A) (A) (A)
                 (A) (A) (A) (A) (A) (A) (A) (A) (A) (A) (A) (A)
                 (A) (A) (A) (A) (A) (A) (A) (A) (A) (A) (A) (A)
                 (A) (A) (A) (A) (A) (A) (A) (A) (A) (A) (A) (A)
                 (A) (A) (A) (A) (A) (A) (A) (A) (A) (A) (A) (A)
                 (A) (A) (A) (A) (A) (A) (A) (A) (A) (A) (A) (A)
                 (A) (A) (A) (A) (A) (A) (A)
 The electronic state is 1-A.
 Alpha  occ. eigenvalues --  -77.19000 -10.26973 -10.26973 -10.26952  -6.63692
 Alpha  occ. eigenvalues --   -4.78399  -4.78395  -4.77880  -0.85932  -0.78504
 Alpha  occ. eigenvalues --   -0.78405  -0.61194  -0.52102  -0.50951  -0.50870
 Alpha  occ. eigenvalues --   -0.48092  -0.47920  -0.46561  -0.40745  -0.40581
 Alpha  occ. eigenvalues --   -0.28360
 Alpha virt. eigenvalues --    0.11359   0.12815   0.12949   0.16306   0.17758
 Alpha virt. eigenvalues --    0.17848   0.18083   0.19387   0.19613   0.21908
 Alpha virt. eigenvalues --    0.22373   0.23768   0.27895   0.27958   0.29420
 Alpha virt. eigenvalues --    0.29508   0.30106   0.33500   0.35164   0.38393
 Alpha virt. eigenvalues --    0.38534   0.44956   0.45123   0.45297   0.45915
 Alpha virt. eigenvalues --    0.46652   0.46827   0.48832   0.52429   0.52542
 Alpha virt. eigenvalues --    0.54787   0.54926   0.55053   0.55890   0.59303
 Alpha virt. eigenvalues --    0.59353   0.64295   0.71444   0.71579   0.78348
 Alpha virt. eigenvalues --    0.78686   0.79179   0.84199   0.86797   0.86885
 Alpha virt. eigenvalues --    0.94507   0.97860   0.97926   1.03970   1.04464
 Alpha virt. eigenvalues --    1.04531   1.10495   1.11258   1.11570   1.13378
 Alpha virt. eigenvalues --    1.14737   1.15076   1.42326   1.42468   1.43832
 Alpha virt. eigenvalues --    1.49104   1.49136   1.51321   1.54369   1.59713
 Alpha virt. eigenvalues --    1.59732   1.60075   1.60740   1.61017   1.63061
 Alpha virt. eigenvalues --    1.64252   1.64281   1.65581   1.67796   1.68023
 Alpha virt. eigenvalues --    1.70870   1.71137   1.71555   1.71684   1.72578
 Alpha virt. eigenvalues --    1.74444   1.90743   1.91064   2.02473   2.05290
 Alpha virt. eigenvalues --    2.12503   2.12744   2.13213   2.13276   2.13354
 Alpha virt. eigenvalues --    2.16572   2.17079   2.18147   2.23902   2.31279
 Alpha virt. eigenvalues --    2.31666   2.36143   2.37635   2.38221   2.44101
 Alpha virt. eigenvalues --    2.46137   2.46329   2.46515   2.53553   2.54204
 Alpha virt. eigenvalues --    2.60616   2.63176   2.63375   2.66922   2.68039
 Alpha virt. eigenvalues --    2.68141   2.70091   2.72359   2.73048   2.88160
 Alpha virt. eigenvalues --    2.90806   2.90873   2.96638   3.00730   3.00981
 Alpha virt. eigenvalues --    3.17492   3.17508   3.18235   3.19413   3.24740
 Alpha virt. eigenvalues --    3.25318   3.31572   3.36737   3.36879   3.40304
 Alpha virt. eigenvalues --    3.43747   3.43969   3.44171   3.52731   3.53596
 Alpha virt. eigenvalues --    3.53635   3.60230   3.60531   3.60722   3.63066
 Alpha virt. eigenvalues --    3.64523   3.65129   3.69477   3.69942   3.78250
 Alpha virt. eigenvalues --    3.78765   3.86590   4.28197   4.33388   4.33535
 Alpha virt. eigenvalues --    4.35192   4.39304   4.39843   4.46872   4.52017
 Alpha virt. eigenvalues --    4.52370   7.59530   7.87345   7.88241  15.55858
 Alpha virt. eigenvalues --   22.36881  22.37006  22.37302
          Condensed to atoms (all electrons):
               1          2          3          4          5          6
     1  P   14.226534   0.338330   0.338317   0.340940  -0.023935  -0.056708
     2  C    0.338330   4.978610  -0.041102  -0.042799  -0.001420  -0.002237
     3  C    0.338317  -0.041102   4.978619  -0.042795   0.004313  -0.002239
     4  C    0.340940  -0.042799  -0.042795   4.981545   0.396706   0.404255
     5  H   -0.023935  -0.001420   0.004313   0.396706   0.517560  -0.023505
     6  H   -0.056708  -0.002237  -0.002239   0.404255  -0.023505   0.567768
     7  H   -0.023933   0.004313  -0.001421   0.396697  -0.014446  -0.023509
     8  H   -0.023786   0.397856   0.004139  -0.001666   0.001126  -0.000183
     9  H   -0.024177   0.396924  -0.001689   0.004312  -0.000108  -0.000156
    10  H   -0.057615   0.402164  -0.001509  -0.001557  -0.000304   0.008120
    11  H   -0.024177  -0.001689   0.396927   0.004311  -0.000105  -0.000156
    12  H   -0.023787   0.004139   0.397859  -0.001669  -0.000123  -0.000182
    13  H   -0.057618  -0.001506   0.402150  -0.001551  -0.000152   0.008116
               7          8          9         10         11         12
     1  P   -0.023933  -0.023786  -0.024177  -0.057615  -0.024177  -0.023787
     2  C    0.004313   0.397856   0.396924   0.402164  -0.001689   0.004139
     3  C   -0.001421   0.004139  -0.001689  -0.001509   0.396927   0.397859
     4  C    0.396697  -0.001666   0.004312  -0.001557   0.004311  -0.001669
     5  H   -0.014446   0.001126  -0.000108  -0.000304  -0.000105  -0.000123
     6  H   -0.023509  -0.000183  -0.000156   0.008120  -0.000156  -0.000182
     7  H    0.517581  -0.000123  -0.000105  -0.000152  -0.000108   0.001127
     8  H   -0.000123   0.515727  -0.014550  -0.023405  -0.000111  -0.000102
     9  H   -0.000105  -0.014550   0.517411  -0.022952   0.001269  -0.000111
    10  H   -0.000152  -0.023405  -0.022952   0.569916  -0.000210  -0.000157
    11  H   -0.000108  -0.000111   0.001269  -0.000210   0.517410  -0.014548
    12  H    0.001127  -0.000102  -0.000111  -0.000157  -0.014548   0.515722
    13  H   -0.000304  -0.000157  -0.000210   0.007595  -0.022956  -0.023403
              13
     1  P   -0.057618
     2  C   -0.001506
     3  C    0.402150
     4  C   -0.001551
     5  H   -0.000152
     6  H    0.008116
     7  H   -0.000304
     8  H   -0.000157
     9  H   -0.000210
    10  H    0.007595
    11  H   -0.022956
    12  H   -0.023403
    13  H    0.569933
 Mulliken charges:
               1
     1  P    0.071613
     2  C   -0.431583
     3  C   -0.431569
     4  C   -0.436728
     5  H    0.144392
     6  H    0.120615
     7  H    0.144383
     8  H    0.145234
     9  H    0.144141
    10  H    0.120064
    11  H    0.144143
    12  H    0.145234
    13  H    0.120061
 Sum of Mulliken charges =  -0.00000
 Mulliken charges with hydrogens summed into heavy atoms:
               1
     1  P    0.071613
     2  C   -0.022144
     3  C   -0.022131
     4  C   -0.027338
 Electronic spatial extent (au):  <R**2>=            436.0228
 Charge=             -0.0000 electrons
 Dipole moment (field-independent basis, Debye):
    X=             -0.0000    Y=             -0.0062    Z=              1.7278  Tot=              1.7278
 Quadrupole moment (field-independent basis, Debye-Ang):
   XX=            -32.8222   YY=            -32.8791   ZZ=            -38.5744
   XY=             -0.0001   XZ=             -0.0001   YZ=             -0.0030
 Traceless Quadrupole moment (field-independent basis, Debye-Ang):
   XX=              1.9363   YY=              1.8795   ZZ=             -3.8158
   XY=             -0.0001   XZ=             -0.0001   YZ=             -0.0030
 Octapole moment (field-independent basis, Debye-Ang**2):
  XXX=              0.0001  YYY=             -2.5851  ZZZ=             10.7536  XYY=             -0.0010
  XXY=              2.3615  XXZ=             -2.2659  XZZ=              0.0009  YZZ=              0.1770
  YYZ=             -2.0842  XYZ=             -0.0005
 Hexadecapole moment (field-independent basis, Debye-Ang**3):
 XXXX=           -255.6607 YYYY=           -253.3488 ZZZZ=           -111.5802 XXXY=             -0.0026
 XXXZ=             -0.0008 YYYX=              0.0011 YYYZ=             -0.4641 ZZZX=              0.0007
 ZZZY=              0.0792 XXYY=            -85.0699 XXZZ=            -63.0693 YYZZ=            -62.9939
 XXYZ=              0.3271 YYXZ=             -0.0016 ZZXY=              0.0012
 N-N= 1.786159363471D+02 E-N=-1.446403692604D+03  KE= 4.598235801695D+02
 No NMR shielding tensors so no spin-rotation constants.
 Leave Link  601 at Wed Oct  5 09:41:40 2022, MaxMem=  2952790016 cpu:               2.6 elap:               0.3
 (Enter /mnt/data/applications/G16/g16/l701.exe)
 ... and contract with generalized density number  0.
 Compute integral first derivatives.
 R6Disp: Adding Grimme-D2 dispersion energy 1st derivatives to the gradient.
   1 Symmetry operations used in ECPInt.
 ECPInt:  NShTT=    3403 NPrTT=   10140 LenC2=    3392 LenP2D=    8548.
 LDataN:  DoStor=T MaxTD1= 7 Len=  274
 D1PCM: PCM CHGder 1st derivatives, ID1Alg=3 FixD1E=F DoIter=F DoCFld=F I1PDM=0.
 GePol: Maximum number of non-zero 1st derivatives   =     235
 Leave Link  701 at Wed Oct  5 09:41:42 2022, MaxMem=  2952790016 cpu:              20.6 elap:               1.7
 (Enter /mnt/data/applications/G16/g16/l702.exe)
 L702 exits ... SP integral derivatives will be done elsewhere.
 Leave Link  702 at Wed Oct  5 09:41:42 2022, MaxMem=  2952790016 cpu:               0.2 elap:               0.0
 (Enter /mnt/data/applications/G16/g16/l703.exe)
 Integral derivatives from FoFJK, PRISM(SPDF).
 Compute integral first derivatives, UseDBF=F ICtDFT=           0.
 Calling FoFJK, ICntrl=      2127 FMM=F ISym2X=0 I1Cent= 0 IOpClX= 0 NMat=1 NMatS=1 NMatT=0.
 FoFJK:  IHMeth= 1 ICntrl=    2127 DoSepK=T KAlg= 0 I1Cent=           0 FoldK=F
 IRaf=         1 NMat=       1 IRICut=       1 DoRegI=T DoRafI=F ISym2E= 0 IDoP0=0 IntGTp=1.
 FoFCou: FMM=F IPFlag=           0 FMFlag=      100000 FMFlg1=         800
         NFxFlg=           0 DoJE=F BraDBF=F KetDBF=F FulRan=T
         wScrn=  0.000000 ICntrl=      2527 IOpCl=  0 I1Cent=           0 NGrid=           0
         NMat0=    1 NMatS0=      1 NMatT0=    0 NMatD0=    1 NMtDS0=    0 NMtDT0=    0
 Symmetry not used in FoFCou.
 Leave Link  703 at Wed Oct  5 09:41:55 2022, MaxMem=  2952790016 cpu:             162.2 elap:              13.6
 (Enter /mnt/data/applications/G16/g16/l716.exe)
 Dipole        =-7.30545152D-06-2.44537749D-03 6.79757126D-01
 ***** Axes restored to original set *****
 -------------------------------------------------------------------
 Center     Atomic                   Forces (Hartrees/Bohr)
 Number     Number              X              Y              Z
 -------------------------------------------------------------------
      1       15          -0.029869169    0.002950211   -0.000011765
      2        6           0.008051457    0.000767189    0.001677633
      3        6           0.008056777    0.000756404   -0.001679703
      4        6           0.006501576   -0.001189559    0.000006382
      5        1          -0.000006849    0.000218128    0.000086359
      6        1           0.002314472    0.002475177   -0.000004465
      7        1          -0.000010321    0.000218925   -0.000089379
      8        1           0.000019509    0.000128478   -0.000176190
      9        1           0.000394888   -0.000959067   -0.000523556
     10        1           0.002067527   -0.002276338   -0.002906604
     11        1           0.000393773   -0.000953219    0.000527350
     12        1           0.000020028    0.000127580    0.000176032
     13        1           0.002066332   -0.002263908    0.002917906
 -------------------------------------------------------------------
 Cartesian Forces:  Max     0.029869169 RMS     0.005385847
 Leave Link  716 at Wed Oct  5 09:41:55 2022, MaxMem=  2952790016 cpu:               0.3 elap:               0.0
 (Enter /mnt/data/applications/G16/g16/l103.exe)

 GradGradGradGradGradGradGradGradGradGradGradGradGradGradGradGradGradGrad
 Berny optimization.
 FormGI is forming the generalized inverse of G from B-inverse, IUseBI=4.
 Internal  Forces:  Max     0.006954641 RMS     0.002899961
 Search for a local minimum.
 Step number   1 out of a maximum of   61
 All quantities printed in internal units (Hartrees-Bohrs-Radians)
 RMS Force = .29000D-02 SwitMx=.10000D-02 MixMth= 1
 Mixed Optimization -- RFO/linear search
 Second derivative matrix not updated -- first step.
 ITU=  0
     Eigenvalues ---    0.00908   0.00950   0.00950   0.05364   0.07340
     Eigenvalues ---    0.07422   0.07422   0.07631   0.07687   0.07687
     Eigenvalues ---    0.13792   0.14018   0.16000   0.16000   0.16000
     Eigenvalues ---    0.16000   0.16000   0.16000   0.16000   0.16000
     Eigenvalues ---    0.16000   0.24648   0.24881   0.24881   0.34581
     Eigenvalues ---    0.34581   0.34612   0.34680   0.34680   0.34734
     Eigenvalues ---    0.34734   0.34827   0.34827
 RFO step:  Lambda=-4.32170780D-03 EMin= 9.07884772D-03
 Linear search not attempted -- first point.
 Maximum step size (   0.050) exceeded in Quadratic search.
    -- Step size scaled by   0.389
 Iteration  1 RMS(Cart)=  0.01361148 RMS(Int)=  0.00028709
 Iteration  2 RMS(Cart)=  0.00055433 RMS(Int)=  0.00015337
 Iteration  3 RMS(Cart)=  0.00000006 RMS(Int)=  0.00015337
 ITry= 1 IFail=0 DXMaxC= 6.46D-02 DCOld= 1.00D+10 DXMaxT= 5.00D-02 DXLimC= 3.00D+00 Rises=F
 Variable       Old X    -DE/DX   Delta X   Delta X   Delta X     New X
                                 (Linear)    (Quad)   (Total)
    R1        3.43212   0.00695   0.00000   0.01068   0.01068   3.44281
    R2        3.43212   0.00695   0.00000   0.01068   0.01068   3.44280
    R3        3.43813   0.00546   0.00000   0.00846   0.00846   3.44659
    R4        2.06109   0.00020   0.00000   0.00022   0.00022   2.06131
    R5        2.05956   0.00081   0.00000   0.00089   0.00089   2.06045
    R6        2.06361   0.00184   0.00000   0.00204   0.00204   2.06566
    R7        2.05957   0.00080   0.00000   0.00089   0.00089   2.06046
    R8        2.06109   0.00020   0.00000   0.00022   0.00022   2.06131
    R9        2.06361   0.00184   0.00000   0.00204   0.00204   2.06566
   R10        2.06198   0.00004   0.00000   0.00005   0.00005   2.06203
   R11        2.06309   0.00210   0.00000   0.00233   0.00233   2.06542
   R12        2.06198   0.00004   0.00000   0.00005   0.00005   2.06203
    A1        1.81256  -0.00456   0.00000  -0.02545  -0.02596   1.78660
    A2        1.79788  -0.00266   0.00000  -0.02039  -0.02097   1.77691
    A3        1.79790  -0.00266   0.00000  -0.02039  -0.02098   1.77692
    A4        1.90953  -0.00108   0.00000  -0.00288  -0.00288   1.90664
    A5        1.90581   0.00009   0.00000  -0.00029  -0.00030   1.90551
    A6        1.93847   0.00558   0.00000   0.01404   0.01403   1.95250
    A7        1.88908  -0.00040   0.00000  -0.00269  -0.00269   1.88638
    A8        1.90663  -0.00177   0.00000  -0.00321  -0.00322   1.90341
    A9        1.91366  -0.00256   0.00000  -0.00539  -0.00541   1.90825
   A10        1.90581   0.00009   0.00000  -0.00029  -0.00030   1.90550
   A11        1.90952  -0.00108   0.00000  -0.00288  -0.00288   1.90664
   A12        1.93846   0.00558   0.00000   0.01405   0.01404   1.95250
   A13        1.88910  -0.00040   0.00000  -0.00269  -0.00270   1.88640
   A14        1.91363  -0.00255   0.00000  -0.00539  -0.00540   1.90822
   A15        1.90665  -0.00178   0.00000  -0.00322  -0.00322   1.90342
   A16        1.90973  -0.00053   0.00000  -0.00167  -0.00167   1.90805
   A17        1.94641   0.00407   0.00000   0.01048   0.01047   1.95689
   A18        1.90971  -0.00053   0.00000  -0.00166  -0.00167   1.90804
   A19        1.90401  -0.00139   0.00000  -0.00246  -0.00246   1.90155
   A20        1.88911  -0.00036   0.00000  -0.00262  -0.00262   1.88648
   A21        1.90397  -0.00138   0.00000  -0.00245  -0.00245   1.90152
    D1       -3.07260   0.00214   0.00000   0.01870   0.01858  -3.05402
    D2        1.14600   0.00320   0.00000   0.02381   0.02369   1.16969
    D3       -0.96646   0.00277   0.00000   0.02177   0.02164  -0.94482
    D4       -1.20236  -0.00306   0.00000  -0.01808  -0.01796  -1.22032
    D5        3.01624  -0.00199   0.00000  -0.01298  -0.01285   3.00339
    D6        0.90378  -0.00242   0.00000  -0.01502  -0.01490   0.88888
    D7       -1.14612  -0.00320   0.00000  -0.02380  -0.02367  -1.16980
    D8        3.07246  -0.00214   0.00000  -0.01868  -0.01856   3.05390
    D9        0.96630  -0.00277   0.00000  -0.02174  -0.02161   0.94468
   D10       -3.01635   0.00199   0.00000   0.01299   0.01286  -3.00350
   D11        1.20223   0.00306   0.00000   0.01810   0.01797   1.22020
   D12       -0.90393   0.00242   0.00000   0.01504   0.01492  -0.88902
   D13        1.16780   0.00383   0.00000   0.02267   0.02257   1.19037
   D14       -0.94030   0.00329   0.00000   0.02010   0.02000  -0.92030
   D15       -3.04834   0.00276   0.00000   0.01752   0.01742  -3.03092
   D16        3.04916  -0.00276   0.00000  -0.01759  -0.01750   3.03166
   D17        0.94106  -0.00329   0.00000  -0.02016  -0.02007   0.92099
   D18       -1.16698  -0.00383   0.00000  -0.02274  -0.02265  -1.18963
         Item               Value     Threshold  Converged?
 Maximum Force            0.006955     0.000450     NO 
 RMS     Force            0.002900     0.000300     NO 
 Maximum Displacement     0.064584     0.001800     NO 
 RMS     Displacement     0.014037     0.001200     NO 
 Predicted change in Energy=-1.364209D-03
 Lowest energy point so far.  Saving SCF results.
 GradGradGradGradGradGradGradGradGradGradGradGradGradGradGradGradGradGrad

 Leave Link  103 at Wed Oct  5 09:41:55 2022, MaxMem=  2952790016 cpu:               0.2 elap:               0.0
 (Enter /mnt/data/applications/G16/g16/l202.exe)
                          Input orientation:                          
 ---------------------------------------------------------------------
 Center     Atomic      Atomic             Coordinates (Angstroms)
 Number     Number       Type             X           Y           Z
 ---------------------------------------------------------------------
      1         15           0        1.598482   -0.169320   -0.000043
      2          6           0        2.384970   -1.000107   -1.417923
      3          6           0        2.384383   -0.995165    1.421042
      4          6           0        2.438908    1.449363   -0.002691
      5          1           0        2.135443    2.012314   -0.886809
      6          1           0        3.527176    1.348078   -0.002639
      7          1           0        2.135648    2.015079    0.879733
      8          1           0        2.055347   -0.523389   -2.342007
      9          1           0        2.067547   -2.042918   -1.443195
     10          1           0        3.475730   -0.955067   -1.362462
     11          1           0        2.066862   -2.037857    1.449875
     12          1           0        2.054471   -0.515153    2.343316
     13          1           0        3.475169   -0.950438    1.365806
 ---------------------------------------------------------------------
                    Distance matrix (angstroms):
                    1          2          3          4          5
     1  P    0.000000
     2  C    1.821855   0.000000
     3  C    1.821853   2.838969   0.000000
     4  C    1.823857   2.829433   2.829436   0.000000
     5  H    2.415410   3.069043   3.799089   1.091178   0.000000
     6  H    2.454051   2.970124   2.970460   1.092972   1.777607
     7  H    2.415399   3.799043   3.068624   1.091180   1.766544
     8  H    2.412237   1.090800   3.806755   3.084034   2.924689
     9  H    2.411033   1.090344   3.066273   3.795917   4.093785
    10  H    2.449010   1.093098   2.990074   2.950468   3.290588
    11  H    2.411032   3.066330   1.090347   3.795928   4.676396
    12  H    2.412232   3.806748   1.090799   3.083969   4.102238
    13  H    2.449009   2.990007   1.093098   2.950536   3.955633
                    6          7          8          9         10
     6  H    0.000000
     7  H    1.777589   0.000000
     8  H    3.337861   4.102423   0.000000
     9  H    3.962899   4.676320   1.765497   0.000000
    10  H    2.675116   3.955380   1.778580   1.781268   0.000000
    11  H    3.963189   4.093419   4.083150   2.893075   3.326648
    12  H    3.338262   2.924165   4.685331   4.083125   3.993282
    13  H    2.675541   3.290117   3.993262   3.326469   2.728272
                   11         12         13
    11  H    0.000000
    12  H    1.765508   0.000000
    13  H    1.781257   1.778590   0.000000
 Stoichiometry    C3H9P
 Framework group  C1[X(C3H9P)]
 Deg. of freedom    33
 Full point group                 C1      NOp   1
 RotChk:  IX=0 Diff= 2.45D-03
 Largest Abelian subgroup         C1      NOp   1
 Largest concise Abelian subgroup C1      NOp   1
                         Standard orientation:                         
 ---------------------------------------------------------------------
 Center     Atomic      Atomic             Coordinates (Angstroms)
 Number     Number       Type             X           Y           Z
 ---------------------------------------------------------------------
      1         15           0       -0.000000   -0.004848   -0.549661
      2          6           0        1.419545   -0.813861    0.256282
      3          6           0       -1.419425   -0.814069    0.256282
      4          6           0       -0.000116    1.633634    0.251483
      5          1           0        0.882917    2.190700   -0.065690
      6          1           0        0.000239    1.558624    1.341878
      7          1           0       -0.883627    2.190275   -0.065112
      8          1           0        2.342696   -0.343561   -0.084973
      9          1           0        1.446644   -1.863976   -0.035906
     10          1           0        1.364227   -0.742629    1.345652
     11          1           0       -1.446431   -1.864165   -0.035993
     12          1           0       -2.342636   -0.343821   -0.084881
     13          1           0       -1.364046   -0.742948    1.345658
 ---------------------------------------------------------------------
 Rotational constants (GHZ):           5.9208339           5.8821807           3.6791664
 Leave Link  202 at Wed Oct  5 09:41:55 2022, MaxMem=  2952790016 cpu:               0.1 elap:               0.0
 (Enter /mnt/data/applications/G16/g16/l301.exe)
 Standard basis: def2TZVP (5D, 7F)
 Ernie: Thresh=  0.10000D-02 Tol=  0.10000D-05 Strict=F.
 There are   204 symmetry adapted cartesian basis functions of A   symmetry.
 There are   184 symmetry adapted basis functions of A   symmetry.
   184 basis functions,   294 primitive gaussians,   204 cartesian basis functions
    21 alpha electrons       21 beta electrons
       nuclear repulsion energy       178.5212458701 Hartrees.
 IExCor= 4639 DFT=T Ex+Corr=wB97XD ExCW=0 ScaHFX=  1.000000
 ScaDFX=  1.000000  1.000000  1.000000  1.000000 ScalE2=  1.000000  1.000000
 IRadAn=      5 IRanWt=     -1 IRanGd=            0 ICorTp=0 IEmpDi=121
 HFx  wShort=  0.000000 wLong=  0.200000 cFull=  0.222036 cShort=  0.000000 cLong=  0.777964
 DFx  wShort=  0.000000 wLong=  0.200000 cFull=  0.000000 cShort=  0.000000 cLong=  1.000000
 NAtoms=   13 NActive=   13 NUniq=   13 SFac= 1.00D+00 NAtFMM=   60 NAOKFM=F Big=F
 Integral buffers will be    131072 words long.
 Raffenetti 2 integral format.
 Two-electron integral symmetry is turned on.
 R6Disp:  Grimme-D2 Dispersion energy=       -0.0051529611 Hartrees.
 Nuclear repulsion after empirical dispersion term =      178.5160929090 Hartrees.
 ------------------------------------------------------------------------------
 Polarizable Continuum Model (PCM)
 =================================
 Model                : PCM.
 Atomic radii         : SMD-Coulomb.
 Polarization charges : Total charges.
 Charge compensation  : None.
 Solution method      : On-the-fly selection.
 Cavity type          : VdW (van der Waals Surface) (Alpha=1.000).
 Cavity algorithm     : GePol (No added spheres)
                        Default sphere list used, NSphG=   13.
                        Lebedev-Laikov grids with approx.  5.0 points / Ang**2.
                        Smoothing algorithm: York/Karplus (Gamma=1.0000).
                        Polarization charges: spherical gaussians, with
                                              point-specific exponents (IZeta= 3).
                        Self-potential: point-specific (ISelfS= 7).
                        Self-field    : sphere-specific E.n sum rule (ISelfD= 2).
 1st derivatives      : Analytical E(r).r(x)/FMM algorithm (CHGder, D1EAlg=3).
                        Cavity 1st derivative terms included.
 Solvent              : Toluene, Eps=   2.374100 Eps(inf)=   2.238315
 ------------------------------------------------------------------------------
 Spheres list:
 ISph  on   Nord     Re0    Alpha      Xe            Ye            Ze
    1   P      1    2.1200  1.000     -0.000000     -0.004848     -0.549661
    2   C      2    1.8500  1.000      1.419545     -0.813861      0.256282
    3   C      3    1.8500  1.000     -1.419425     -0.814069      0.256282
    4   C      4    1.8500  1.000     -0.000116      1.633634      0.251483
    5   H      5    1.2000  1.000      0.882917      2.190700     -0.065690
    6   H      6    1.2000  1.000      0.000239      1.558624      1.341878
    7   H      7    1.2000  1.000     -0.883627      2.190275     -0.065112
    8   H      8    1.2000  1.000      2.342696     -0.343561     -0.084973
    9   H      9    1.2000  1.000      1.446644     -1.863976     -0.035906
   10   H     10    1.2000  1.000      1.364227     -0.742629      1.345652
   11   H     11    1.2000  1.000     -1.446431     -1.864165     -0.035993
   12   H     12    1.2000  1.000     -2.342636     -0.343821     -0.084881
   13   H     13    1.2000  1.000     -1.364046     -0.742948      1.345658
 ------------------------------------------------------------------------------
 GePol: Number of generator spheres                  =      13
 GePol: Total number of spheres                      =      13
 GePol: Number of exposed spheres                    =      13 (100.00%)
 GePol: Number of points                             =     998
 GePol: Average weight of points                     =       0.12
 GePol: Minimum weight of points                     =   0.92D-09
 GePol: Maximum weight of points                     =    0.20615
 GePol: Number of points with low weight             =      63
 GePol: Fraction of low-weight points (<1% of avg)   =       6.31%
 GePol: Cavity surface area                          =    120.372 Ang**2
 GePol: Cavity volume                                =     95.042 Ang**3
 ------------------------------------------------------------------------------
 Atomic radii for non-electrostatic terms: SMD-CDS.
 ------------------------------------------------------------------------------
 PCM non-electrostatic energy =         0.0003698069 Hartrees.
 Nuclear repulsion after PCM non-electrostatic terms =      178.5164627159 Hartrees.
 Leave Link  301 at Wed Oct  5 09:41:56 2022, MaxMem=  2952790016 cpu:               1.4 elap:               0.1
 (Enter /mnt/data/applications/G16/g16/l302.exe)
 NPDir=0 NMtPBC=     1 NCelOv=     1 NCel=       1 NClECP=     1 NCelD=      1
         NCelK=      1 NCelE2=     1 NClLst=     1 CellRange=     0.0.
 One-electron integrals computed using PRISM.
 One-electron integral symmetry used in STVInt
   1 Symmetry operations used in ECPInt.
 ECPInt:  NShTT=    3403 NPrTT=   10140 LenC2=    3392 LenP2D=    8551.
 LDataN:  DoStor=T MaxTD1= 6 Len=  172
 NBasis=   184 RedAO= T EigKep=  9.82D-04  NBF=   184
 NBsUse=   184 1.00D-06 EigRej= -1.00D+00 NBFU=   184
 Precomputing XC quadrature grid using
 IXCGrd= 4 IRadAn=           5 IRanWt=          -1 IRanGd=           0 AccXCQ= 0.00D+00.
 Generated NRdTot=       0 NPtTot=           0 NUsed=           0 NTot=          32
 NSgBfM=   203   203   203   203   203 MxSgAt=    13 MxSgA2=    13.
 Leave Link  302 at Wed Oct  5 09:41:56 2022, MaxMem=  2952790016 cpu:               5.5 elap:               0.5
 (Enter /mnt/data/applications/G16/g16/l303.exe)
 DipDrv:  MaxL=1.
 Leave Link  303 at Wed Oct  5 09:41:56 2022, MaxMem=  2952790016 cpu:               0.4 elap:               0.1
 (Enter /mnt/data/applications/G16/g16/l401.exe)
 Initial guess from the checkpoint file:  "PMe3.chk"
 B after Tr=     0.000000    0.000000    0.000000
         Rot=    1.000000   -0.000837    0.000002   -0.000102 Ang=  -0.10 deg.
 Guess basis will be translated and rotated to current coordinates.
 JPrj=2 DoOrth=T DoCkMO=T.
 Generating alternative initial guess.
 ExpMin= 9.04D-02 ExpMax= 5.24D+04 ExpMxC= 1.79D+03 IAcc=2 IRadAn=         4 AccDes= 0.00D+00
 Harris functional with IExCor= 4639 and IRadAn=       4 diagonalized for initial guess.
 HarFok:  IExCor= 4639 AccDes= 0.00D+00 IRadAn=         4 IDoV= 1 UseB2=F ITyADJ=14
 ICtDFT=  3500011 ScaDFX=  1.000000  1.000000  1.000000  1.000000
 FoFCou: FMM=F IPFlag=           0 FMFlag=      100000 FMFlg1=           0
         NFxFlg=           0 DoJE=T BraDBF=F KetDBF=T FulRan=T
         wScrn=  0.000000 ICntrl=       500 IOpCl=  0 I1Cent=   200000004 NGrid=           0
         NMat0=    1 NMatS0=      1 NMatT0=    0 NMatD0=    1 NMtDS0=    0 NMtDT0=    0
 Petite list used in FoFCou.
 Harris En= -448.538753682611    
 Leave Link  401 at Wed Oct  5 09:41:57 2022, MaxMem=  2952790016 cpu:              12.5 elap:               1.1
 (Enter /mnt/data/applications/G16/g16/l502.exe)
 Integral symmetry usage will be decided dynamically.
 Closed shell SCF:
 Using DIIS extrapolation, IDIIS=  1040.
 NGot=  2952790016 LenX=  2952702271 LenY=  2952660214
 Requested convergence on RMS density matrix=1.00D-08 within 128 cycles.
 Requested convergence on MAX density matrix=1.00D-06.
 Requested convergence on             energy=1.00D-06.
 No special actions if energy rises.
 Fock matrices will be formed incrementally for  20 cycles.

 Cycle   1  Pass 1  IDiag  1:
 FoFJK:  IHMeth= 1 ICntrl=       0 DoSepK=T KAlg= 0 I1Cent=           0 FoldK=F
 IRaf=         1 NMat=       1 IRICut=       1 DoRegI=T DoRafI=F ISym2E= 0 IDoP0=0 IntGTp=1.
 FoFCou: FMM=F IPFlag=           0 FMFlag=      100000 FMFlg1=           0
         NFxFlg=           0 DoJE=T BraDBF=F KetDBF=F FulRan=T
         wScrn=  0.000000 ICntrl=       500 IOpCl=  0 I1Cent=           0 NGrid=           0
         NMat0=    1 NMatS0=      1 NMatT0=    0 NMatD0=    1 NMtDS0=    0 NMtDT0=    0
 Symmetry not used in FoFCou.
 Inv3:  Mode=1 IEnd=     2988012.
 Iteration    1 A*A^-1 deviation from unit magnitude is 2.11D-15 for    758.
 Iteration    1 A*A^-1 deviation from orthogonality  is 1.59D-15 for    471     68.
 Iteration    1 A^-1*A deviation from unit magnitude is 1.89D-15 for    758.
 Iteration    1 A^-1*A deviation from orthogonality  is 1.50D-15 for    814    336.
 E= -461.119068366717    
 DIIS: error= 1.70D-03 at cycle   1 NSaved=   1.
 NSaved= 1 IEnMin= 1 EnMin= -461.119068366717     IErMin= 1 ErrMin= 1.70D-03
 ErrMax= 1.70D-03  0.00D+00 EMaxC= 1.00D-01 BMatC= 3.01D-04 BMatP= 3.01D-04
 IDIUse=3 WtCom= 9.83D-01 WtEn= 1.70D-02
 Coeff-Com:  0.100D+01
 Coeff-En:   0.100D+01
 Coeff:      0.100D+01
 Gap=     0.662 Goal=   None    Shift=    0.000
 GapD=    0.662 DampG=2.000 DampE=1.000 DampFc=2.0000 IDamp=-1.
 RMSDP=9.03D-05 MaxDP=4.04D-03              OVMax= 5.31D-03

 Cycle   2  Pass 1  IDiag  1:
 RMSU=  9.03D-05    CP:  1.00D+00
 E= -461.119330593499     Delta-E=       -0.000262226782 Rises=F Damp=F
 DIIS: error= 2.13D-04 at cycle   2 NSaved=   2.
 NSaved= 2 IEnMin= 2 EnMin= -461.119330593499     IErMin= 2 ErrMin= 2.13D-04
 ErrMax= 2.13D-04  0.00D+00 EMaxC= 1.00D-01 BMatC= 7.01D-06 BMatP= 3.01D-04
 IDIUse=3 WtCom= 9.98D-01 WtEn= 2.13D-03
 Coeff-Com: -0.621D-01 0.106D+01
 Coeff-En:   0.000D+00 0.100D+01
 Coeff:     -0.620D-01 0.106D+01
 Gap=     0.403 Goal=   None    Shift=    0.000
 RMSDP=3.29D-05 MaxDP=2.21D-03 DE=-2.62D-04 OVMax= 2.10D-03

 Cycle   3  Pass 1  IDiag  1:
 RMSU=  2.08D-05    CP:  1.00D+00  1.28D+00
 E= -461.119346335273     Delta-E=       -0.000015741775 Rises=F Damp=F
 DIIS: error= 9.88D-05 at cycle   3 NSaved=   3.
 NSaved= 3 IEnMin= 3 EnMin= -461.119346335273     IErMin= 3 ErrMin= 9.88D-05
 ErrMax= 9.88D-05  0.00D+00 EMaxC= 1.00D-01 BMatC= 1.41D-06 BMatP= 7.01D-06
 IDIUse=1 WtCom= 1.00D+00 WtEn= 0.00D+00
 Coeff-Com: -0.323D-01 0.254D+00 0.778D+00
 Coeff:     -0.323D-01 0.254D+00 0.778D+00
 Gap=     0.403 Goal=   None    Shift=    0.000
 RMSDP=9.43D-06 MaxDP=4.53D-04 DE=-1.57D-05 OVMax= 4.06D-04

 Cycle   4  Pass 1  IDiag  1:
 RMSU=  6.97D-06    CP:  1.00D+00  1.34D+00  1.19D+00
 E= -461.119348147528     Delta-E=       -0.000001812255 Rises=F Damp=F
 DIIS: error= 3.58D-05 at cycle   4 NSaved=   4.
 NSaved= 4 IEnMin= 4 EnMin= -461.119348147528     IErMin= 4 ErrMin= 3.58D-05
 ErrMax= 3.58D-05  0.00D+00 EMaxC= 1.00D-01 BMatC= 2.04D-07 BMatP= 1.41D-06
 IDIUse=1 WtCom= 1.00D+00 WtEn= 0.00D+00
 Coeff-Com:  0.291D-02-0.122D+00 0.187D+00 0.931D+00
 Coeff:      0.291D-02-0.122D+00 0.187D+00 0.931D+00
 Gap=     0.403 Goal=   None    Shift=    0.000
 RMSDP=6.63D-06 MaxDP=3.69D-04 DE=-1.81D-06 OVMax= 3.32D-04

 Cycle   5  Pass 1  IDiag  1:
 RMSU=  1.82D-06    CP:  1.00D+00  1.37D+00  1.45D+00  1.24D+00
 E= -461.119348470460     Delta-E=       -0.000000322932 Rises=F Damp=F
 DIIS: error= 3.36D-06 at cycle   5 NSaved=   5.
 NSaved= 5 IEnMin= 5 EnMin= -461.119348470460     IErMin= 5 ErrMin= 3.36D-06
 ErrMax= 3.36D-06  0.00D+00 EMaxC= 1.00D-01 BMatC= 2.39D-09 BMatP= 2.04D-07
 IDIUse=1 WtCom= 1.00D+00 WtEn= 0.00D+00
 Coeff-Com:  0.788D-03-0.896D-02-0.134D-01 0.313D-01 0.990D+00
 Coeff:      0.788D-03-0.896D-02-0.134D-01 0.313D-01 0.990D+00
 Gap=     0.403 Goal=   None    Shift=    0.000
 RMSDP=1.58D-06 MaxDP=7.93D-05 DE=-3.23D-07 OVMax= 5.76D-05

 Cycle   6  Pass 1  IDiag  1:
 RMSU=  3.90D-07    CP:  1.00D+00  1.38D+00  1.50D+00  1.34D+00  1.31D+00
 E= -461.119348476397     Delta-E=       -0.000000005936 Rises=F Damp=F
 DIIS: error= 1.90D-06 at cycle   6 NSaved=   6.
 NSaved= 6 IEnMin= 6 EnMin= -461.119348476397     IErMin= 6 ErrMin= 1.90D-06
 ErrMax= 1.90D-06  0.00D+00 EMaxC= 1.00D-01 BMatC= 5.22D-10 BMatP= 2.39D-09
 IDIUse=1 WtCom= 1.00D+00 WtEn= 0.00D+00
 Coeff-Com:  0.192D-04 0.603D-02-0.180D-01-0.575D-01 0.293D+00 0.777D+00
 Coeff:      0.192D-04 0.603D-02-0.180D-01-0.575D-01 0.293D+00 0.777D+00
 Gap=     0.403 Goal=   None    Shift=    0.000
 RMSDP=4.76D-07 MaxDP=2.77D-05 DE=-5.94D-09 OVMax= 1.63D-05

 Cycle   7  Pass 1  IDiag  1:
 RMSU=  1.13D-07    CP:  1.00D+00  1.38D+00  1.51D+00  1.38D+00  1.44D+00
                    CP:  1.00D+00
 E= -461.119348477252     Delta-E=       -0.000000000855 Rises=F Damp=F
 DIIS: error= 3.96D-07 at cycle   7 NSaved=   7.
 NSaved= 7 IEnMin= 7 EnMin= -461.119348477252     IErMin= 7 ErrMin= 3.96D-07
 ErrMax= 3.96D-07  0.00D+00 EMaxC= 1.00D-01 BMatC= 3.46D-11 BMatP= 5.22D-10
 IDIUse=1 WtCom= 1.00D+00 WtEn= 0.00D+00
 Coeff-Com: -0.842D-04 0.287D-02-0.410D-02-0.202D-01-0.213D-01 0.147D+00
 Coeff-Com:  0.896D+00
 Coeff:     -0.842D-04 0.287D-02-0.410D-02-0.202D-01-0.213D-01 0.147D+00
 Coeff:      0.896D+00
 Gap=     0.403 Goal=   None    Shift=    0.000
 RMSDP=1.87D-07 MaxDP=9.59D-06 DE=-8.55D-10 OVMax= 7.00D-06

 Cycle   8  Pass 1  IDiag  1:
 RMSU=  2.80D-08    CP:  1.00D+00  1.38D+00  1.52D+00  1.39D+00  1.48D+00
                    CP:  1.12D+00  1.37D+00
 E= -461.119348477327     Delta-E=       -0.000000000075 Rises=F Damp=F
 DIIS: error= 1.22D-07 at cycle   8 NSaved=   8.
 NSaved= 8 IEnMin= 8 EnMin= -461.119348477327     IErMin= 8 ErrMin= 1.22D-07
 ErrMax= 1.22D-07  0.00D+00 EMaxC= 1.00D-01 BMatC= 2.85D-12 BMatP= 3.46D-11
 IDIUse=1 WtCom= 1.00D+00 WtEn= 0.00D+00
 Coeff-Com: -0.136D-04 0.326D-04 0.509D-03 0.103D-02-0.270D-01-0.292D-01
 Coeff-Com:  0.108D+00 0.947D+00
 Coeff:     -0.136D-04 0.326D-04 0.509D-03 0.103D-02-0.270D-01-0.292D-01
 Coeff:      0.108D+00 0.947D+00
 Gap=     0.403 Goal=   None    Shift=    0.000
 RMSDP=5.11D-08 MaxDP=2.45D-06 DE=-7.49D-11 OVMax= 2.05D-06

 Cycle   9  Pass 1  IDiag  1:
 RMSU=  1.04D-08    CP:  1.00D+00  1.38D+00  1.52D+00  1.39D+00  1.49D+00
                    CP:  1.16D+00  1.56D+00  1.34D+00
 E= -461.119348477335     Delta-E=       -0.000000000007 Rises=F Damp=F
 DIIS: error= 4.76D-08 at cycle   9 NSaved=   9.
 NSaved= 9 IEnMin= 9 EnMin= -461.119348477335     IErMin= 9 ErrMin= 4.76D-08
 ErrMax= 4.76D-08  0.00D+00 EMaxC= 1.00D-01 BMatC= 5.98D-13 BMatP= 2.85D-12
 IDIUse=1 WtCom= 1.00D+00 WtEn= 0.00D+00
 Coeff-Com:  0.388D-05-0.321D-03 0.683D-03 0.284D-02-0.861D-02-0.256D-01
 Coeff-Com: -0.566D-01 0.336D+00 0.752D+00
 Coeff:      0.388D-05-0.321D-03 0.683D-03 0.284D-02-0.861D-02-0.256D-01
 Coeff:     -0.566D-01 0.336D+00 0.752D+00
 Gap=     0.403 Goal=   None    Shift=    0.000
 RMSDP=1.19D-08 MaxDP=4.88D-07 DE=-7.28D-12 OVMax= 5.65D-07

 Cycle  10  Pass 1  IDiag  1:
 RMSU=  2.65D-09    CP:  1.00D+00  1.38D+00  1.52D+00  1.40D+00  1.50D+00
                    CP:  1.17D+00  1.62D+00  1.57D+00  1.12D+00
 E= -461.119348477338     Delta-E=       -0.000000000004 Rises=F Damp=F
 DIIS: error= 1.09D-08 at cycle  10 NSaved=  10.
 NSaved=10 IEnMin=10 EnMin= -461.119348477338     IErMin=10 ErrMin= 1.09D-08
 ErrMax= 1.09D-08  0.00D+00 EMaxC= 1.00D-01 BMatC= 1.93D-14 BMatP= 5.98D-13
 IDIUse=1 WtCom= 1.00D+00 WtEn= 0.00D+00
 Coeff-Com:  0.113D-05-0.235D-04 0.109D-04 0.148D-03 0.215D-02 0.323D-03
 Coeff-Com: -0.151D-01-0.529D-01 0.707D-01 0.995D+00
 Coeff:      0.113D-05-0.235D-04 0.109D-04 0.148D-03 0.215D-02 0.323D-03
 Coeff:     -0.151D-01-0.529D-01 0.707D-01 0.995D+00
 Gap=     0.403 Goal=   None    Shift=    0.000
 RMSDP=4.40D-09 MaxDP=9.25D-08 DE=-3.87D-12 OVMax= 1.92D-07

 Error on total polarization charges =  0.02935
 SCF Done:  E(RwB97XD) =  -461.119348477     A.U. after   10 cycles
            NFock= 10  Conv=0.44D-08     -V/T= 2.0029
 KE= 4.598034361047D+02 PE=-1.446187952728D+03 EE= 3.467487054303D+02
 SMD-CDS (non-electrostatic) energy       (kcal/mol) =       0.23
 (included in total energy above)
 Leave Link  502 at Wed Oct  5 09:44:26 2022, MaxMem=  2952790016 cpu:            1781.4 elap:             149.2
 (Enter /mnt/data/applications/G16/g16/l701.exe)
 ... and contract with generalized density number  0.
 Compute integral first derivatives.
 R6Disp: Adding Grimme-D2 dispersion energy 1st derivatives to the gradient.
   1 Symmetry operations used in ECPInt.
 ECPInt:  NShTT=    3403 NPrTT=   10140 LenC2=    3392 LenP2D=    8551.
 LDataN:  DoStor=T MaxTD1= 7 Len=  274
 D1PCM: PCM CHGder 1st derivatives, ID1Alg=3 FixD1E=F DoIter=F DoCFld=F I1PDM=0.
 GePol: Maximum number of non-zero 1st derivatives   =     230
 Leave Link  701 at Wed Oct  5 09:44:28 2022, MaxMem=  2952790016 cpu:              22.1 elap:               1.9
 (Enter /mnt/data/applications/G16/g16/l702.exe)
 L702 exits ... SP integral derivatives will be done elsewhere.
 Leave Link  702 at Wed Oct  5 09:44:28 2022, MaxMem=  2952790016 cpu:               0.2 elap:               0.0
 (Enter /mnt/data/applications/G16/g16/l703.exe)
 Integral derivatives from FoFJK, PRISM(SPDF).
 Compute integral first derivatives, UseDBF=F ICtDFT=           0.
 Calling FoFJK, ICntrl=      2127 FMM=F ISym2X=0 I1Cent= 0 IOpClX= 0 NMat=1 NMatS=1 NMatT=0.
 FoFJK:  IHMeth= 1 ICntrl=    2127 DoSepK=T KAlg= 0 I1Cent=           0 FoldK=F
 IRaf=         1 NMat=       1 IRICut=       1 DoRegI=T DoRafI=F ISym2E= 0 IDoP0=0 IntGTp=1.
 FoFCou: FMM=F IPFlag=           0 FMFlag=      100000 FMFlg1=         800
         NFxFlg=           0 DoJE=F BraDBF=F KetDBF=F FulRan=T
         wScrn=  0.000000 ICntrl=      2527 IOpCl=  0 I1Cent=           0 NGrid=           0
         NMat0=    1 NMatS0=      1 NMatT0=    0 NMatD0=    1 NMtDS0=    0 NMtDT0=    0
 Symmetry not used in FoFCou.
 Leave Link  703 at Wed Oct  5 09:44:42 2022, MaxMem=  2952790016 cpu:             162.7 elap:              13.6
 (Enter /mnt/data/applications/G16/g16/l716.exe)
 Dipole        =-1.61659482D-06-9.50304646D-04 6.57804502D-01
 ***** Axes restored to original set *****
 -------------------------------------------------------------------
 Center     Atomic                   Forces (Hartrees/Bohr)
 Number     Number              X              Y              Z
 -------------------------------------------------------------------
      1       15          -0.018513125    0.001754157   -0.000006501
      2        6           0.005314697    0.000310027    0.000669538
      3        6           0.005318788    0.000304168   -0.000671332
      4        6           0.004385743   -0.000188896    0.000003639
      5        1           0.000010192    0.000492071   -0.000017833
      6        1           0.001008989    0.001228527   -0.000002124
      7        1           0.000007137    0.000492915    0.000013934
      8        1           0.000078229   -0.000040326   -0.000543986
      9        1           0.000265702   -0.000845388   -0.000606171
     10        1           0.000890621   -0.001316985   -0.001507713
     11        1           0.000264852   -0.000840823    0.000609605
     12        1           0.000078267   -0.000039622    0.000544508
     13        1           0.000889908   -0.001309825    0.001514434
 -------------------------------------------------------------------
 Cartesian Forces:  Max     0.018513125 RMS     0.003352117
 Leave Link  716 at Wed Oct  5 09:44:42 2022, MaxMem=  2952790016 cpu:               0.2 elap:               0.0
 (Enter /mnt/data/applications/G16/g16/l103.exe)

 GradGradGradGradGradGradGradGradGradGradGradGradGradGradGradGradGradGrad
 Berny optimization.
 Using GEDIIS/GDIIS optimizer.
 FormGI is forming the generalized inverse of G from B-inverse, IUseBI=4.
 Internal  Forces:  Max     0.005236605 RMS     0.001856886
 Search for a local minimum.
 Step number   2 out of a maximum of   61
 All quantities printed in internal units (Hartrees-Bohrs-Radians)
 RMS Force = .18569D-02 SwitMx=.10000D-02 MixMth= 1
 Mixed Optimization -- RFO/linear search
 Update second derivatives using D2CorX and points    1    2
 DE= -1.36D-03 DEPred=-1.36D-03 R= 9.98D-01
 TightC=F SS=  1.41D+00  RLast= 9.54D-02 DXNew= 8.4090D-02 2.8634D-01
 Trust test= 9.98D-01 RLast= 9.54D-02 DXMaxT set to 8.41D-02
 ITU=  1  0
 Use linear search instead of GDIIS.
     Eigenvalues ---    0.00908   0.00947   0.00950   0.05491   0.07269
     Eigenvalues ---    0.07327   0.07328   0.07654   0.07695   0.07798
     Eigenvalues ---    0.13392   0.13572   0.15672   0.16000   0.16000
     Eigenvalues ---    0.16000   0.16000   0.16000   0.16000   0.16000
     Eigenvalues ---    0.18029   0.23190   0.24724   0.24881   0.34581
     Eigenvalues ---    0.34599   0.34644   0.34680   0.34707   0.34734
     Eigenvalues ---    0.34803   0.34827   0.35088
 RFO step:  Lambda=-2.00165979D-04 EMin= 9.07884560D-03
 Quartic linear search produced a step of  1.45768.
 Iteration  1 RMS(Cart)=  0.02540444 RMS(Int)=  0.00092402
 Iteration  2 RMS(Cart)=  0.00157650 RMS(Int)=  0.00061223
 Iteration  3 RMS(Cart)=  0.00000085 RMS(Int)=  0.00061223
 ITry= 1 IFail=0 DXMaxC= 1.12D-01 DCOld= 1.00D+10 DXMaxT= 8.41D-02 DXLimC= 3.00D+00 Rises=F
 Variable       Old X    -DE/DX   Delta X   Delta X   Delta X     New X
                                 (Linear)    (Quad)   (Total)
    R1        3.44281   0.00524   0.01557   0.01189   0.02746   3.47027
    R2        3.44280   0.00524   0.01557   0.01190   0.02747   3.47027
    R3        3.44659   0.00430   0.01233   0.01129   0.02362   3.47021
    R4        2.06131   0.00042   0.00032   0.00216   0.00248   2.06379
    R5        2.06045   0.00075   0.00130   0.00196   0.00326   2.06372
    R6        2.06566   0.00076   0.00298  -0.00218   0.00080   2.06646
    R7        2.06046   0.00074   0.00129   0.00196   0.00326   2.06372
    R8        2.06131   0.00042   0.00032   0.00216   0.00248   2.06379
    R9        2.06566   0.00076   0.00298  -0.00218   0.00080   2.06646
   R10        2.06203   0.00026   0.00007   0.00170   0.00177   2.06380
   R11        2.06542   0.00089   0.00339  -0.00225   0.00114   2.06655
   R12        2.06203   0.00026   0.00007   0.00170   0.00176   2.06380
    A1        1.78660  -0.00295  -0.03784  -0.00379  -0.04360   1.74300
    A2        1.77691  -0.00172  -0.03057  -0.00132  -0.03420   1.74271
    A3        1.77692  -0.00172  -0.03058  -0.00132  -0.03421   1.74271
    A4        1.90664  -0.00013  -0.00420   0.00833   0.00409   1.91073
    A5        1.90551   0.00046  -0.00044   0.00636   0.00589   1.91139
    A6        1.95250   0.00281   0.02045  -0.00752   0.01287   1.96536
    A7        1.88638  -0.00058  -0.00393  -0.00375  -0.00769   1.87869
    A8        1.90341  -0.00109  -0.00469  -0.00103  -0.00577   1.89764
    A9        1.90825  -0.00157  -0.00789  -0.00232  -0.01026   1.89798
   A10        1.90550   0.00045  -0.00044   0.00637   0.00589   1.91139
   A11        1.90664  -0.00013  -0.00420   0.00833   0.00409   1.91073
   A12        1.95250   0.00281   0.02046  -0.00752   0.01288   1.96537
   A13        1.88640  -0.00058  -0.00393  -0.00376  -0.00771   1.87869
   A14        1.90822  -0.00157  -0.00788  -0.00231  -0.01025   1.89798
   A15        1.90342  -0.00109  -0.00470  -0.00103  -0.00579   1.89764
   A16        1.90805   0.00008  -0.00244   0.00632   0.00386   1.91191
   A17        1.95689   0.00188   0.01527  -0.00800   0.00723   1.96412
   A18        1.90804   0.00008  -0.00243   0.00632   0.00387   1.91190
   A19        1.90155  -0.00081  -0.00359  -0.00044  -0.00405   1.89750
   A20        1.88648  -0.00053  -0.00383  -0.00373  -0.00756   1.87892
   A21        1.90152  -0.00080  -0.00358  -0.00042  -0.00403   1.89749
    D1       -3.05402   0.00137   0.02708   0.00937   0.03589  -3.01813
    D2        1.16969   0.00188   0.03453   0.00537   0.03938   1.20907
    D3       -0.94482   0.00173   0.03154   0.00885   0.03984  -0.90498
    D4       -1.22032  -0.00175  -0.02618   0.00655  -0.01909  -1.23941
    D5        3.00339  -0.00124  -0.01873   0.00256  -0.01561   2.98779
    D6        0.88888  -0.00140  -0.02172   0.00603  -0.01514   0.87374
    D7       -1.16980  -0.00188  -0.03451  -0.00534  -0.03932  -1.20912
    D8        3.05390  -0.00137  -0.02705  -0.00933  -0.03582   3.01808
    D9        0.94468  -0.00173  -0.03150  -0.00880  -0.03976   0.90493
   D10       -3.00350   0.00124   0.01874  -0.00252   0.01565  -2.98784
   D11        1.22020   0.00175   0.02620  -0.00651   0.01916   1.23936
   D12       -0.88902   0.00140   0.02175  -0.00599   0.01522  -0.87380
   D13        1.19037   0.00230   0.03290   0.00083   0.03333   1.22370
   D14       -0.92030   0.00203   0.02916   0.00229   0.03104  -0.88927
   D15       -3.03092   0.00176   0.02540   0.00372   0.02870  -3.00222
   D16        3.03166  -0.00176  -0.02551  -0.00390  -0.02900   3.00266
   D17        0.92099  -0.00203  -0.02925  -0.00245  -0.03130   0.88969
   D18       -1.18963  -0.00231  -0.03302  -0.00101  -0.03363  -1.22326
         Item               Value     Threshold  Converged?
 Maximum Force            0.005237     0.000450     NO 
 RMS     Force            0.001857     0.000300     NO 
 Maximum Displacement     0.111766     0.001800     NO 
 RMS     Displacement     0.026312     0.001200     NO 
 Predicted change in Energy=-9.318501D-04
 Lowest energy point so far.  Saving SCF results.
 GradGradGradGradGradGradGradGradGradGradGradGradGradGradGradGradGradGrad

 Leave Link  103 at Wed Oct  5 09:44:42 2022, MaxMem=  2952790016 cpu:               0.2 elap:               0.0
 (Enter /mnt/data/applications/G16/g16/l202.exe)
                          Input orientation:                          
 ---------------------------------------------------------------------
 Center     Atomic      Atomic             Coordinates (Angstroms)
 Number     Number       Type             X           Y           Z
 ---------------------------------------------------------------------
      1         15           0        1.539337   -0.164230   -0.000053
      2          6           0        2.383401   -0.994466   -1.403829
      3          6           0        2.382872   -0.989579    1.406921
      4          6           0        2.430716    1.441274   -0.002668
      5          1           0        2.143766    2.017041   -0.885200
      6          1           0        3.517251    1.317414   -0.002461
      7          1           0        2.143762    2.019901    0.877991
      8          1           0        2.081494   -0.522113   -2.341083
      9          1           0        2.075835   -2.041451   -1.446772
     10          1           0        3.473151   -0.951298   -1.324018
     11          1           0        2.075248   -2.036395    1.453418
     12          1           0        2.080649   -0.513939    2.342406
     13          1           0        3.472653   -0.946739    1.327350
 ---------------------------------------------------------------------
                    Distance matrix (angstroms):
                    1          2          3          4          5
     1  P    0.000000
     2  C    1.836388   0.000000
     3  C    1.836389   2.810754   0.000000
     4  C    1.836356   2.810394   2.810387   0.000000
     5  H    2.430384   3.065220   3.788239   1.092113   0.000000
     6  H    2.471319   2.931593   2.931790   1.093572   1.776279
     7  H    2.430374   3.788210   3.064948   1.092114   1.763194
     8  H    2.429493   1.092112   3.789048   3.073276   2.927589
     9  H    2.429976   1.092071   3.056840   3.786918   4.097724
    10  H    2.472245   1.093522   2.940782   2.925241   3.281899
    11  H    2.429975   3.056867   1.092071   3.786915   4.680190
    12  H    2.429492   3.789043   1.092111   3.073235   4.102108
    13  H    2.472252   2.940764   1.093522   2.925267   3.930053
                    6          7          8          9         10
     6  H    0.000000
     7  H    1.776276   0.000000
     8  H    3.303697   4.102213   0.000000
     9  H    3.930101   4.680141   1.763012   0.000000
    10  H    2.625931   3.929903   1.776325   1.776512   0.000000
    11  H    3.930266   4.097481   4.085501   2.900194   3.293283
    12  H    3.303950   2.927257   4.683496   4.085485   3.946266
    13  H    2.626172   3.281589   3.946268   3.293213   2.651372
                   11         12         13
    11  H    0.000000
    12  H    1.763010   0.000000
    13  H    1.776509   1.776325   0.000000
 Stoichiometry    C3H9P
 Framework group  C1[X(C3H9P)]
 Deg. of freedom    33
 Full point group                 C1      NOp   1
 RotChk:  IX=0 Diff= 1.65D-02
 Largest Abelian subgroup         C1      NOp   1
 Largest concise Abelian subgroup C1      NOp   1
                         Standard orientation:                         
 ---------------------------------------------------------------------
 Center     Atomic      Atomic             Coordinates (Angstroms)
 Number     Number       Type             X           Y           Z
 ---------------------------------------------------------------------
      1         15           0        0.000005   -0.000150   -0.587817
      2          6           0        1.414128   -0.795812    0.272125
      3          6           0       -1.396460   -0.826416    0.272123
      4          6           0       -0.017673    1.622506    0.271764
      5          1           0        0.857528    2.203604   -0.026666
      6          1           0       -0.016346    1.520081    1.360529
      7          1           0       -0.905559    2.184206   -0.026336
      8          1           0        2.345352   -0.317706   -0.039235
      9          1           0        1.470293   -1.848028   -0.014768
     10          1           0        1.333748   -0.732198    1.360832
     11          1           0       -1.429729   -1.879593   -0.014811
     12          1           0       -2.337868   -0.368667   -0.039203
     13          1           0       -1.317466   -0.761117    1.360832
 ---------------------------------------------------------------------
 Rotational constants (GHZ):           5.8432929           5.8418590           3.7274093
 Leave Link  202 at Wed Oct  5 09:44:42 2022, MaxMem=  2952790016 cpu:               0.1 elap:               0.0
 (Enter /mnt/data/applications/G16/g16/l301.exe)
 Standard basis: def2TZVP (5D, 7F)
 Ernie: Thresh=  0.10000D-02 Tol=  0.10000D-05 Strict=F.
 There are   204 symmetry adapted cartesian basis functions of A   symmetry.
 There are   184 symmetry adapted basis functions of A   symmetry.
   184 basis functions,   294 primitive gaussians,   204 cartesian basis functions
    21 alpha electrons       21 beta electrons
       nuclear repulsion energy       177.9865433090 Hartrees.
 IExCor= 4639 DFT=T Ex+Corr=wB97XD ExCW=0 ScaHFX=  1.000000
 ScaDFX=  1.000000  1.000000  1.000000  1.000000 ScalE2=  1.000000  1.000000
 IRadAn=      5 IRanWt=     -1 IRanGd=            0 ICorTp=0 IEmpDi=121
 HFx  wShort=  0.000000 wLong=  0.200000 cFull=  0.222036 cShort=  0.000000 cLong=  0.777964
 DFx  wShort=  0.000000 wLong=  0.200000 cFull=  0.000000 cShort=  0.000000 cLong=  1.000000
 NAtoms=   13 NActive=   13 NUniq=   13 SFac= 1.00D+00 NAtFMM=   60 NAOKFM=F Big=F
 Integral buffers will be    131072 words long.
 Raffenetti 2 integral format.
 Two-electron integral symmetry is turned on.
 R6Disp:  Grimme-D2 Dispersion energy=       -0.0052420399 Hartrees.
 Nuclear repulsion after empirical dispersion term =      177.9813012691 Hartrees.
 ------------------------------------------------------------------------------
 Polarizable Continuum Model (PCM)
 =================================
 Model                : PCM.
 Atomic radii         : SMD-Coulomb.
 Polarization charges : Total charges.
 Charge compensation  : None.
 Solution method      : On-the-fly selection.
 Cavity type          : VdW (van der Waals Surface) (Alpha=1.000).
 Cavity algorithm     : GePol (No added spheres)
                        Default sphere list used, NSphG=   13.
                        Lebedev-Laikov grids with approx.  5.0 points / Ang**2.
                        Smoothing algorithm: York/Karplus (Gamma=1.0000).
                        Polarization charges: spherical gaussians, with
                                              point-specific exponents (IZeta= 3).
                        Self-potential: point-specific (ISelfS= 7).
                        Self-field    : sphere-specific E.n sum rule (ISelfD= 2).
 1st derivatives      : Analytical E(r).r(x)/FMM algorithm (CHGder, D1EAlg=3).
                        Cavity 1st derivative terms included.
 Solvent              : Toluene, Eps=   2.374100 Eps(inf)=   2.238315
 ------------------------------------------------------------------------------
 Spheres list:
 ISph  on   Nord     Re0    Alpha      Xe            Ye            Ze
    1   P      1    2.1200  1.000      0.000005     -0.000150     -0.587817
    2   C      2    1.8500  1.000      1.414128     -0.795812      0.272125
    3   C      3    1.8500  1.000     -1.396460     -0.826416      0.272123
    4   C      4    1.8500  1.000     -0.017673      1.622506      0.271764
    5   H      5    1.2000  1.000      0.857528      2.203604     -0.026666
    6   H      6    1.2000  1.000     -0.016346      1.520081      1.360529
    7   H      7    1.2000  1.000     -0.905559      2.184206     -0.026336
    8   H      8    1.2000  1.000      2.345352     -0.317706     -0.039235
    9   H      9    1.2000  1.000      1.470293     -1.848028     -0.014768
   10   H     10    1.2000  1.000      1.333748     -0.732198      1.360832
   11   H     11    1.2000  1.000     -1.429729     -1.879593     -0.014811
   12   H     12    1.2000  1.000     -2.337868     -0.368667     -0.039203
   13   H     13    1.2000  1.000     -1.317466     -0.761117      1.360832
 ------------------------------------------------------------------------------
 GePol: Number of generator spheres                  =      13
 GePol: Total number of spheres                      =      13
 GePol: Number of exposed spheres                    =      13 (100.00%)
 GePol: Number of points                             =     998
 GePol: Average weight of points                     =       0.12
 GePol: Minimum weight of points                     =   0.23D-08
 GePol: Maximum weight of points                     =    0.20615
 GePol: Number of points with low weight             =      65
 GePol: Fraction of low-weight points (<1% of avg)   =       6.51%
 GePol: Cavity surface area                          =    120.705 Ang**2
 GePol: Cavity volume                                =     95.440 Ang**3
 ------------------------------------------------------------------------------
 Atomic radii for non-electrostatic terms: SMD-CDS.
 ------------------------------------------------------------------------------
 PCM non-electrostatic energy =         0.0003179930 Hartrees.
 Nuclear repulsion after PCM non-electrostatic terms =      177.9816192621 Hartrees.
 Leave Link  301 at Wed Oct  5 09:44:42 2022, MaxMem=  2952790016 cpu:               1.2 elap:               0.1
 (Enter /mnt/data/applications/G16/g16/l302.exe)
 NPDir=0 NMtPBC=     1 NCelOv=     1 NCel=       1 NClECP=     1 NCelD=      1
         NCelK=      1 NCelE2=     1 NClLst=     1 CellRange=     0.0.
 One-electron integrals computed using PRISM.
 One-electron integral symmetry used in STVInt
   1 Symmetry operations used in ECPInt.
 ECPInt:  NShTT=    3403 NPrTT=   10140 LenC2=    3392 LenP2D=    8548.
 LDataN:  DoStor=T MaxTD1= 6 Len=  172
 NBasis=   184 RedAO= T EigKep=  9.87D-04  NBF=   184
 NBsUse=   184 1.00D-06 EigRej= -1.00D+00 NBFU=   184
 Precomputing XC quadrature grid using
 IXCGrd= 4 IRadAn=           5 IRanWt=          -1 IRanGd=           0 AccXCQ= 0.00D+00.
 Generated NRdTot=       0 NPtTot=           0 NUsed=           0 NTot=          32
 NSgBfM=   204   204   204   204   204 MxSgAt=    13 MxSgA2=    13.
 Leave Link  302 at Wed Oct  5 09:44:43 2022, MaxMem=  2952790016 cpu:               5.0 elap:               0.4
 (Enter /mnt/data/applications/G16/g16/l303.exe)
 DipDrv:  MaxL=1.
 Leave Link  303 at Wed Oct  5 09:44:43 2022, MaxMem=  2952790016 cpu:               0.5 elap:               0.1
 (Enter /mnt/data/applications/G16/g16/l401.exe)
 Initial guess from the checkpoint file:  "PMe3.chk"
 B after Tr=    -0.000000   -0.000000   -0.000000
         Rot=    0.999983   -0.002001   -0.000005   -0.005408 Ang=  -0.66 deg.
 Guess basis will be translated and rotated to current coordinates.
 JPrj=2 DoOrth=T DoCkMO=T.
 Generating alternative initial guess.
 ExpMin= 9.04D-02 ExpMax= 5.24D+04 ExpMxC= 1.79D+03 IAcc=2 IRadAn=         4 AccDes= 0.00D+00
 Harris functional with IExCor= 4639 and IRadAn=       4 diagonalized for initial guess.
 HarFok:  IExCor= 4639 AccDes= 0.00D+00 IRadAn=         4 IDoV= 1 UseB2=F ITyADJ=14
 ICtDFT=  3500011 ScaDFX=  1.000000  1.000000  1.000000  1.000000
 FoFCou: FMM=F IPFlag=           0 FMFlag=      100000 FMFlg1=           0
         NFxFlg=           0 DoJE=T BraDBF=F KetDBF=T FulRan=T
         wScrn=  0.000000 ICntrl=       500 IOpCl=  0 I1Cent=   200000004 NGrid=           0
         NMat0=    1 NMatS0=      1 NMatT0=    0 NMatD0=    1 NMtDS0=    0 NMtDT0=    0
 Petite list used in FoFCou.
 Harris En= -448.543360744218    
 Leave Link  401 at Wed Oct  5 09:44:44 2022, MaxMem=  2952790016 cpu:              12.8 elap:               1.1
 (Enter /mnt/data/applications/G16/g16/l502.exe)
 Integral symmetry usage will be decided dynamically.
 Closed shell SCF:
 Using DIIS extrapolation, IDIIS=  1040.
 NGot=  2952790016 LenX=  2952702271 LenY=  2952660214
 Requested convergence on RMS density matrix=1.00D-08 within 128 cycles.
 Requested convergence on MAX density matrix=1.00D-06.
 Requested convergence on             energy=1.00D-06.
 No special actions if energy rises.
 Fock matrices will be formed incrementally for  20 cycles.

 Cycle   1  Pass 1  IDiag  1:
 FoFJK:  IHMeth= 1 ICntrl=       0 DoSepK=T KAlg= 0 I1Cent=           0 FoldK=F
 IRaf=         1 NMat=       1 IRICut=       1 DoRegI=T DoRafI=F ISym2E= 0 IDoP0=0 IntGTp=1.
 FoFCou: FMM=F IPFlag=           0 FMFlag=      100000 FMFlg1=           0
         NFxFlg=           0 DoJE=T BraDBF=F KetDBF=F FulRan=T
         wScrn=  0.000000 ICntrl=       500 IOpCl=  0 I1Cent=           0 NGrid=           0
         NMat0=    1 NMatS0=      1 NMatT0=    0 NMatD0=    1 NMtDS0=    0 NMtDT0=    0
 Symmetry not used in FoFCou.
 Inv3:  Mode=1 IEnd=     2988012.
 Iteration    1 A*A^-1 deviation from unit magnitude is 2.22D-15 for    466.
 Iteration    1 A*A^-1 deviation from orthogonality  is 9.13D-16 for    779    336.
 Iteration    1 A^-1*A deviation from unit magnitude is 2.22D-15 for    466.
 Iteration    1 A^-1*A deviation from orthogonality  is 9.65D-16 for    501    102.
 E= -461.119225587491    
 DIIS: error= 2.88D-03 at cycle   1 NSaved=   1.
 NSaved= 1 IEnMin= 1 EnMin= -461.119225587491     IErMin= 1 ErrMin= 2.88D-03
 ErrMax= 2.88D-03  0.00D+00 EMaxC= 1.00D-01 BMatC= 9.73D-04 BMatP= 9.73D-04
 IDIUse=3 WtCom= 9.71D-01 WtEn= 2.88D-02
 Coeff-Com:  0.100D+01
 Coeff-En:   0.100D+01
 Coeff:      0.100D+01
 Gap=     0.676 Goal=   None    Shift=    0.000
 GapD=    0.676 DampG=2.000 DampE=1.000 DampFc=2.0000 IDamp=-1.
 RMSDP=1.55D-04 MaxDP=5.90D-03              OVMax= 8.70D-03

 Cycle   2  Pass 1  IDiag  1:
 RMSU=  1.55D-04    CP:  1.00D+00
 E= -461.120170458550     Delta-E=       -0.000944871060 Rises=F Damp=F
 DIIS: error= 4.24D-04 at cycle   2 NSaved=   2.
 NSaved= 2 IEnMin= 2 EnMin= -461.120170458550     IErMin= 2 ErrMin= 4.24D-04
 ErrMax= 4.24D-04  0.00D+00 EMaxC= 1.00D-01 BMatC= 2.82D-05 BMatP= 9.73D-04
 IDIUse=3 WtCom= 9.96D-01 WtEn= 4.24D-03
 Coeff-Com: -0.668D-01 0.107D+01
 Coeff-En:   0.000D+00 0.100D+01
 Coeff:     -0.665D-01 0.107D+01
 Gap=     0.413 Goal=   None    Shift=    0.000
 RMSDP=5.74D-05 MaxDP=3.53D-03 DE=-9.45D-04 OVMax= 3.72D-03

 Cycle   3  Pass 1  IDiag  1:
 RMSU=  3.84D-05    CP:  1.00D+00  1.27D+00
 E= -461.120226464802     Delta-E=       -0.000056006252 Rises=F Damp=F
 DIIS: error= 2.14D-04 at cycle   3 NSaved=   3.
 NSaved= 3 IEnMin= 3 EnMin= -461.120226464802     IErMin= 3 ErrMin= 2.14D-04
 ErrMax= 2.14D-04  0.00D+00 EMaxC= 1.00D-01 BMatC= 6.95D-06 BMatP= 2.82D-05
 IDIUse=3 WtCom= 9.98D-01 WtEn= 2.14D-03
 Coeff-Com: -0.413D-01 0.314D+00 0.728D+00
 Coeff-En:   0.000D+00 0.000D+00 0.100D+01
 Coeff:     -0.412D-01 0.313D+00 0.728D+00
 Gap=     0.413 Goal=   None    Shift=    0.000
 RMSDP=1.63D-05 MaxDP=7.54D-04 DE=-5.60D-05 OVMax= 8.50D-04

 Cycle   4  Pass 1  IDiag  1:
 RMSU=  1.38D-05    CP:  1.00D+00  1.32D+00  1.09D+00
 E= -461.120234694468     Delta-E=       -0.000008229666 Rises=F Damp=F
 DIIS: error= 6.29D-05 at cycle   4 NSaved=   4.
 NSaved= 4 IEnMin= 4 EnMin= -461.120234694468     IErMin= 4 ErrMin= 6.29D-05
 ErrMax= 6.29D-05  0.00D+00 EMaxC= 1.00D-01 BMatC= 6.45D-07 BMatP= 6.95D-06
 IDIUse=1 WtCom= 1.00D+00 WtEn= 0.00D+00
 Coeff-Com:  0.316D-02-0.112D+00 0.131D+00 0.978D+00
 Coeff:      0.316D-02-0.112D+00 0.131D+00 0.978D+00
 Gap=     0.413 Goal=   None    Shift=    0.000
 RMSDP=1.15D-05 MaxDP=5.88D-04 DE=-8.23D-06 OVMax= 5.59D-04

 Cycle   5  Pass 1  IDiag  1:
 RMSU=  3.18D-06    CP:  1.00D+00  1.36D+00  1.32D+00  1.27D+00
 E= -461.120235750940     Delta-E=       -0.000001056472 Rises=F Damp=F
 DIIS: error= 7.82D-06 at cycle   5 NSaved=   5.
 NSaved= 5 IEnMin= 5 EnMin= -461.120235750940     IErMin= 5 ErrMin= 7.82D-06
 ErrMax= 7.82D-06  0.00D+00 EMaxC= 1.00D-01 BMatC= 1.12D-08 BMatP= 6.45D-07
 IDIUse=1 WtCom= 1.00D+00 WtEn= 0.00D+00
 Coeff-Com:  0.126D-02-0.208D-01 0.740D-04 0.126D+00 0.893D+00
 Coeff:      0.126D-02-0.208D-01 0.740D-04 0.126D+00 0.893D+00
 Gap=     0.413 Goal=   None    Shift=    0.000
 RMSDP=2.44D-06 MaxDP=1.15D-04 DE=-1.06D-06 OVMax= 9.38D-05

 Cycle   6  Pass 1  IDiag  1:
 RMSU=  8.53D-07    CP:  1.00D+00  1.36D+00  1.37D+00  1.36D+00  1.20D+00
 E= -461.120235772263     Delta-E=       -0.000000021322 Rises=F Damp=F
 DIIS: error= 4.08D-06 at cycle   6 NSaved=   6.
 NSaved= 6 IEnMin= 6 EnMin= -461.120235772263     IErMin= 6 ErrMin= 4.08D-06
 ErrMax= 4.08D-06  0.00D+00 EMaxC= 1.00D-01 BMatC= 2.30D-09 BMatP= 1.12D-08
 IDIUse=1 WtCom= 1.00D+00 WtEn= 0.00D+00
 Coeff-Com:  0.121D-03 0.343D-02-0.126D-01-0.496D-01 0.274D+00 0.785D+00
 Coeff:      0.121D-03 0.343D-02-0.126D-01-0.496D-01 0.274D+00 0.785D+00
 Gap=     0.413 Goal=   None    Shift=    0.000
 RMSDP=9.35D-07 MaxDP=5.66D-05 DE=-2.13D-08 OVMax= 3.04D-05

 Cycle   7  Pass 1  IDiag  1:
 RMSU=  1.85D-07    CP:  1.00D+00  1.36D+00  1.38D+00  1.40D+00  1.35D+00
                    CP:  1.02D+00
 E= -461.120235775636     Delta-E=       -0.000000003373 Rises=F Damp=F
 DIIS: error= 7.33D-07 at cycle   7 NSaved=   7.
 NSaved= 7 IEnMin= 7 EnMin= -461.120235775636     IErMin= 7 ErrMin= 7.33D-07
 ErrMax= 7.33D-07  0.00D+00 EMaxC= 1.00D-01 BMatC= 9.87D-11 BMatP= 2.30D-09
 IDIUse=1 WtCom= 1.00D+00 WtEn= 0.00D+00
 Coeff-Com: -0.101D-03 0.304D-02-0.336D-02-0.248D-01-0.965D-02 0.114D+00
 Coeff-Com:  0.921D+00
 Coeff:     -0.101D-03 0.304D-02-0.336D-02-0.248D-01-0.965D-02 0.114D+00
 Coeff:      0.921D+00
 Gap=     0.413 Goal=   None    Shift=    0.000
 RMSDP=3.38D-07 MaxDP=1.86D-05 DE=-3.37D-09 OVMax= 1.20D-05

 Cycle   8  Pass 1  IDiag  1:
 RMSU=  4.68D-08    CP:  1.00D+00  1.36D+00  1.38D+00  1.41D+00  1.39D+00
                    CP:  1.11D+00  1.44D+00
 E= -461.120235775857     Delta-E=       -0.000000000221 Rises=F Damp=F
 DIIS: error= 2.00D-07 at cycle   8 NSaved=   8.
 NSaved= 8 IEnMin= 8 EnMin= -461.120235775857     IErMin= 8 ErrMin= 2.00D-07
 ErrMax= 2.00D-07  0.00D+00 EMaxC= 1.00D-01 BMatC= 8.27D-12 BMatP= 9.87D-11
 IDIUse=1 WtCom= 1.00D+00 WtEn= 0.00D+00
 Coeff-Com: -0.181D-04 0.161D-03 0.246D-03 0.145D-03-0.180D-01-0.260D-01
 Coeff-Com:  0.699D-01 0.974D+00
 Coeff:     -0.181D-04 0.161D-03 0.246D-03 0.145D-03-0.180D-01-0.260D-01
 Coeff:      0.699D-01 0.974D+00
 Gap=     0.413 Goal=   None    Shift=    0.000
 RMSDP=8.67D-08 MaxDP=4.28D-06 DE=-2.21D-10 OVMax= 3.43D-06

 Cycle   9  Pass 1  IDiag  1:
 RMSU=  1.81D-08    CP:  1.00D+00  1.36D+00  1.39D+00  1.41D+00  1.40D+00
                    CP:  1.14D+00  1.66D+00  1.32D+00
 E= -461.120235775880     Delta-E=       -0.000000000023 Rises=F Damp=F
 DIIS: error= 1.01D-07 at cycle   9 NSaved=   9.
 NSaved= 9 IEnMin= 9 EnMin= -461.120235775880     IErMin= 9 ErrMin= 1.01D-07
 ErrMax= 1.01D-07  0.00D+00 EMaxC= 1.00D-01 BMatC= 2.46D-12 BMatP= 8.27D-12
 IDIUse=1 WtCom= 1.00D+00 WtEn= 0.00D+00
 Coeff-Com:  0.622D-05-0.364D-03 0.583D-03 0.365D-02-0.720D-02-0.261D-01
 Coeff-Com: -0.942D-01 0.388D+00 0.736D+00
 Coeff:      0.622D-05-0.364D-03 0.583D-03 0.365D-02-0.720D-02-0.261D-01
 Coeff:     -0.942D-01 0.388D+00 0.736D+00
 Gap=     0.413 Goal=   None    Shift=    0.000
 RMSDP=2.54D-08 MaxDP=1.21D-06 DE=-2.33D-11 OVMax= 1.15D-06

 Cycle  10  Pass 1  IDiag  1:
 RMSU=  5.04D-09    CP:  1.00D+00  1.36D+00  1.39D+00  1.41D+00  1.40D+00
                    CP:  1.15D+00  1.74D+00  1.56D+00  1.10D+00
 E= -461.120235775888     Delta-E=       -0.000000000008 Rises=F Damp=F
 DIIS: error= 1.61D-08 at cycle  10 NSaved=  10.
 NSaved=10 IEnMin=10 EnMin= -461.120235775888     IErMin=10 ErrMin= 1.61D-08
 ErrMax= 1.61D-08  0.00D+00 EMaxC= 1.00D-01 BMatC= 3.80D-14 BMatP= 2.46D-12
 IDIUse=1 WtCom= 1.00D+00 WtEn= 0.00D+00
 Coeff-Com:  0.662D-06 0.118D-04-0.479D-04-0.202D-03 0.180D-02 0.296D-02
 Coeff-Com:  0.163D-02-0.870D-01-0.390D-01 0.112D+01
 Coeff:      0.662D-06 0.118D-04-0.479D-04-0.202D-03 0.180D-02 0.296D-02
 Coeff:      0.163D-02-0.870D-01-0.390D-01 0.112D+01
 Gap=     0.413 Goal=   None    Shift=    0.000
 RMSDP=7.60D-09 MaxDP=2.16D-07 DE=-7.62D-12 OVMax= 3.30D-07

 Error on total polarization charges =  0.02917
 SCF Done:  E(RwB97XD) =  -461.120235776     A.U. after   10 cycles
            NFock= 10  Conv=0.76D-08     -V/T= 2.0030
 KE= 4.597457132243D+02 PE=-1.445062415927D+03 EE= 3.462148476648D+02
 SMD-CDS (non-electrostatic) energy       (kcal/mol) =       0.20
 (included in total energy above)
 Leave Link  502 at Wed Oct  5 09:47:13 2022, MaxMem=  2952790016 cpu:            1787.0 elap:             149.6
 (Enter /mnt/data/applications/G16/g16/l701.exe)
 ... and contract with generalized density number  0.
 Compute integral first derivatives.
 R6Disp: Adding Grimme-D2 dispersion energy 1st derivatives to the gradient.
   1 Symmetry operations used in ECPInt.
 ECPInt:  NShTT=    3403 NPrTT=   10140 LenC2=    3392 LenP2D=    8548.
 LDataN:  DoStor=T MaxTD1= 7 Len=  274
 D1PCM: PCM CHGder 1st derivatives, ID1Alg=3 FixD1E=F DoIter=F DoCFld=F I1PDM=0.
 GePol: Maximum number of non-zero 1st derivatives   =     232
 Leave Link  701 at Wed Oct  5 09:47:15 2022, MaxMem=  2952790016 cpu:              20.3 elap:               1.7
 (Enter /mnt/data/applications/G16/g16/l702.exe)
 L702 exits ... SP integral derivatives will be done elsewhere.
 Leave Link  702 at Wed Oct  5 09:47:15 2022, MaxMem=  2952790016 cpu:               0.2 elap:               0.0
 (Enter /mnt/data/applications/G16/g16/l703.exe)
 Integral derivatives from FoFJK, PRISM(SPDF).
 Compute integral first derivatives, UseDBF=F ICtDFT=           0.
 Calling FoFJK, ICntrl=      2127 FMM=F ISym2X=0 I1Cent= 0 IOpClX= 0 NMat=1 NMatS=1 NMatT=0.
 FoFJK:  IHMeth= 1 ICntrl=    2127 DoSepK=T KAlg= 0 I1Cent=           0 FoldK=F
 IRaf=         1 NMat=       1 IRICut=       1 DoRegI=T DoRafI=F ISym2E= 0 IDoP0=0 IntGTp=1.
 FoFCou: FMM=F IPFlag=           0 FMFlag=      100000 FMFlg1=         800
         NFxFlg=           0 DoJE=F BraDBF=F KetDBF=F FulRan=T
         wScrn=  0.000000 ICntrl=      2527 IOpCl=  0 I1Cent=           0 NGrid=           0
         NMat0=    1 NMatS0=      1 NMatT0=    0 NMatD0=    1 NMtDS0=    0 NMtDT0=    0
 Symmetry not used in FoFCou.
 Leave Link  703 at Wed Oct  5 09:47:29 2022, MaxMem=  2952790016 cpu:             163.1 elap:              13.6
 (Enter /mnt/data/applications/G16/g16/l716.exe)
 Dipole        = 3.03002121D-05 6.74027646D-04 6.25878125D-01
 ***** Axes restored to original set *****
 -------------------------------------------------------------------
 Center     Atomic                   Forces (Hartrees/Bohr)
 Number     Number              X              Y              Z
 -------------------------------------------------------------------
      1       15          -0.000198144   -0.000094894    0.000007417
      2        6           0.000113908   -0.000223101   -0.000606625
      3        6           0.000122414   -0.000223841    0.000591676
      4        6           0.000174789    0.000681326    0.000002756
      5        1          -0.000021704    0.000005244    0.000059482
      6        1          -0.000119507   -0.000240748    0.000000236
      7        1          -0.000025979    0.000008958   -0.000064071
      8        1           0.000076987   -0.000062225   -0.000009189
      9        1          -0.000033299    0.000044049   -0.000072888
     10        1          -0.000066535    0.000065748    0.000263542
     11        1          -0.000032824    0.000044692    0.000075675
     12        1           0.000077227   -0.000071882    0.000014177
     13        1          -0.000067333    0.000066675   -0.000262187
 -------------------------------------------------------------------
 Cartesian Forces:  Max     0.000681326 RMS     0.000206587
 Leave Link  716 at Wed Oct  5 09:47:29 2022, MaxMem=  2952790016 cpu:               0.3 elap:               0.0
 (Enter /mnt/data/applications/G16/g16/l103.exe)

 GradGradGradGradGradGradGradGradGradGradGradGradGradGradGradGradGradGrad
 Berny optimization.
 Using GEDIIS/GDIIS optimizer.
 FormGI is forming the generalized inverse of G from B-inverse, IUseBI=4.
 Internal  Forces:  Max     0.000447550 RMS     0.000164446
 Search for a local minimum.
 Step number   3 out of a maximum of   61
 All quantities printed in internal units (Hartrees-Bohrs-Radians)
 RMS Force = .16445D-03 SwitMx=.10000D-02 MixMth= 2
 Mixed Optimization -- En-DIIS/RFO-DIIS
 Update second derivatives using D2CorX and points    1    2    3
 DE= -8.87D-04 DEPred=-9.32D-04 R= 9.52D-01
 TightC=F SS=  1.41D+00  RLast= 1.54D-01 DXNew= 1.4142D-01 4.6201D-01
 Trust test= 9.52D-01 RLast= 1.54D-01 DXMaxT set to 1.41D-01
 ITU=  1  1  0
 Use linear search instead of GDIIS.
     Eigenvalues ---    0.00908   0.00944   0.00950   0.05972   0.07194
     Eigenvalues ---    0.07212   0.07216   0.07612   0.07638   0.07812
     Eigenvalues ---    0.12849   0.12880   0.15740   0.16000   0.16000
     Eigenvalues ---    0.16000   0.16000   0.16000   0.16000   0.16002
     Eigenvalues ---    0.18847   0.22742   0.24725   0.24881   0.34581
     Eigenvalues ---    0.34599   0.34664   0.34680   0.34713   0.34734
     Eigenvalues ---    0.34807   0.34827   0.35123
 RFO step:  Lambda=-1.06158708D-05 EMin= 9.07881402D-03
 Quartic linear search produced a step of  0.01793.
 Iteration  1 RMS(Cart)=  0.00417848 RMS(Int)=  0.00001412
 Iteration  2 RMS(Cart)=  0.00001226 RMS(Int)=  0.00000724
 Iteration  3 RMS(Cart)=  0.00000000 RMS(Int)=  0.00000724
 ITry= 1 IFail=0 DXMaxC= 1.20D-02 DCOld= 1.00D+10 DXMaxT= 1.41D-01 DXLimC= 3.00D+00 Rises=F
 Variable       Old X    -DE/DX   Delta X   Delta X   Delta X     New X
                                 (Linear)    (Quad)   (Total)
    R1        3.47027   0.00045   0.00049   0.00167   0.00216   3.47243
    R2        3.47027   0.00045   0.00049   0.00167   0.00217   3.47244
    R3        3.47021   0.00040   0.00042   0.00151   0.00193   3.47214
    R4        2.06379  -0.00004   0.00004  -0.00016  -0.00011   2.06368
    R5        2.06372  -0.00003   0.00006  -0.00011  -0.00006   2.06366
    R6        2.06646  -0.00004   0.00001  -0.00008  -0.00007   2.06639
    R7        2.06372  -0.00003   0.00006  -0.00012  -0.00006   2.06366
    R8        2.06379  -0.00004   0.00004  -0.00015  -0.00011   2.06368
    R9        2.06646  -0.00005   0.00001  -0.00009  -0.00007   2.06638
   R10        2.06380  -0.00004   0.00003  -0.00014  -0.00011   2.06368
   R11        2.06655  -0.00009   0.00002  -0.00021  -0.00019   2.06636
   R12        2.06380  -0.00004   0.00003  -0.00015  -0.00012   2.06368
    A1        1.74300  -0.00004  -0.00078  -0.00037  -0.00117   1.74182
    A2        1.74271   0.00000  -0.00061  -0.00007  -0.00071   1.74200
    A3        1.74271   0.00001  -0.00061   0.00000  -0.00064   1.74207
    A4        1.91073   0.00021   0.00007   0.00134   0.00141   1.91214
    A5        1.91139   0.00009   0.00011   0.00049   0.00059   1.91198
    A6        1.96536  -0.00043   0.00023  -0.00274  -0.00251   1.96285
    A7        1.87869  -0.00007  -0.00014  -0.00000  -0.00014   1.87855
    A8        1.89764   0.00010  -0.00010   0.00063   0.00053   1.89816
    A9        1.89798   0.00011  -0.00018   0.00040   0.00021   1.89819
   A10        1.91139   0.00009   0.00011   0.00049   0.00060   1.91199
   A11        1.91073   0.00021   0.00007   0.00137   0.00145   1.91218
   A12        1.96537  -0.00043   0.00023  -0.00272  -0.00249   1.96288
   A13        1.87869  -0.00008  -0.00014  -0.00008  -0.00022   1.87848
   A14        1.89798   0.00012  -0.00018   0.00041   0.00023   1.89820
   A15        1.89764   0.00010  -0.00010   0.00062   0.00051   1.89815
   A16        1.91191   0.00007   0.00007   0.00038   0.00045   1.91237
   A17        1.96412  -0.00038   0.00013  -0.00229  -0.00216   1.96195
   A18        1.91190   0.00008   0.00007   0.00044   0.00051   1.91241
   A19        1.89750   0.00014  -0.00007   0.00076   0.00069   1.89819
   A20        1.87892  -0.00004  -0.00014  -0.00000  -0.00014   1.87878
   A21        1.89749   0.00014  -0.00007   0.00081   0.00073   1.89823
    D1       -3.01813   0.00009   0.00064   0.00627   0.00691  -3.01122
    D2        1.20907   0.00000   0.00071   0.00521   0.00591   1.21498
    D3       -0.90498   0.00008   0.00071   0.00619   0.00690  -0.89808
    D4       -1.23941   0.00009  -0.00034   0.00618   0.00585  -1.23356
    D5        2.98779   0.00000  -0.00028   0.00512   0.00485   2.99263
    D6        0.87374   0.00008  -0.00027   0.00610   0.00583   0.87957
    D7       -1.20912  -0.00001  -0.00071  -0.00502  -0.00572  -1.21483
    D8        3.01808  -0.00009  -0.00064  -0.00602  -0.00666   3.01142
    D9        0.90493  -0.00008  -0.00071  -0.00596  -0.00667   0.89826
   D10       -2.98784   0.00000   0.00028  -0.00487  -0.00459  -2.99243
   D11        1.23936  -0.00008   0.00034  -0.00587  -0.00553   1.23382
   D12       -0.87380  -0.00007   0.00027  -0.00581  -0.00554  -0.87934
   D13        1.22370  -0.00001   0.00060  -0.00038   0.00021   1.22391
   D14       -0.88927   0.00002   0.00056  -0.00009   0.00046  -0.88881
   D15       -3.00222   0.00004   0.00051   0.00010   0.00061  -3.00161
   D16        3.00266  -0.00004  -0.00052  -0.00078  -0.00129   3.00137
   D17        0.88969  -0.00002  -0.00056  -0.00049  -0.00104   0.88865
   D18       -1.22326  -0.00000  -0.00060  -0.00030  -0.00089  -1.22416
         Item               Value     Threshold  Converged?
 Maximum Force            0.000448     0.000450     YES
 RMS     Force            0.000164     0.000300     YES
 Maximum Displacement     0.011963     0.001800     NO 
 RMS     Displacement     0.004179     0.001200     NO 
 Predicted change in Energy=-5.653575D-06
 Lowest energy point so far.  Saving SCF results.
 GradGradGradGradGradGradGradGradGradGradGradGradGradGradGradGradGradGrad

 Leave Link  103 at Wed Oct  5 09:47:29 2022, MaxMem=  2952790016 cpu:               0.3 elap:               0.0
 (Enter /mnt/data/applications/G16/g16/l202.exe)
                          Input orientation:                          
 ---------------------------------------------------------------------
 Center     Atomic      Atomic             Coordinates (Angstroms)
 Number     Number       Type             X           Y           Z
 ---------------------------------------------------------------------
      1         15           0        1.537365   -0.164676    0.000015
      2          6           0        2.383745   -0.994687   -1.403997
      3          6           0        2.383326   -0.989867    1.407121
      4          6           0        2.428829    1.441947   -0.002684
      5          1           0        2.142407    2.017731   -0.885304
      6          1           0        3.515025    1.316026   -0.002247
      7          1           0        2.142029    2.020952    0.877700
      8          1           0        2.087819   -0.519589   -2.341702
      9          1           0        2.073567   -2.040703   -1.450836
     10          1           0        3.473095   -0.954454   -1.317910
     11          1           0        2.073248   -2.035753    1.457370
     12          1           0        2.086979   -0.511717    2.343141
     13          1           0        3.472702   -0.949789    1.321336
 ---------------------------------------------------------------------
                    Distance matrix (angstroms):
                    1          2          3          4          5
     1  P    0.000000
     2  C    1.837533   0.000000
     3  C    1.837535   2.811122   0.000000
     4  C    1.837377   2.811209   2.811289   0.000000
     5  H    2.431618   3.066260   3.789314   1.092054   0.000000
     6  H    2.470551   2.929862   2.929881   1.093470   1.776586
     7  H    2.431650   3.789281   3.066520   1.092052   1.763008
     8  H    2.431584   1.092053   3.789744   3.071631   2.926101
     9  H    2.431451   1.092041   3.060739   3.788431   4.098226
    10  H    2.471381   1.093487   2.935072   2.926269   3.285082
    11  H    2.431456   3.060661   1.092040   3.788482   4.682268
    12  H    2.431615   3.789772   1.092054   3.071899   4.101712
    13  H    2.471401   2.935181   1.093484   2.926279   3.930029
                    6          7          8          9         10
     6  H    0.000000
     7  H    1.776611   0.000000
     8  H    3.298401   4.101444   0.000000
     9  H    3.929865   4.682287   1.762848   0.000000
    10  H    2.624463   3.930074   1.776583   1.776594   0.000000
    11  H    3.929838   4.098488   4.090466   2.908209   3.291042
    12  H    3.298607   2.926595   4.684850   4.090506   3.939623
    13  H    2.624421   3.285241   3.939648   3.291293   2.639251
                   11         12         13
    11  H    0.000000
    12  H    1.762800   0.000000
    13  H    1.776596   1.776575   0.000000
 Stoichiometry    C3H9P
 Framework group  C1[X(C3H9P)]
 Deg. of freedom    33
 Full point group                 C1      NOp   1
 RotChk:  IX=3 Diff= 1.71D+00
 Largest Abelian subgroup         C1      NOp   1
 Largest concise Abelian subgroup C1      NOp   1
                         Standard orientation:                         
 ---------------------------------------------------------------------
 Center     Atomic      Atomic             Coordinates (Angstroms)
 Number     Number       Type             X           Y           Z
 ---------------------------------------------------------------------
      1         15           0        0.000147    0.000065   -0.588996
      2          6           0       -0.384763   -1.576753    0.272407
      3          6           0       -1.173225    1.121530    0.272428
      4          6           0        1.557951    0.455181    0.272439
      5          1           0        2.354131   -0.230621   -0.024806
      6          1           0        1.456478    0.425583    1.360788
      7          1           0        1.859832    1.461674   -0.024912
      8          1           0        0.330208   -2.343853   -0.032479
      9          1           0       -1.380450   -1.918316   -0.018276
     10          1           0       -0.350967   -1.477297    1.360837
     11          1           0       -2.196175    0.873148   -0.018139
     12          1           0       -0.983952    2.152902   -0.032582
     13          1           0       -1.091089    1.056054    1.360855
 ---------------------------------------------------------------------
 Rotational constants (GHZ):           5.8378940           5.8372876           3.7260858
 Leave Link  202 at Wed Oct  5 09:47:29 2022, MaxMem=  2952790016 cpu:               0.1 elap:               0.0
 (Enter /mnt/data/applications/G16/g16/l301.exe)
 Standard basis: def2TZVP (5D, 7F)
 Ernie: Thresh=  0.10000D-02 Tol=  0.10000D-05 Strict=F.
 There are   204 symmetry adapted cartesian basis functions of A   symmetry.
 There are   184 symmetry adapted basis functions of A   symmetry.
   184 basis functions,   294 primitive gaussians,   204 cartesian basis functions
    21 alpha electrons       21 beta electrons
       nuclear repulsion energy       177.9280893274 Hartrees.
 IExCor= 4639 DFT=T Ex+Corr=wB97XD ExCW=0 ScaHFX=  1.000000
 ScaDFX=  1.000000  1.000000  1.000000  1.000000 ScalE2=  1.000000  1.000000
 IRadAn=      5 IRanWt=     -1 IRanGd=            0 ICorTp=0 IEmpDi=121
 HFx  wShort=  0.000000 wLong=  0.200000 cFull=  0.222036 cShort=  0.000000 cLong=  0.777964
 DFx  wShort=  0.000000 wLong=  0.200000 cFull=  0.000000 cShort=  0.000000 cLong=  1.000000
 NAtoms=   13 NActive=   13 NUniq=   13 SFac= 1.00D+00 NAtFMM=   60 NAOKFM=F Big=F
 Integral buffers will be    131072 words long.
 Raffenetti 2 integral format.
 Two-electron integral symmetry is turned on.
 R6Disp:  Grimme-D2 Dispersion energy=       -0.0052460944 Hartrees.
 Nuclear repulsion after empirical dispersion term =      177.9228432330 Hartrees.
 ------------------------------------------------------------------------------
 Polarizable Continuum Model (PCM)
 =================================
 Model                : PCM.
 Atomic radii         : SMD-Coulomb.
 Polarization charges : Total charges.
 Charge compensation  : None.
 Solution method      : On-the-fly selection.
 Cavity type          : VdW (van der Waals Surface) (Alpha=1.000).
 Cavity algorithm     : GePol (No added spheres)
                        Default sphere list used, NSphG=   13.
                        Lebedev-Laikov grids with approx.  5.0 points / Ang**2.
                        Smoothing algorithm: York/Karplus (Gamma=1.0000).
                        Polarization charges: spherical gaussians, with
                                              point-specific exponents (IZeta= 3).
                        Self-potential: point-specific (ISelfS= 7).
                        Self-field    : sphere-specific E.n sum rule (ISelfD= 2).
 1st derivatives      : Analytical E(r).r(x)/FMM algorithm (CHGder, D1EAlg=3).
                        Cavity 1st derivative terms included.
 Solvent              : Toluene, Eps=   2.374100 Eps(inf)=   2.238315
 ------------------------------------------------------------------------------
 Spheres list:
 ISph  on   Nord     Re0    Alpha      Xe            Ye            Ze
    1   P      1    2.1200  1.000      0.000147      0.000065     -0.588996
    2   C      2    1.8500  1.000     -0.384763     -1.576753      0.272407
    3   C      3    1.8500  1.000     -1.173225      1.121530      0.272428
    4   C      4    1.8500  1.000      1.557951      0.455181      0.272439
    5   H      5    1.2000  1.000      2.354131     -0.230621     -0.024806
    6   H      6    1.2000  1.000      1.456478      0.425583      1.360788
    7   H      7    1.2000  1.000      1.859832      1.461674     -0.024912
    8   H      8    1.2000  1.000      0.330208     -2.343853     -0.032479
    9   H      9    1.2000  1.000     -1.380450     -1.918316     -0.018276
   10   H     10    1.2000  1.000     -0.350967     -1.477297      1.360837
   11   H     11    1.2000  1.000     -2.196175      0.873148     -0.018139
   12   H     12    1.2000  1.000     -0.983952      2.152902     -0.032582
   13   H     13    1.2000  1.000     -1.091089      1.056054      1.360855
 ------------------------------------------------------------------------------
 GePol: Number of generator spheres                  =      13
 GePol: Total number of spheres                      =      13
 GePol: Number of exposed spheres                    =      13 (100.00%)
 GePol: Number of points                             =     996
 GePol: Average weight of points                     =       0.12
 GePol: Minimum weight of points                     =   0.17D-09
 GePol: Maximum weight of points                     =    0.20615
 GePol: Number of points with low weight             =      58
 GePol: Fraction of low-weight points (<1% of avg)   =       5.82%
 GePol: Cavity surface area                          =    120.938 Ang**2
 GePol: Cavity volume                                =     95.569 Ang**3
 ------------------------------------------------------------------------------
 Atomic radii for non-electrostatic terms: SMD-CDS.
 ------------------------------------------------------------------------------
 PCM non-electrostatic energy =         0.0003263923 Hartrees.
 Nuclear repulsion after PCM non-electrostatic terms =      177.9231696253 Hartrees.
 Leave Link  301 at Wed Oct  5 09:47:29 2022, MaxMem=  2952790016 cpu:               1.2 elap:               0.1
 (Enter /mnt/data/applications/G16/g16/l302.exe)
 NPDir=0 NMtPBC=     1 NCelOv=     1 NCel=       1 NClECP=     1 NCelD=      1
         NCelK=      1 NCelE2=     1 NClLst=     1 CellRange=     0.0.
 One-electron integrals computed using PRISM.
 One-electron integral symmetry used in STVInt
   1 Symmetry operations used in ECPInt.
 ECPInt:  NShTT=    3403 NPrTT=   10140 LenC2=    3392 LenP2D=    8541.
 LDataN:  DoStor=T MaxTD1= 6 Len=  172
 NBasis=   184 RedAO= T EigKep=  9.89D-04  NBF=   184
 NBsUse=   184 1.00D-06 EigRej= -1.00D+00 NBFU=   184
 Precomputing XC quadrature grid using
 IXCGrd= 4 IRadAn=           5 IRanWt=          -1 IRanGd=           0 AccXCQ= 0.00D+00.
 Generated NRdTot=       0 NPtTot=           0 NUsed=           0 NTot=          32
 NSgBfM=   204   204   204   204   204 MxSgAt=    13 MxSgA2=    13.
 Leave Link  302 at Wed Oct  5 09:47:30 2022, MaxMem=  2952790016 cpu:               4.9 elap:               0.4
 (Enter /mnt/data/applications/G16/g16/l303.exe)
 DipDrv:  MaxL=1.
 Leave Link  303 at Wed Oct  5 09:47:30 2022, MaxMem=  2952790016 cpu:               0.5 elap:               0.1
 (Enter /mnt/data/applications/G16/g16/l401.exe)
 Initial guess from the checkpoint file:  "PMe3.chk"
 B after Tr=     0.000000    0.000000    0.000000
         Rot=    0.796866   -0.000277    0.000210    0.604156 Ang= -74.34 deg.
 Guess basis will be translated and rotated to current coordinates.
 JPrj=2 DoOrth=T DoCkMO=T.
 Leave Link  401 at Wed Oct  5 09:47:30 2022, MaxMem=  2952790016 cpu:               2.3 elap:               0.2
 (Enter /mnt/data/applications/G16/g16/l502.exe)
 Integral symmetry usage will be decided dynamically.
 Closed shell SCF:
 Using DIIS extrapolation, IDIIS=  1040.
 NGot=  2952790016 LenX=  2952702271 LenY=  2952660214
 Requested convergence on RMS density matrix=1.00D-08 within 128 cycles.
 Requested convergence on MAX density matrix=1.00D-06.
 Requested convergence on             energy=1.00D-06.
 No special actions if energy rises.
 Fock matrices will be formed incrementally for  20 cycles.

 Cycle   1  Pass 1  IDiag  1:
 FoFJK:  IHMeth= 1 ICntrl=       0 DoSepK=T KAlg= 0 I1Cent=           0 FoldK=F
 IRaf=         1 NMat=       1 IRICut=       1 DoRegI=T DoRafI=F ISym2E= 0 IDoP0=0 IntGTp=1.
 FoFCou: FMM=F IPFlag=           0 FMFlag=      100000 FMFlg1=           0
         NFxFlg=           0 DoJE=T BraDBF=F KetDBF=F FulRan=T
         wScrn=  0.000000 ICntrl=       500 IOpCl=  0 I1Cent=           0 NGrid=           0
         NMat0=    1 NMatS0=      1 NMatT0=    0 NMatD0=    1 NMtDS0=    0 NMtDT0=    0
 Symmetry not used in FoFCou.
 Inv3:  Mode=1 IEnd=     2976048.
 Iteration    1 A*A^-1 deviation from unit magnitude is 2.89D-15 for     88.
 Iteration    1 A*A^-1 deviation from orthogonality  is 1.65D-15 for    705    172.
 Iteration    1 A^-1*A deviation from unit magnitude is 3.11D-15 for     88.
 Iteration    1 A^-1*A deviation from orthogonality  is 1.05D-15 for    831    303.
 E= -461.120227577869    
 DIIS: error= 2.82D-04 at cycle   1 NSaved=   1.
 NSaved= 1 IEnMin= 1 EnMin= -461.120227577869     IErMin= 1 ErrMin= 2.82D-04
 ErrMax= 2.82D-04  0.00D+00 EMaxC= 1.00D-01 BMatC= 1.10D-05 BMatP= 1.10D-05
 IDIUse=3 WtCom= 9.97D-01 WtEn= 2.82D-03
 Coeff-Com:  0.100D+01
 Coeff-En:   0.100D+01
 Coeff:      0.100D+01
 Gap=     0.676 Goal=   None    Shift=    0.000
 RMSDP=1.43D-05 MaxDP=3.74D-04              OVMax= 1.06D-03

 Cycle   2  Pass 1  IDiag  1:
 RMSU=  1.43D-05    CP:  1.00D+00
 E= -461.120242314877     Delta-E=       -0.000014737008 Rises=F Damp=F
 DIIS: error= 5.67D-05 at cycle   2 NSaved=   2.
 NSaved= 2 IEnMin= 2 EnMin= -461.120242314877     IErMin= 2 ErrMin= 5.67D-05
 ErrMax= 5.67D-05  0.00D+00 EMaxC= 1.00D-01 BMatC= 3.45D-07 BMatP= 1.10D-05
 IDIUse=1 WtCom= 1.00D+00 WtEn= 0.00D+00
 Coeff-Com: -0.151D+00 0.115D+01
 Coeff:     -0.151D+00 0.115D+01
 Gap=     0.413 Goal=   None    Shift=    0.000
 RMSDP=4.38D-06 MaxDP=1.08D-04 DE=-1.47D-05 OVMax= 3.38D-04

 Cycle   3  Pass 1  IDiag  1:
 RMSU=  2.58D-06    CP:  1.00D+00  1.25D+00
 E= -461.120243158694     Delta-E=       -0.000000843817 Rises=F Damp=F
 DIIS: error= 1.33D-05 at cycle   3 NSaved=   3.
 NSaved= 3 IEnMin= 3 EnMin= -461.120243158694     IErMin= 3 ErrMin= 1.33D-05
 ErrMax= 1.33D-05  0.00D+00 EMaxC= 1.00D-01 BMatC= 2.18D-08 BMatP= 3.45D-07
 IDIUse=1 WtCom= 1.00D+00 WtEn= 0.00D+00
 Coeff-Com: -0.278D-01 0.111D+00 0.917D+00
 Coeff:     -0.278D-01 0.111D+00 0.917D+00
 Gap=     0.413 Goal=   None    Shift=    0.000
 RMSDP=1.24D-06 MaxDP=3.45D-05 DE=-8.44D-07 OVMax= 6.41D-05

 Cycle   4  Pass 1  IDiag  1:
 RMSU=  1.03D-06    CP:  1.00D+00  1.28D+00  1.20D+00
 E= -461.120243193716     Delta-E=       -0.000000035022 Rises=F Damp=F
 DIIS: error= 6.27D-06 at cycle   4 NSaved=   4.
 NSaved= 4 IEnMin= 4 EnMin= -461.120243193716     IErMin= 4 ErrMin= 6.27D-06
 ErrMax= 6.27D-06  0.00D+00 EMaxC= 1.00D-01 BMatC= 6.16D-09 BMatP= 2.18D-08
 IDIUse=1 WtCom= 1.00D+00 WtEn= 0.00D+00
 Coeff-Com:  0.101D-01-0.115D+00 0.324D+00 0.781D+00
 Coeff:      0.101D-01-0.115D+00 0.324D+00 0.781D+00
 Gap=     0.413 Goal=   None    Shift=    0.000
 RMSDP=5.65D-07 MaxDP=1.05D-05 DE=-3.50D-08 OVMax= 2.56D-05

 Cycle   5  Pass 1  IDiag  1:
 RMSU=  2.29D-07    CP:  1.00D+00  1.29D+00  1.38D+00  1.00D+00
 E= -461.120243201600     Delta-E=       -0.000000007885 Rises=F Damp=F
 DIIS: error= 6.61D-07 at cycle   5 NSaved=   5.
 NSaved= 5 IEnMin= 5 EnMin= -461.120243201600     IErMin= 5 ErrMin= 6.61D-07
 ErrMax= 6.61D-07  0.00D+00 EMaxC= 1.00D-01 BMatC= 1.05D-10 BMatP= 6.16D-09
 IDIUse=1 WtCom= 1.00D+00 WtEn= 0.00D+00
 Coeff-Com:  0.280D-02-0.253D-01 0.281D-01 0.141D+00 0.854D+00
 Coeff:      0.280D-02-0.253D-01 0.281D-01 0.141D+00 0.854D+00
 Gap=     0.413 Goal=   None    Shift=    0.000
 RMSDP=1.44D-07 MaxDP=2.79D-06 DE=-7.88D-09 OVMax= 4.62D-06

 Cycle   6  Pass 1  IDiag  1:
 RMSU=  6.41D-08    CP:  1.00D+00  1.29D+00  1.42D+00  1.06D+00  1.20D+00
 E= -461.120243201758     Delta-E=       -0.000000000158 Rises=F Damp=F
 DIIS: error= 2.88D-07 at cycle   6 NSaved=   6.
 NSaved= 6 IEnMin= 6 EnMin= -461.120243201758     IErMin= 6 ErrMin= 2.88D-07
 ErrMax= 2.88D-07  0.00D+00 EMaxC= 1.00D-01 BMatC= 1.48D-11 BMatP= 1.05D-10
 IDIUse=1 WtCom= 1.00D+00 WtEn= 0.00D+00
 Coeff-Com:  0.278D-06 0.189D-02-0.186D-01-0.225D-01 0.246D+00 0.793D+00
 Coeff:      0.278D-06 0.189D-02-0.186D-01-0.225D-01 0.246D+00 0.793D+00
 Gap=     0.413 Goal=   None    Shift=    0.000
 RMSDP=5.29D-08 MaxDP=1.54D-06 DE=-1.58D-10 OVMax= 1.95D-06

 Cycle   7  Pass 1  IDiag  1:
 RMSU=  1.63D-08    CP:  1.00D+00  1.29D+00  1.44D+00  1.09D+00  1.32D+00
                    CP:  9.97D-01
 E= -461.120243201780     Delta-E=       -0.000000000022 Rises=F Damp=F
 DIIS: error= 5.46D-08 at cycle   7 NSaved=   7.
 NSaved= 7 IEnMin= 7 EnMin= -461.120243201780     IErMin= 7 ErrMin= 5.46D-08
 ErrMax= 5.46D-08  0.00D+00 EMaxC= 1.00D-01 BMatC= 7.95D-13 BMatP= 1.48D-11
 IDIUse=1 WtCom= 1.00D+00 WtEn= 0.00D+00
 Coeff-Com: -0.225D-03 0.260D-02-0.787D-02-0.175D-01 0.652D-02 0.191D+00
 Coeff-Com:  0.825D+00
 Coeff:     -0.225D-03 0.260D-02-0.787D-02-0.175D-01 0.652D-02 0.191D+00
 Coeff:      0.825D+00
 Gap=     0.413 Goal=   None    Shift=    0.000
 RMSDP=1.71D-08 MaxDP=3.41D-07 DE=-2.18D-11 OVMax= 6.51D-07

 Cycle   8  Pass 1  IDiag  1:
 RMSU=  4.71D-09    CP:  1.00D+00  1.29D+00  1.44D+00  1.09D+00  1.36D+00
                    CP:  1.10D+00  1.32D+00
 E= -461.120243201776     Delta-E=        0.000000000005 Rises=F Damp=F
 DIIS: error= 1.24D-08 at cycle   8 NSaved=   8.
 NSaved= 8 IEnMin= 7 EnMin= -461.120243201780     IErMin= 8 ErrMin= 1.24D-08
 ErrMax= 1.24D-08  0.00D+00 EMaxC= 1.00D-01 BMatC= 4.34D-14 BMatP= 7.95D-13
 IDIUse=1 WtCom= 1.00D+00 WtEn= 0.00D+00
 Coeff-Com: -0.406D-04 0.379D-03-0.475D-03-0.214D-02-0.100D-01-0.128D-02
 Coeff-Com:  0.109D+00 0.904D+00
 Coeff:     -0.406D-04 0.379D-03-0.475D-03-0.214D-02-0.100D-01-0.128D-02
 Coeff:      0.109D+00 0.904D+00
 Gap=     0.413 Goal=   None    Shift=    0.000
 RMSDP=5.46D-09 MaxDP=1.92D-07 DE= 4.66D-12 OVMax= 2.16D-07

 Error on total polarization charges =  0.02907
 SCF Done:  E(RwB97XD) =  -461.120243202     A.U. after    8 cycles
            NFock=  8  Conv=0.55D-08     -V/T= 2.0030
 KE= 4.597418840143D+02 PE=-1.444940840442D+03 EE= 3.461555436009D+02
 SMD-CDS (non-electrostatic) energy       (kcal/mol) =       0.20
 (included in total energy above)
 Leave Link  502 at Wed Oct  5 09:49:30 2022, MaxMem=  2952790016 cpu:            1433.6 elap:             120.1
 (Enter /mnt/data/applications/G16/g16/l701.exe)
 ... and contract with generalized density number  0.
 Compute integral first derivatives.
 R6Disp: Adding Grimme-D2 dispersion energy 1st derivatives to the gradient.
   1 Symmetry operations used in ECPInt.
 ECPInt:  NShTT=    3403 NPrTT=   10140 LenC2=    3392 LenP2D=    8541.
 LDataN:  DoStor=T MaxTD1= 7 Len=  274
 D1PCM: PCM CHGder 1st derivatives, ID1Alg=3 FixD1E=F DoIter=F DoCFld=F I1PDM=0.
 GePol: Maximum number of non-zero 1st derivatives   =     234
 Leave Link  701 at Wed Oct  5 09:49:32 2022, MaxMem=  2952790016 cpu:              20.2 elap:               1.7
 (Enter /mnt/data/applications/G16/g16/l702.exe)
 L702 exits ... SP integral derivatives will be done elsewhere.
 Leave Link  702 at Wed Oct  5 09:49:32 2022, MaxMem=  2952790016 cpu:               0.2 elap:               0.0
 (Enter /mnt/data/applications/G16/g16/l703.exe)
 Integral derivatives from FoFJK, PRISM(SPDF).
 Compute integral first derivatives, UseDBF=F ICtDFT=           0.
 Calling FoFJK, ICntrl=      2127 FMM=F ISym2X=0 I1Cent= 0 IOpClX= 0 NMat=1 NMatS=1 NMatT=0.
 FoFJK:  IHMeth= 1 ICntrl=    2127 DoSepK=T KAlg= 0 I1Cent=           0 FoldK=F
 IRaf=         1 NMat=       1 IRICut=       1 DoRegI=T DoRafI=F ISym2E= 0 IDoP0=0 IntGTp=1.
 FoFCou: FMM=F IPFlag=           0 FMFlag=      100000 FMFlg1=         800
         NFxFlg=           0 DoJE=F BraDBF=F KetDBF=F FulRan=T
         wScrn=  0.000000 ICntrl=      2527 IOpCl=  0 I1Cent=           0 NGrid=           0
         NMat0=    1 NMatS0=      1 NMatT0=    0 NMatD0=    1 NMtDS0=    0 NMtDT0=    0
 Symmetry not used in FoFCou.
 Leave Link  703 at Wed Oct  5 09:49:45 2022, MaxMem=  2952790016 cpu:             163.3 elap:              13.7
 (Enter /mnt/data/applications/G16/g16/l716.exe)
 Dipole        =-1.30008953D-04 5.01663190D-04 6.26200149D-01
 ***** Axes restored to original set *****
 -------------------------------------------------------------------
 Center     Atomic                   Forces (Hartrees/Bohr)
 Number     Number              X              Y              Z
 -------------------------------------------------------------------
      1       15           0.000100211   -0.000079947    0.000015754
      2        6           0.000036519   -0.000070891   -0.000223119
      3        6          -0.000017606   -0.000072204    0.000226073
      4        6           0.000010818    0.000224649   -0.000030030
      5        1          -0.000005636   -0.000018529    0.000029091
      6        1          -0.000048018   -0.000097650    0.000001642
      7        1          -0.000006317   -0.000025791   -0.000010987
      8        1           0.000024425    0.000004457    0.000035685
      9        1          -0.000026741    0.000019479    0.000000902
     10        1          -0.000051934    0.000029759    0.000136082
     11        1          -0.000014685    0.000029004   -0.000008397
     12        1           0.000034458    0.000023248   -0.000030700
     13        1          -0.000035494    0.000034415   -0.000141996
 -------------------------------------------------------------------
 Cartesian Forces:  Max     0.000226073 RMS     0.000079473
 Leave Link  716 at Wed Oct  5 09:49:46 2022, MaxMem=  2952790016 cpu:               0.2 elap:               0.0
 (Enter /mnt/data/applications/G16/g16/l103.exe)

 GradGradGradGradGradGradGradGradGradGradGradGradGradGradGradGradGradGrad
 Berny optimization.
 Using GEDIIS/GDIIS optimizer.
 FormGI is forming the generalized inverse of G from B-inverse, IUseBI=4.
 Internal  Forces:  Max     0.000216294 RMS     0.000058859
 Search for a local minimum.
 Step number   4 out of a maximum of   61
 All quantities printed in internal units (Hartrees-Bohrs-Radians)
 RMS Force = .58859D-04 SwitMx=.10000D-02 MixMth= 2
 Mixed Optimization -- En-DIIS/RFO-DIIS
 Swapping is turned off.
 Update second derivatives using D2CorX and points    1    2    3    4
 DE= -7.43D-06 DEPred=-5.65D-06 R= 1.31D+00
 TightC=F SS=  1.41D+00  RLast= 2.17D-02 DXNew= 2.3784D-01 6.5014D-02
 Trust test= 1.31D+00 RLast= 2.17D-02 DXMaxT set to 1.41D-01
 ITU=  1  1  1  0
     Eigenvalues ---    0.00651   0.00911   0.00950   0.05783   0.07208
     Eigenvalues ---    0.07225   0.07226   0.07599   0.07633   0.07738
     Eigenvalues ---    0.12782   0.12868   0.14943   0.15985   0.16000
     Eigenvalues ---    0.16000   0.16000   0.16000   0.16000   0.16048
     Eigenvalues ---    0.17263   0.24503   0.24833   0.25201   0.34561
     Eigenvalues ---    0.34584   0.34607   0.34683   0.34704   0.34734
     Eigenvalues ---    0.34805   0.34829   0.35090
 En-DIIS/RFO-DIIS/Sim-DIIS IScMMF=       -3 using points:     4    3
 RFO step:  Lambda=-4.09307741D-06.
 NNeg= 0 NGDIIS= 2 SimSw=  2.50D-01 Rises=F DC= -7.43D-06 SmlDif=  1.00D-05
 NRisDI= 0 DoIntr=F SqrtH=F CThrHd= 10.0 CDAdj=  3.0
 RMS Error=  0.2979284281D-02 NUsed= 2 OKEnD=F EnDIS=F
 InvSVX:  RCond= 1.17D-04 Info=           0 Equed=N FErr=  4.43D-15 BErr=  2.83D-17
 DidBck=F Rises=F RFO-DIIS coefs:    1.96440   -0.96440
 Iteration  1 RMS(Cart)=  0.00407912 RMS(Int)=  0.00001132
 Iteration  2 RMS(Cart)=  0.00001138 RMS(Int)=  0.00000058
 Iteration  3 RMS(Cart)=  0.00000000 RMS(Int)=  0.00000058
 ITry= 1 IFail=0 DXMaxC= 1.19D-02 DCOld= 1.00D+10 DXMaxT= 1.41D-01 DXLimC= 3.00D+00 Rises=F
 Variable       Old X    -DE/DX   Delta X   Delta X   Delta X     New X
                                 (Linear)    (Quad)   (Total)
    R1        3.47243   0.00004   0.00209  -0.00142   0.00066   3.47310
    R2        3.47244   0.00001   0.00209  -0.00160   0.00049   3.47293
    R3        3.47214   0.00005   0.00186  -0.00121   0.00066   3.47280
    R4        2.06368  -0.00003  -0.00011  -0.00007  -0.00018   2.06350
    R5        2.06366  -0.00001  -0.00005  -0.00000  -0.00006   2.06360
    R6        2.06639  -0.00004  -0.00006  -0.00008  -0.00015   2.06624
    R7        2.06366  -0.00002  -0.00006  -0.00005  -0.00010   2.06355
    R8        2.06368  -0.00003  -0.00010  -0.00004  -0.00014   2.06354
    R9        2.06638  -0.00002  -0.00007  -0.00000  -0.00007   2.06631
   R10        2.06368  -0.00003  -0.00011  -0.00007  -0.00017   2.06351
   R11        2.06636  -0.00004  -0.00019   0.00004  -0.00015   2.06621
   R12        2.06368  -0.00002  -0.00011   0.00000  -0.00011   2.06357
    A1        1.74182  -0.00002  -0.00113   0.00021  -0.00091   1.74091
    A2        1.74200   0.00000  -0.00069   0.00024  -0.00044   1.74156
    A3        1.74207  -0.00001  -0.00062   0.00003  -0.00058   1.74148
    A4        1.91214   0.00004   0.00136  -0.00078   0.00058   1.91272
    A5        1.91198   0.00001   0.00057  -0.00038   0.00019   1.91217
    A6        1.96285  -0.00020  -0.00242   0.00015  -0.00227   1.96059
    A7        1.87855   0.00002  -0.00014   0.00060   0.00046   1.87901
    A8        1.89816   0.00008   0.00051   0.00022   0.00073   1.89889
    A9        1.89819   0.00007   0.00020   0.00022   0.00043   1.89862
   A10        1.91199   0.00001   0.00058  -0.00036   0.00022   1.91220
   A11        1.91218   0.00004   0.00139  -0.00076   0.00063   1.91281
   A12        1.96288  -0.00022  -0.00240  -0.00005  -0.00245   1.96043
   A13        1.87848   0.00003  -0.00021   0.00092   0.00071   1.87918
   A14        1.89820   0.00007   0.00022   0.00015   0.00036   1.89857
   A15        1.89815   0.00008   0.00050   0.00016   0.00066   1.89881
   A16        1.91237   0.00002   0.00044  -0.00011   0.00033   1.91269
   A17        1.96195  -0.00015  -0.00209   0.00044  -0.00164   1.96031
   A18        1.91241  -0.00000   0.00049  -0.00052  -0.00003   1.91238
   A19        1.89819   0.00006   0.00066  -0.00002   0.00065   1.89883
   A20        1.87878   0.00001  -0.00013   0.00041   0.00028   1.87906
   A21        1.89823   0.00006   0.00071  -0.00021   0.00050   1.89873
    D1       -3.01122   0.00006   0.00667   0.00005   0.00672  -3.00450
    D2        1.21498   0.00001   0.00570   0.00001   0.00571   1.22068
    D3       -0.89808   0.00004   0.00665  -0.00011   0.00654  -0.89155
    D4       -1.23356   0.00004   0.00564   0.00019   0.00583  -1.22773
    D5        2.99263  -0.00000   0.00467   0.00014   0.00481   2.99745
    D6        0.87957   0.00003   0.00562   0.00002   0.00565   0.88522
    D7       -1.21483   0.00000  -0.00551  -0.00009  -0.00560  -1.22043
    D8        3.01142  -0.00006  -0.00642  -0.00054  -0.00696   3.00446
    D9        0.89826  -0.00004  -0.00643  -0.00018  -0.00661   0.89165
   D10       -2.99243   0.00001  -0.00443  -0.00039  -0.00482  -2.99725
   D11        1.23382  -0.00006  -0.00534  -0.00085  -0.00618   1.22764
   D12       -0.87934  -0.00004  -0.00535  -0.00049  -0.00584  -0.88517
   D13        1.22391   0.00001   0.00020   0.00079   0.00099   1.22491
   D14       -0.88881   0.00001   0.00044   0.00059   0.00103  -0.88777
   D15       -3.00161   0.00003   0.00059   0.00092   0.00151  -3.00011
   D16        3.00137  -0.00002  -0.00125   0.00107  -0.00017   3.00120
   D17        0.88865  -0.00001  -0.00101   0.00087  -0.00013   0.88851
   D18       -1.22416   0.00001  -0.00086   0.00120   0.00034  -1.22382
         Item               Value     Threshold  Converged?
 Maximum Force            0.000216     0.000450     YES
 RMS     Force            0.000059     0.000300     YES
 Maximum Displacement     0.011860     0.001800     NO 
 RMS     Displacement     0.004080     0.001200     NO 
 Predicted change in Energy=-2.046718D-06
 Lowest energy point so far.  Saving SCF results.
 GradGradGradGradGradGradGradGradGradGradGradGradGradGradGradGradGradGrad

 Leave Link  103 at Wed Oct  5 09:49:46 2022, MaxMem=  2952790016 cpu:               0.2 elap:               0.0
 (Enter /mnt/data/applications/G16/g16/l202.exe)
                          Input orientation:                          
 ---------------------------------------------------------------------
 Center     Atomic      Atomic             Coordinates (Angstroms)
 Number     Number       Type             X           Y           Z
 ---------------------------------------------------------------------
      1         15           0        1.536113   -0.165353   -0.000094
      2          6           0        2.384360   -0.994888   -1.403719
      3          6           0        2.383712   -0.989831    1.406781
      4          6           0        2.427053    1.441957   -0.002684
      5          1           0        2.140413    2.018013   -0.884942
      6          1           0        3.513018    1.314728   -0.002573
      7          1           0        2.140606    2.020386    0.878121
      8          1           0        2.093822   -0.516596   -2.341375
      9          1           0        2.071357   -2.039872   -1.453991
     10          1           0        3.473255   -0.957565   -1.311761
     11          1           0        2.070908   -2.034673    1.460515
     12          1           0        2.092850   -0.508227    2.342663
     13          1           0        3.472668   -0.952660    1.315060
 ---------------------------------------------------------------------
                    Distance matrix (angstroms):
                    1          2          3          4          5
     1  P    0.000000
     2  C    1.837883   0.000000
     3  C    1.837793   2.810504   0.000000
     4  C    1.837724   2.811216   2.811061   0.000000
     5  H    2.432124   3.066955   3.789236   1.091962   0.000000
     6  H    2.469575   2.927696   2.927900   1.093393   1.776860
     7  H    2.431898   3.789207   3.065939   1.091993   1.763065
     8  H    2.432285   1.091959   3.789018   3.068624   2.923630
     9  H    2.431897   1.092011   3.063358   3.788924   4.098172
    10  H    2.469937   1.093408   2.928927   2.926761   3.288268
    11  H    2.431818   3.063208   1.091984   3.788766   4.682976
    12  H    2.432289   3.789089   1.091979   3.068479   4.098974
    13  H    2.469763   2.928815   1.093444   2.926423   3.929353
                    6          7          8          9         10
     6  H    0.000000
     7  H    1.776820   0.000000
     8  H    3.292091   4.099223   0.000000
     9  H    3.929165   4.682866   1.763044   0.000000
    10  H    2.622760   3.929342   1.776905   1.776776   0.000000
    11  H    3.929223   4.097260   4.093831   2.914511   3.288200
    12  H    3.292442   2.922507   4.684046   4.094017   3.932205
    13  H    2.622753   3.286990   3.932034   3.288366   2.626826
                   11         12         13
    11  H    0.000000
    12  H    1.763151   0.000000
    13  H    1.776751   1.776903   0.000000
 Stoichiometry    C3H9P
 Framework group  C1[X(C3H9P)]
 Deg. of freedom    33
 Full point group                 C1      NOp   1
 RotChk:  IX=0 Diff= 5.68D-01
 Largest Abelian subgroup         C1      NOp   1
 Largest concise Abelian subgroup C1      NOp   1
                         Standard orientation:                         
 ---------------------------------------------------------------------
 Center     Atomic      Atomic             Coordinates (Angstroms)
 Number     Number       Type             X           Y           Z
 ---------------------------------------------------------------------
      1         15           0        0.000313   -0.000045   -0.589730
      2          6           0       -0.974442   -1.297748    0.272612
      3          6           0       -0.637168    1.492445    0.272578
      4          6           0        1.611319   -0.194673    0.272829
      5          1           0        2.073952   -1.138166   -0.024111
      6          1           0        1.503931   -0.182049    1.360862
      7          1           0        2.284744    0.612252   -0.023518
      8          1           0       -0.615490   -2.284688   -0.026520
      9          1           0       -2.023333   -1.223423   -0.021993
     10          1           0       -0.907547   -1.213380    1.360706
     11          1           0       -1.673620    1.670030   -0.021805
     12          1           0       -0.053440    2.365515   -0.026468
     13          1           0       -0.592138    1.394442    1.360690
 ---------------------------------------------------------------------
 Rotational constants (GHZ):           5.8385169           5.8356962           3.7273228
 Leave Link  202 at Wed Oct  5 09:49:46 2022, MaxMem=  2952790016 cpu:               0.1 elap:               0.0
 (Enter /mnt/data/applications/G16/g16/l301.exe)
 Standard basis: def2TZVP (5D, 7F)
 Ernie: Thresh=  0.10000D-02 Tol=  0.10000D-05 Strict=F.
 There are   204 symmetry adapted cartesian basis functions of A   symmetry.
 There are   184 symmetry adapted basis functions of A   symmetry.
   184 basis functions,   294 primitive gaussians,   204 cartesian basis functions
    21 alpha electrons       21 beta electrons
       nuclear repulsion energy       177.9281479664 Hartrees.
 IExCor= 4639 DFT=T Ex+Corr=wB97XD ExCW=0 ScaHFX=  1.000000
 ScaDFX=  1.000000  1.000000  1.000000  1.000000 ScalE2=  1.000000  1.000000
 IRadAn=      5 IRanWt=     -1 IRanGd=            0 ICorTp=0 IEmpDi=121
 HFx  wShort=  0.000000 wLong=  0.200000 cFull=  0.222036 cShort=  0.000000 cLong=  0.777964
 DFx  wShort=  0.000000 wLong=  0.200000 cFull=  0.000000 cShort=  0.000000 cLong=  1.000000
 NAtoms=   13 NActive=   13 NUniq=   13 SFac= 1.00D+00 NAtFMM=   60 NAOKFM=F Big=F
 Integral buffers will be    131072 words long.
 Raffenetti 2 integral format.
 Two-electron integral symmetry is turned on.
 R6Disp:  Grimme-D2 Dispersion energy=       -0.0052516337 Hartrees.
 Nuclear repulsion after empirical dispersion term =      177.9228963327 Hartrees.
 ------------------------------------------------------------------------------
 Polarizable Continuum Model (PCM)
 =================================
 Model                : PCM.
 Atomic radii         : SMD-Coulomb.
 Polarization charges : Total charges.
 Charge compensation  : None.
 Solution method      : On-the-fly selection.
 Cavity type          : VdW (van der Waals Surface) (Alpha=1.000).
 Cavity algorithm     : GePol (No added spheres)
                        Default sphere list used, NSphG=   13.
                        Lebedev-Laikov grids with approx.  5.0 points / Ang**2.
                        Smoothing algorithm: York/Karplus (Gamma=1.0000).
                        Polarization charges: spherical gaussians, with
                                              point-specific exponents (IZeta= 3).
                        Self-potential: point-specific (ISelfS= 7).
                        Self-field    : sphere-specific E.n sum rule (ISelfD= 2).
 1st derivatives      : Analytical E(r).r(x)/FMM algorithm (CHGder, D1EAlg=3).
                        Cavity 1st derivative terms included.
 Solvent              : Toluene, Eps=   2.374100 Eps(inf)=   2.238315
 ------------------------------------------------------------------------------
 Spheres list:
 ISph  on   Nord     Re0    Alpha      Xe            Ye            Ze
    1   P      1    2.1200  1.000      0.000313     -0.000045     -0.589730
    2   C      2    1.8500  1.000     -0.974442     -1.297748      0.272612
    3   C      3    1.8500  1.000     -0.637168      1.492445      0.272578
    4   C      4    1.8500  1.000      1.611319     -0.194673      0.272829
    5   H      5    1.2000  1.000      2.073952     -1.138166     -0.024111
    6   H      6    1.2000  1.000      1.503931     -0.182049      1.360862
    7   H      7    1.2000  1.000      2.284744      0.612252     -0.023518
    8   H      8    1.2000  1.000     -0.615490     -2.284688     -0.026520
    9   H      9    1.2000  1.000     -2.023333     -1.223423     -0.021993
   10   H     10    1.2000  1.000     -0.907547     -1.213380      1.360706
   11   H     11    1.2000  1.000     -1.673620      1.670030     -0.021805
   12   H     12    1.2000  1.000     -0.053440      2.365515     -0.026468
   13   H     13    1.2000  1.000     -0.592138      1.394442      1.360690
 ------------------------------------------------------------------------------
 GePol: Number of generator spheres                  =      13
 GePol: Total number of spheres                      =      13
 GePol: Number of exposed spheres                    =      13 (100.00%)
 GePol: Number of points                             =     992
 GePol: Average weight of points                     =       0.12
 GePol: Minimum weight of points                     =   0.21D-07
 GePol: Maximum weight of points                     =    0.20615
 GePol: Number of points with low weight             =      47
 GePol: Fraction of low-weight points (<1% of avg)   =       4.74%
 GePol: Cavity surface area                          =    120.378 Ang**2
 GePol: Cavity volume                                =     95.251 Ang**3
 ------------------------------------------------------------------------------
 Atomic radii for non-electrostatic terms: SMD-CDS.
 ------------------------------------------------------------------------------
 PCM non-electrostatic energy =         0.0003341567 Hartrees.
 Nuclear repulsion after PCM non-electrostatic terms =      177.9232304894 Hartrees.
 Leave Link  301 at Wed Oct  5 09:49:46 2022, MaxMem=  2952790016 cpu:               1.2 elap:               0.1
 (Enter /mnt/data/applications/G16/g16/l302.exe)
 NPDir=0 NMtPBC=     1 NCelOv=     1 NCel=       1 NClECP=     1 NCelD=      1
         NCelK=      1 NCelE2=     1 NClLst=     1 CellRange=     0.0.
 One-electron integrals computed using PRISM.
 One-electron integral symmetry used in STVInt
   1 Symmetry operations used in ECPInt.
 ECPInt:  NShTT=    3403 NPrTT=   10140 LenC2=    3392 LenP2D=    8543.
 LDataN:  DoStor=T MaxTD1= 6 Len=  172
 NBasis=   184 RedAO= T EigKep=  9.89D-04  NBF=   184
 NBsUse=   184 1.00D-06 EigRej= -1.00D+00 NBFU=   184
 Precomputing XC quadrature grid using
 IXCGrd= 4 IRadAn=           5 IRanWt=          -1 IRanGd=           0 AccXCQ= 0.00D+00.
 Generated NRdTot=       0 NPtTot=           0 NUsed=           0 NTot=          32
 NSgBfM=   204   204   204   204   204 MxSgAt=    13 MxSgA2=    13.
 Leave Link  302 at Wed Oct  5 09:49:46 2022, MaxMem=  2952790016 cpu:               5.2 elap:               0.5
 (Enter /mnt/data/applications/G16/g16/l303.exe)
 DipDrv:  MaxL=1.
 Leave Link  303 at Wed Oct  5 09:49:46 2022, MaxMem=  2952790016 cpu:               0.4 elap:               0.1
 (Enter /mnt/data/applications/G16/g16/l401.exe)
 Initial guess from the checkpoint file:  "PMe3.chk"
 B after Tr=    -0.000000   -0.000000   -0.000000
         Rot=    0.979615   -0.000034    0.000295    0.200884 Ang= -23.18 deg.
 Guess basis will be translated and rotated to current coordinates.
 JPrj=2 DoOrth=T DoCkMO=T.
 Leave Link  401 at Wed Oct  5 09:49:47 2022, MaxMem=  2952790016 cpu:               2.2 elap:               0.2
 (Enter /mnt/data/applications/G16/g16/l502.exe)
 Integral symmetry usage will be decided dynamically.
 Closed shell SCF:
 Using DIIS extrapolation, IDIIS=  1040.
 NGot=  2952790016 LenX=  2952702271 LenY=  2952660214
 Requested convergence on RMS density matrix=1.00D-08 within 128 cycles.
 Requested convergence on MAX density matrix=1.00D-06.
 Requested convergence on             energy=1.00D-06.
 No special actions if energy rises.
 Fock matrices will be formed incrementally for  20 cycles.

 Cycle   1  Pass 1  IDiag  1:
 FoFJK:  IHMeth= 1 ICntrl=       0 DoSepK=T KAlg= 0 I1Cent=           0 FoldK=F
 IRaf=         1 NMat=       1 IRICut=       1 DoRegI=T DoRafI=F ISym2E= 0 IDoP0=0 IntGTp=1.
 FoFCou: FMM=F IPFlag=           0 FMFlag=      100000 FMFlg1=           0
         NFxFlg=           0 DoJE=T BraDBF=F KetDBF=F FulRan=T
         wScrn=  0.000000 ICntrl=       500 IOpCl=  0 I1Cent=           0 NGrid=           0
         NMat0=    1 NMatS0=      1 NMatT0=    0 NMatD0=    1 NMtDS0=    0 NMtDT0=    0
 Symmetry not used in FoFCou.
 Inv3:  Mode=1 IEnd=     2952192.
 Iteration    1 A*A^-1 deviation from unit magnitude is 2.33D-15 for    256.
 Iteration    1 A*A^-1 deviation from orthogonality  is 1.16D-15 for    677    259.
 Iteration    1 A^-1*A deviation from unit magnitude is 2.33D-15 for    256.
 Iteration    1 A^-1*A deviation from orthogonality  is 1.30D-15 for    806    336.
 E= -461.120230014914    
 DIIS: error= 2.85D-04 at cycle   1 NSaved=   1.
 NSaved= 1 IEnMin= 1 EnMin= -461.120230014914     IErMin= 1 ErrMin= 2.85D-04
 ErrMax= 2.85D-04  0.00D+00 EMaxC= 1.00D-01 BMatC= 9.72D-06 BMatP= 9.72D-06
 IDIUse=3 WtCom= 9.97D-01 WtEn= 2.85D-03
 Coeff-Com:  0.100D+01
 Coeff-En:   0.100D+01
 Coeff:      0.100D+01
 Gap=     0.677 Goal=   None    Shift=    0.000
 RMSDP=1.35D-05 MaxDP=3.34D-04              OVMax= 1.01D-03

 Cycle   2  Pass 1  IDiag  1:
 RMSU=  1.35D-05    CP:  1.00D+00
 E= -461.120243352461     Delta-E=       -0.000013337547 Rises=F Damp=F
 DIIS: error= 5.57D-05 at cycle   2 NSaved=   2.
 NSaved= 2 IEnMin= 2 EnMin= -461.120243352461     IErMin= 2 ErrMin= 5.57D-05
 ErrMax= 5.57D-05  0.00D+00 EMaxC= 1.00D-01 BMatC= 3.00D-07 BMatP= 9.72D-06
 IDIUse=1 WtCom= 1.00D+00 WtEn= 0.00D+00
 Coeff-Com: -0.164D+00 0.116D+01
 Coeff:     -0.164D+00 0.116D+01
 Gap=     0.413 Goal=   None    Shift=    0.000
 RMSDP=4.00D-06 MaxDP=9.79D-05 DE=-1.33D-05 OVMax= 3.09D-04

 Cycle   3  Pass 1  IDiag  1:
 RMSU=  2.17D-06    CP:  1.00D+00  1.25D+00
 E= -461.120244127400     Delta-E=       -0.000000774939 Rises=F Damp=F
 DIIS: error= 8.91D-06 at cycle   3 NSaved=   3.
 NSaved= 3 IEnMin= 3 EnMin= -461.120244127400     IErMin= 3 ErrMin= 8.91D-06
 ErrMax= 8.91D-06  0.00D+00 EMaxC= 1.00D-01 BMatC= 8.21D-09 BMatP= 3.00D-07
 IDIUse=1 WtCom= 1.00D+00 WtEn= 0.00D+00
 Coeff-Com:  0.119D-01-0.171D+00 0.116D+01
 Coeff:      0.119D-01-0.171D+00 0.116D+01
 Gap=     0.413 Goal=   None    Shift=    0.000
 RMSDP=1.27D-06 MaxDP=2.28D-05 DE=-7.75D-07 OVMax= 6.17D-05

 Cycle   4  Pass 1  IDiag  1:
 RMSU=  6.26D-07    CP:  1.00D+00  1.29D+00  1.44D+00
 E= -461.120244150972     Delta-E=       -0.000000023572 Rises=F Damp=F
 DIIS: error= 2.59D-06 at cycle   4 NSaved=   4.
 NSaved= 4 IEnMin= 4 EnMin= -461.120244150972     IErMin= 4 ErrMin= 2.59D-06
 ErrMax= 2.59D-06  0.00D+00 EMaxC= 1.00D-01 BMatC= 2.13D-09 BMatP= 8.21D-09
 IDIUse=1 WtCom= 1.00D+00 WtEn= 0.00D+00
 Coeff-Com:  0.119D-01-0.119D+00 0.444D+00 0.663D+00
 Coeff:      0.119D-01-0.119D+00 0.444D+00 0.663D+00
 Gap=     0.413 Goal=   None    Shift=    0.000
 RMSDP=2.91D-07 MaxDP=7.68D-06 DE=-2.36D-08 OVMax= 1.31D-05

 Cycle   5  Pass 1  IDiag  1:
 RMSU=  1.71D-07    CP:  1.00D+00  1.29D+00  1.55D+00  9.39D-01
 E= -461.120244153394     Delta-E=       -0.000000002422 Rises=F Damp=F
 DIIS: error= 5.18D-07 at cycle   5 NSaved=   5.
 NSaved= 5 IEnMin= 5 EnMin= -461.120244153394     IErMin= 5 ErrMin= 5.18D-07
 ErrMax= 5.18D-07  0.00D+00 EMaxC= 1.00D-01 BMatC= 6.56D-11 BMatP= 2.13D-09
 IDIUse=1 WtCom= 1.00D+00 WtEn= 0.00D+00
 Coeff-Com:  0.130D-02-0.929D-02-0.525D-02 0.116D+00 0.897D+00
 Coeff:      0.130D-02-0.929D-02-0.525D-02 0.116D+00 0.897D+00
 Gap=     0.413 Goal=   None    Shift=    0.000
 RMSDP=1.30D-07 MaxDP=2.41D-06 DE=-2.42D-09 OVMax= 4.20D-06

 Cycle   6  Pass 1  IDiag  1:
 RMSU=  4.31D-08    CP:  1.00D+00  1.29D+00  1.59D+00  1.04D+00  1.22D+00
 E= -461.120244153507     Delta-E=       -0.000000000113 Rises=F Damp=F
 DIIS: error= 1.63D-07 at cycle   6 NSaved=   6.
 NSaved= 6 IEnMin= 6 EnMin= -461.120244153507     IErMin= 6 ErrMin= 1.63D-07
 ErrMax= 1.63D-07  0.00D+00 EMaxC= 1.00D-01 BMatC= 6.30D-12 BMatP= 6.56D-11
 IDIUse=1 WtCom= 1.00D+00 WtEn= 0.00D+00
 Coeff-Com: -0.539D-03 0.637D-02-0.350D-01-0.174D-01 0.236D+00 0.810D+00
 Coeff:     -0.539D-03 0.637D-02-0.350D-01-0.174D-01 0.236D+00 0.810D+00
 Gap=     0.413 Goal=   None    Shift=    0.000
 RMSDP=4.21D-08 MaxDP=1.33D-06 DE=-1.13D-10 OVMax= 1.63D-06

 Cycle   7  Pass 1  IDiag  1:
 RMSU=  1.57D-08    CP:  1.00D+00  1.29D+00  1.60D+00  1.07D+00  1.32D+00
                    CP:  1.10D+00
 E= -461.120244153513     Delta-E=       -0.000000000006 Rises=F Damp=F
 DIIS: error= 3.51D-08 at cycle   7 NSaved=   7.
 NSaved= 7 IEnMin= 7 EnMin= -461.120244153513     IErMin= 7 ErrMin= 3.51D-08
 ErrMax= 3.51D-08  0.00D+00 EMaxC= 1.00D-01 BMatC= 3.70D-13 BMatP= 6.30D-12
 IDIUse=1 WtCom= 1.00D+00 WtEn= 0.00D+00
 Coeff-Com: -0.218D-03 0.224D-02-0.910D-02-0.108D-01 0.108D-01 0.191D+00
 Coeff-Com:  0.816D+00
 Coeff:     -0.218D-03 0.224D-02-0.910D-02-0.108D-01 0.108D-01 0.191D+00
 Coeff:      0.816D+00
 Gap=     0.413 Goal=   None    Shift=    0.000
 RMSDP=1.28D-08 MaxDP=4.91D-07 DE=-6.37D-12 OVMax= 4.89D-07

 Cycle   8  Pass 1  IDiag  1:
 RMSU=  3.41D-09    CP:  1.00D+00  1.29D+00  1.61D+00  1.08D+00  1.36D+00
                    CP:  1.24D+00  1.29D+00
 E= -461.120244153511     Delta-E=        0.000000000002 Rises=F Damp=F
 DIIS: error= 1.06D-08 at cycle   8 NSaved=   8.
 NSaved= 8 IEnMin= 7 EnMin= -461.120244153513     IErMin= 8 ErrMin= 1.06D-08
 ErrMax= 1.06D-08  0.00D+00 EMaxC= 1.00D-01 BMatC= 2.38D-14 BMatP= 3.70D-13
 IDIUse=1 WtCom= 1.00D+00 WtEn= 0.00D+00
 Coeff-Com:  0.382D-04-0.481D-03 0.298D-02 0.765D-03-0.238D-01-0.663D-01
 Coeff-Com:  0.311D-01 0.106D+01
 Coeff:      0.382D-04-0.481D-03 0.298D-02 0.765D-03-0.238D-01-0.663D-01
 Coeff:      0.311D-01 0.106D+01
 Gap=     0.413 Goal=   None    Shift=    0.000
 RMSDP=6.55D-09 MaxDP=2.70D-07 DE= 1.93D-12 OVMax= 2.78D-07

 Error on total polarization charges =  0.02912
 SCF Done:  E(RwB97XD) =  -461.120244154     A.U. after    8 cycles
            NFock=  8  Conv=0.65D-08     -V/T= 2.0030
 KE= 4.597416866737D+02 PE=-1.444939633814D+03 EE= 3.461544724976D+02
 SMD-CDS (non-electrostatic) energy       (kcal/mol) =       0.21
 (included in total energy above)
 Leave Link  502 at Wed Oct  5 09:51:46 2022, MaxMem=  2952790016 cpu:            1430.0 elap:             119.8
 (Enter /mnt/data/applications/G16/g16/l701.exe)
 ... and contract with generalized density number  0.
 Compute integral first derivatives.
 R6Disp: Adding Grimme-D2 dispersion energy 1st derivatives to the gradient.
   1 Symmetry operations used in ECPInt.
 ECPInt:  NShTT=    3403 NPrTT=   10140 LenC2=    3392 LenP2D=    8543.
 LDataN:  DoStor=T MaxTD1= 7 Len=  274
 D1PCM: PCM CHGder 1st derivatives, ID1Alg=3 FixD1E=F DoIter=F DoCFld=F I1PDM=0.
 GePol: Maximum number of non-zero 1st derivatives   =     232
 Leave Link  701 at Wed Oct  5 09:51:48 2022, MaxMem=  2952790016 cpu:              20.2 elap:               1.7
 (Enter /mnt/data/applications/G16/g16/l702.exe)
 L702 exits ... SP integral derivatives will be done elsewhere.
 Leave Link  702 at Wed Oct  5 09:51:48 2022, MaxMem=  2952790016 cpu:               0.2 elap:               0.0
 (Enter /mnt/data/applications/G16/g16/l703.exe)
 Integral derivatives from FoFJK, PRISM(SPDF).
 Compute integral first derivatives, UseDBF=F ICtDFT=           0.
 Calling FoFJK, ICntrl=      2127 FMM=F ISym2X=0 I1Cent= 0 IOpClX= 0 NMat=1 NMatS=1 NMatT=0.
 FoFJK:  IHMeth= 1 ICntrl=    2127 DoSepK=T KAlg= 0 I1Cent=           0 FoldK=F
 IRaf=         1 NMat=       1 IRICut=       1 DoRegI=T DoRafI=F ISym2E= 0 IDoP0=0 IntGTp=1.
 FoFCou: FMM=F IPFlag=           0 FMFlag=      100000 FMFlg1=         800
         NFxFlg=           0 DoJE=F BraDBF=F KetDBF=F FulRan=T
         wScrn=  0.000000 ICntrl=      2527 IOpCl=  0 I1Cent=           0 NGrid=           0
         NMat0=    1 NMatS0=      1 NMatT0=    0 NMatD0=    1 NMtDS0=    0 NMtDT0=    0
 Symmetry not used in FoFCou.
 Leave Link  703 at Wed Oct  5 09:52:02 2022, MaxMem=  2952790016 cpu:             163.0 elap:              13.6
 (Enter /mnt/data/applications/G16/g16/l716.exe)
 Dipole        =-1.20207882D-04 1.08919649D-04 6.26465963D-01
 ***** Axes restored to original set *****
 -------------------------------------------------------------------
 Center     Atomic                   Forces (Hartrees/Bohr)
 Number     Number              X              Y              Z
 -------------------------------------------------------------------
      1       15           0.000082919   -0.000051204   -0.000045311
      2        6          -0.000058166   -0.000001439    0.000024121
      3        6          -0.000009159    0.000005778   -0.000012758
      4        6          -0.000034792   -0.000000636    0.000038179
      5        1          -0.000006084   -0.000015020   -0.000016983
      6        1           0.000015365    0.000022401   -0.000003540
      7        1           0.000008203   -0.000008018    0.000004290
      8        1           0.000005859    0.000031362   -0.000009621
      9        1          -0.000009776    0.000025402   -0.000003154
     10        1           0.000008233   -0.000004271   -0.000000238
     11        1          -0.000006529   -0.000001735    0.000019541
     12        1           0.000014794    0.000005438   -0.000000716
     13        1          -0.000010866   -0.000008058    0.000006189
 -------------------------------------------------------------------
 Cartesian Forces:  Max     0.000082919 RMS     0.000024159
 Leave Link  716 at Wed Oct  5 09:52:02 2022, MaxMem=  2952790016 cpu:               0.3 elap:               0.0
 (Enter /mnt/data/applications/G16/g16/l103.exe)

 GradGradGradGradGradGradGradGradGradGradGradGradGradGradGradGradGradGrad
 Berny optimization.
 Using GEDIIS/GDIIS optimizer.
 FormGI is forming the generalized inverse of G from B-inverse, IUseBI=4.
 Internal  Forces:  Max     0.000051943 RMS     0.000018806
 Search for a local minimum.
 Step number   5 out of a maximum of   61
 All quantities printed in internal units (Hartrees-Bohrs-Radians)
 RMS Force = .18806D-04 SwitMx=.10000D-02 MixMth= 2
 Mixed Optimization -- En-DIIS/RFO-DIIS
 Swapping is turned off.
 Update second derivatives using D2CorX and points    1    2    3    4    5
 DE= -9.52D-07 DEPred=-2.05D-06 R= 4.65D-01
 Trust test= 4.65D-01 RLast= 2.13D-02 DXMaxT set to 1.41D-01
 ITU=  0  1  1  1  0
     Eigenvalues ---    0.00476   0.00911   0.00951   0.06406   0.07236
     Eigenvalues ---    0.07242   0.07280   0.07587   0.07638   0.07669
     Eigenvalues ---    0.12852   0.12964   0.15127   0.15980   0.16000
     Eigenvalues ---    0.16000   0.16000   0.16000   0.16026   0.16221
     Eigenvalues ---    0.18146   0.24279   0.24865   0.24986   0.34564
     Eigenvalues ---    0.34598   0.34632   0.34687   0.34709   0.34746
     Eigenvalues ---    0.34809   0.34859   0.35112
 En-DIIS/RFO-DIIS/Sim-DIIS IScMMF=       -3 using points:     5    4    3
 RFO step:  Lambda=-4.53188040D-07.
 NNeg= 0 NGDIIS= 3 SimSw=  2.50D-01 Rises=F DC= -9.52D-07 SmlDif=  1.00D-05
 NRisDI= 0 DoIntr=F SqrtH=F CThrHd= 10.0 CDAdj=  3.0
 RMS Error=  0.1139289475D-02 NUsed= 3 OKEnD=F EnDIS=F
 InvSVX:  RCond= 6.96D-07 Info=           0 Equed=N FErr=  2.15D-13 BErr=  5.82D-17
 DidBck=F Rises=F RFO-DIIS coefs:    1.03574    0.20696   -0.24271
 Iteration  1 RMS(Cart)=  0.00110743 RMS(Int)=  0.00000083
 Iteration  2 RMS(Cart)=  0.00000083 RMS(Int)=  0.00000024
 ITry= 1 IFail=0 DXMaxC= 2.75D-03 DCOld= 1.00D+10 DXMaxT= 1.41D-01 DXLimC= 3.00D+00 Rises=F
 Variable       Old X    -DE/DX   Delta X   Delta X   Delta X     New X
                                 (Linear)    (Quad)   (Total)
    R1        3.47310  -0.00005   0.00055  -0.00065  -0.00010   3.47299
    R2        3.47293  -0.00000   0.00054  -0.00050   0.00004   3.47297
    R3        3.47280  -0.00001   0.00049  -0.00046   0.00003   3.47282
    R4        2.06350   0.00002  -0.00003   0.00005   0.00001   2.06352
    R5        2.06360  -0.00002  -0.00002  -0.00004  -0.00006   2.06354
    R6        2.06624   0.00001  -0.00002   0.00003   0.00001   2.06625
    R7        2.06355   0.00000  -0.00002   0.00001  -0.00001   2.06354
    R8        2.06354   0.00000  -0.00003   0.00001  -0.00002   2.06352
    R9        2.06631  -0.00001  -0.00002  -0.00002  -0.00004   2.06627
   R10        2.06351   0.00001  -0.00003   0.00003  -0.00000   2.06351
   R11        2.06621   0.00001  -0.00005   0.00006   0.00001   2.06622
   R12        2.06357  -0.00000  -0.00003   0.00000  -0.00003   2.06354
    A1        1.74091   0.00005  -0.00032   0.00065   0.00034   1.74125
    A2        1.74156   0.00000  -0.00019   0.00031   0.00012   1.74167
    A3        1.74148   0.00000  -0.00018   0.00028   0.00011   1.74159
    A4        1.91272  -0.00001   0.00036  -0.00036  -0.00000   1.91272
    A5        1.91217  -0.00001   0.00015  -0.00015  -0.00000   1.91217
    A6        1.96059   0.00000  -0.00069   0.00043  -0.00026   1.96032
    A7        1.87901   0.00001  -0.00002   0.00014   0.00013   1.87913
    A8        1.89889  -0.00000   0.00015  -0.00010   0.00005   1.89894
    A9        1.89862   0.00000   0.00007   0.00004   0.00011   1.89872
   A10        1.91220   0.00002   0.00015  -0.00002   0.00014   1.91234
   A11        1.91281  -0.00001   0.00037  -0.00037   0.00000   1.91282
   A12        1.96043   0.00001  -0.00069   0.00046  -0.00024   1.96019
   A13        1.87918  -0.00001  -0.00003   0.00006   0.00003   1.87921
   A14        1.89857  -0.00000   0.00007   0.00002   0.00008   1.89865
   A15        1.89881  -0.00001   0.00015  -0.00015  -0.00001   1.89881
   A16        1.91269  -0.00004   0.00012  -0.00032  -0.00019   1.91250
   A17        1.96031   0.00004  -0.00058   0.00059   0.00000   1.96032
   A18        1.91238  -0.00000   0.00012  -0.00012   0.00001   1.91238
   A19        1.89883  -0.00001   0.00019  -0.00017   0.00002   1.89885
   A20        1.87906   0.00002  -0.00002   0.00015   0.00012   1.87918
   A21        1.89873  -0.00001   0.00020  -0.00014   0.00005   1.89878
    D1       -3.00450   0.00001   0.00192  -0.00008   0.00184  -3.00265
    D2        1.22068   0.00001   0.00164   0.00005   0.00169   1.22238
    D3       -0.89155   0.00000   0.00191  -0.00018   0.00173  -0.88981
    D4       -1.22773   0.00003   0.00163   0.00042   0.00205  -1.22569
    D5        2.99745   0.00002   0.00135   0.00055   0.00190   2.99934
    D6        0.88522   0.00002   0.00162   0.00032   0.00194   0.88715
    D7       -1.22043  -0.00001  -0.00159   0.00004  -0.00155  -1.22198
    D8        3.00446  -0.00001  -0.00186   0.00020  -0.00167   3.00279
    D9        0.89165   0.00001  -0.00185   0.00035  -0.00151   0.89014
   D10       -2.99725  -0.00002  -0.00129  -0.00048  -0.00177  -2.99902
   D11        1.22764  -0.00002  -0.00156  -0.00032  -0.00188   1.22576
   D12       -0.88517  -0.00001  -0.00155  -0.00017  -0.00172  -0.88690
   D13        1.22491  -0.00003   0.00009  -0.00032  -0.00023   1.22468
   D14       -0.88777  -0.00002   0.00015  -0.00027  -0.00012  -0.88789
   D15       -3.00011  -0.00003   0.00020  -0.00039  -0.00019  -3.00030
   D16        3.00120   0.00002  -0.00032   0.00049   0.00017   3.00136
   D17        0.88851   0.00003  -0.00026   0.00054   0.00028   0.88879
   D18       -1.22382   0.00002  -0.00020   0.00041   0.00021  -1.22361
         Item               Value     Threshold  Converged?
 Maximum Force            0.000052     0.000450     YES
 RMS     Force            0.000019     0.000300     YES
 Maximum Displacement     0.002755     0.001800     NO 
 RMS     Displacement     0.001107     0.001200     YES
 Predicted change in Energy=-2.117883D-07
 Lowest energy point so far.  Saving SCF results.
 GradGradGradGradGradGradGradGradGradGradGradGradGradGradGradGradGradGrad

 Leave Link  103 at Wed Oct  5 09:52:02 2022, MaxMem=  2952790016 cpu:               0.2 elap:               0.0
 (Enter /mnt/data/applications/G16/g16/l202.exe)
                          Input orientation:                          
 ---------------------------------------------------------------------
 Center     Atomic      Atomic             Coordinates (Angstroms)
 Number     Number       Type             X           Y           Z
 ---------------------------------------------------------------------
      1         15           0        1.536353   -0.165739   -0.000123
      2          6           0        2.384554   -0.994932   -1.403905
      3          6           0        2.383925   -0.989927    1.406968
      4          6           0        2.426656    1.441942   -0.002683
      5          1           0        2.139689    2.017723   -0.885012
      6          1           0        3.512679    1.315151   -0.002642
      7          1           0        2.139982    2.020237    0.878116
      8          1           0        2.095280   -0.515364   -2.341309
      9          1           0        2.070419   -2.039487   -1.455323
     10          1           0        3.473410   -0.958807   -1.310942
     11          1           0        2.070178   -2.034419    1.461861
     12          1           0        2.094184   -0.507186    2.342598
     13          1           0        3.472825   -0.953772    1.314399
 ---------------------------------------------------------------------
                    Distance matrix (angstroms):
                    1          2          3          4          5
     1  P    0.000000
     2  C    1.837828   0.000000
     3  C    1.837816   2.810878   0.000000
     4  C    1.837739   2.811325   2.811215   0.000000
     5  H    2.431985   3.066806   3.789298   1.091961   0.000000
     6  H    2.469596   2.927915   2.928220   1.093399   1.776875
     7  H    2.431905   3.789285   3.065987   1.091977   1.763130
     8  H    2.432239   1.091967   3.789209   3.067577   2.922209
     9  H    2.431823   1.091979   3.064730   3.789117   4.097683
    10  H    2.469694   1.093414   2.928307   2.927598   3.289371
    11  H    2.431940   3.064634   1.091977   3.789070   4.683215
    12  H    2.432304   3.789261   1.091967   3.067570   4.098135
    13  H    2.469593   2.928345   1.093425   2.927221   3.929942
                    6          7          8          9         10
     6  H    0.000000
     7  H    1.776845   0.000000
     8  H    3.290770   4.098288   0.000000
     9  H    3.929884   4.683068   1.763105   0.000000
    10  H    2.623752   3.929976   1.776947   1.776822   0.000000
    11  H    3.930038   4.097056   4.095395   2.917188   3.288531
    12  H    3.291382   2.921417   4.683915   4.095450   3.931231
    13  H    2.623776   3.288091   3.931162   3.288902   2.625346
                   11         12         13
    11  H    0.000000
    12  H    1.763155   0.000000
    13  H    1.776784   1.776874   0.000000
 Stoichiometry    C3H9P
 Framework group  C1[X(C3H9P)]
 Deg. of freedom    33
 Full point group                 C1      NOp   1
 RotChk:  IX=0 Diff= 1.24D-03
 Largest Abelian subgroup         C1      NOp   1
 Largest concise Abelian subgroup C1      NOp   1
                         Standard orientation:                         
 ---------------------------------------------------------------------
 Center     Atomic      Atomic             Coordinates (Angstroms)
 Number     Number       Type             X           Y           Z
 ---------------------------------------------------------------------
      1         15           0        0.000203   -0.000065   -0.589567
      2          6           0       -0.975514   -1.297099    0.272574
      3          6           0       -0.635888    1.493185    0.272502
      4          6           0        1.611219   -0.196027    0.272703
      5          1           0        2.072831   -1.139962   -0.024414
      6          1           0        1.504036   -0.183383    1.360763
      7          1           0        2.285252    0.610324   -0.023762
      8          1           0       -0.616014   -2.284260   -0.025193
      9          1           0       -2.024009   -1.223087   -0.023399
     10          1           0       -0.909853   -1.211594    1.360660
     11          1           0       -1.671657    1.672744   -0.023060
     12          1           0       -0.050240    2.365359   -0.025359
     13          1           0       -0.592286    1.394474    1.360589
 ---------------------------------------------------------------------
 Rotational constants (GHZ):           5.8379650           5.8362058           3.7268633
 Leave Link  202 at Wed Oct  5 09:52:02 2022, MaxMem=  2952790016 cpu:               0.1 elap:               0.0
 (Enter /mnt/data/applications/G16/g16/l301.exe)
 Standard basis: def2TZVP (5D, 7F)
 Ernie: Thresh=  0.10000D-02 Tol=  0.10000D-05 Strict=F.
 There are   204 symmetry adapted cartesian basis functions of A   symmetry.
 There are   184 symmetry adapted basis functions of A   symmetry.
   184 basis functions,   294 primitive gaussians,   204 cartesian basis functions
    21 alpha electrons       21 beta electrons
       nuclear repulsion energy       177.9266402673 Hartrees.
 IExCor= 4639 DFT=T Ex+Corr=wB97XD ExCW=0 ScaHFX=  1.000000
 ScaDFX=  1.000000  1.000000  1.000000  1.000000 ScalE2=  1.000000  1.000000
 IRadAn=      5 IRanWt=     -1 IRanGd=            0 ICorTp=0 IEmpDi=121
 HFx  wShort=  0.000000 wLong=  0.200000 cFull=  0.222036 cShort=  0.000000 cLong=  0.777964
 DFx  wShort=  0.000000 wLong=  0.200000 cFull=  0.000000 cShort=  0.000000 cLong=  1.000000
 NAtoms=   13 NActive=   13 NUniq=   13 SFac= 1.00D+00 NAtFMM=   60 NAOKFM=F Big=F
 Integral buffers will be    131072 words long.
 Raffenetti 2 integral format.
 Two-electron integral symmetry is turned on.
 R6Disp:  Grimme-D2 Dispersion energy=       -0.0052512737 Hartrees.
 Nuclear repulsion after empirical dispersion term =      177.9213889937 Hartrees.
 ------------------------------------------------------------------------------
 Polarizable Continuum Model (PCM)
 =================================
 Model                : PCM.
 Atomic radii         : SMD-Coulomb.
 Polarization charges : Total charges.
 Charge compensation  : None.
 Solution method      : On-the-fly selection.
 Cavity type          : VdW (van der Waals Surface) (Alpha=1.000).
 Cavity algorithm     : GePol (No added spheres)
                        Default sphere list used, NSphG=   13.
                        Lebedev-Laikov grids with approx.  5.0 points / Ang**2.
                        Smoothing algorithm: York/Karplus (Gamma=1.0000).
                        Polarization charges: spherical gaussians, with
                                              point-specific exponents (IZeta= 3).
                        Self-potential: point-specific (ISelfS= 7).
                        Self-field    : sphere-specific E.n sum rule (ISelfD= 2).
 1st derivatives      : Analytical E(r).r(x)/FMM algorithm (CHGder, D1EAlg=3).
                        Cavity 1st derivative terms included.
 Solvent              : Toluene, Eps=   2.374100 Eps(inf)=   2.238315
 ------------------------------------------------------------------------------
 Spheres list:
 ISph  on   Nord     Re0    Alpha      Xe            Ye            Ze
    1   P      1    2.1200  1.000      0.000203     -0.000065     -0.589567
    2   C      2    1.8500  1.000     -0.975514     -1.297099      0.272574
    3   C      3    1.8500  1.000     -0.635888      1.493185      0.272502
    4   C      4    1.8500  1.000      1.611219     -0.196027      0.272703
    5   H      5    1.2000  1.000      2.072831     -1.139962     -0.024414
    6   H      6    1.2000  1.000      1.504036     -0.183383      1.360763
    7   H      7    1.2000  1.000      2.285252      0.610324     -0.023762
    8   H      8    1.2000  1.000     -0.616014     -2.284260     -0.025193
    9   H      9    1.2000  1.000     -2.024009     -1.223087     -0.023399
   10   H     10    1.2000  1.000     -0.909853     -1.211594      1.360660
   11   H     11    1.2000  1.000     -1.671657      1.672744     -0.023060
   12   H     12    1.2000  1.000     -0.050240      2.365359     -0.025359
   13   H     13    1.2000  1.000     -0.592286      1.394474      1.360589
 ------------------------------------------------------------------------------
 GePol: Number of generator spheres                  =      13
 GePol: Total number of spheres                      =      13
 GePol: Number of exposed spheres                    =      13 (100.00%)
 GePol: Number of points                             =     991
 GePol: Average weight of points                     =       0.12
 GePol: Minimum weight of points                     =   0.17D-09
 GePol: Maximum weight of points                     =    0.20615
 GePol: Number of points with low weight             =      46
 GePol: Fraction of low-weight points (<1% of avg)   =       4.64%
 GePol: Cavity surface area                          =    120.383 Ang**2
 GePol: Cavity volume                                =     95.253 Ang**3
 ------------------------------------------------------------------------------
 Atomic radii for non-electrostatic terms: SMD-CDS.
 ------------------------------------------------------------------------------
 PCM non-electrostatic energy =         0.0003348909 Hartrees.
 Nuclear repulsion after PCM non-electrostatic terms =      177.9217238846 Hartrees.
 Leave Link  301 at Wed Oct  5 09:52:02 2022, MaxMem=  2952790016 cpu:               1.3 elap:               0.1
 (Enter /mnt/data/applications/G16/g16/l302.exe)
 NPDir=0 NMtPBC=     1 NCelOv=     1 NCel=       1 NClECP=     1 NCelD=      1
         NCelK=      1 NCelE2=     1 NClLst=     1 CellRange=     0.0.
 One-electron integrals computed using PRISM.
 One-electron integral symmetry used in STVInt
   1 Symmetry operations used in ECPInt.
 ECPInt:  NShTT=    3403 NPrTT=   10140 LenC2=    3392 LenP2D=    8544.
 LDataN:  DoStor=T MaxTD1= 6 Len=  172
 NBasis=   184 RedAO= T EigKep=  9.89D-04  NBF=   184
 NBsUse=   184 1.00D-06 EigRej= -1.00D+00 NBFU=   184
 Precomputing XC quadrature grid using
 IXCGrd= 4 IRadAn=           5 IRanWt=          -1 IRanGd=           0 AccXCQ= 0.00D+00.
 Generated NRdTot=       0 NPtTot=           0 NUsed=           0 NTot=          32
 NSgBfM=   204   204   204   204   204 MxSgAt=    13 MxSgA2=    13.
 Leave Link  302 at Wed Oct  5 09:52:03 2022, MaxMem=  2952790016 cpu:               5.5 elap:               0.5
 (Enter /mnt/data/applications/G16/g16/l303.exe)
 DipDrv:  MaxL=1.
 Leave Link  303 at Wed Oct  5 09:52:03 2022, MaxMem=  2952790016 cpu:               0.4 elap:               0.1
 (Enter /mnt/data/applications/G16/g16/l401.exe)
 Initial guess from the checkpoint file:  "PMe3.chk"
 B after Tr=     0.000000   -0.000000   -0.000000
         Rot=    1.000000    0.000016    0.000038    0.000421 Ang=   0.05 deg.
 Guess basis will be translated and rotated to current coordinates.
 JPrj=2 DoOrth=T DoCkMO=T.
 Leave Link  401 at Wed Oct  5 09:52:03 2022, MaxMem=  2952790016 cpu:               2.0 elap:               0.2
 (Enter /mnt/data/applications/G16/g16/l502.exe)
 Integral symmetry usage will be decided dynamically.
 Closed shell SCF:
 Using DIIS extrapolation, IDIIS=  1040.
 NGot=  2952790016 LenX=  2952702271 LenY=  2952660214
 Requested convergence on RMS density matrix=1.00D-08 within 128 cycles.
 Requested convergence on MAX density matrix=1.00D-06.
 Requested convergence on             energy=1.00D-06.
 No special actions if energy rises.
 Fock matrices will be formed incrementally for  20 cycles.

 Cycle   1  Pass 1  IDiag  1:
 FoFJK:  IHMeth= 1 ICntrl=       0 DoSepK=T KAlg= 0 I1Cent=           0 FoldK=F
 IRaf=         1 NMat=       1 IRICut=       1 DoRegI=T DoRafI=F ISym2E= 0 IDoP0=0 IntGTp=1.
 FoFCou: FMM=F IPFlag=           0 FMFlag=      100000 FMFlg1=           0
         NFxFlg=           0 DoJE=T BraDBF=F KetDBF=F FulRan=T
         wScrn=  0.000000 ICntrl=       500 IOpCl=  0 I1Cent=           0 NGrid=           0
         NMat0=    1 NMatS0=      1 NMatT0=    0 NMatD0=    1 NMtDS0=    0 NMtDT0=    0
 Symmetry not used in FoFCou.
 Inv3:  Mode=1 IEnd=     2946243.
 Iteration    1 A*A^-1 deviation from unit magnitude is 2.33D-15 for    241.
 Iteration    1 A*A^-1 deviation from orthogonality  is 1.68D-15 for    699    278.
 Iteration    1 A^-1*A deviation from unit magnitude is 2.55D-15 for    241.
 Iteration    1 A^-1*A deviation from orthogonality  is 1.24D-15 for    687    251.
 E= -461.120243206467    
 DIIS: error= 7.93D-05 at cycle   1 NSaved=   1.
 NSaved= 1 IEnMin= 1 EnMin= -461.120243206467     IErMin= 1 ErrMin= 7.93D-05
 ErrMax= 7.93D-05  0.00D+00 EMaxC= 1.00D-01 BMatC= 7.29D-07 BMatP= 7.29D-07
 IDIUse=1 WtCom= 1.00D+00 WtEn= 0.00D+00
 Coeff-Com:  0.100D+01
 Coeff:      0.100D+01
 Gap=     0.677 Goal=   None    Shift=    0.000
 RMSDP=3.65D-06 MaxDP=7.84D-05              OVMax= 2.57D-04

 Cycle   2  Pass 1  IDiag  1:
 RMSU=  3.65D-06    CP:  1.00D+00
 E= -461.120244214415     Delta-E=       -0.000001007948 Rises=F Damp=F
 DIIS: error= 1.54D-05 at cycle   2 NSaved=   2.
 NSaved= 2 IEnMin= 2 EnMin= -461.120244214415     IErMin= 2 ErrMin= 1.54D-05
 ErrMax= 1.54D-05  0.00D+00 EMaxC= 1.00D-01 BMatC= 2.29D-08 BMatP= 7.29D-07
 IDIUse=1 WtCom= 1.00D+00 WtEn= 0.00D+00
 Coeff-Com: -0.166D+00 0.117D+01
 Coeff:     -0.166D+00 0.117D+01
 Gap=     0.413 Goal=   None    Shift=    0.000
 RMSDP=1.09D-06 MaxDP=2.23D-05 DE=-1.01D-06 OVMax= 7.70D-05

 Cycle   3  Pass 1  IDiag  1:
 RMSU=  5.93D-07    CP:  1.00D+00  1.25D+00
 E= -461.120244273631     Delta-E=       -0.000000059216 Rises=F Damp=F
 DIIS: error= 2.49D-06 at cycle   3 NSaved=   3.
 NSaved= 3 IEnMin= 3 EnMin= -461.120244273631     IErMin= 3 ErrMin= 2.49D-06
 ErrMax= 2.49D-06  0.00D+00 EMaxC= 1.00D-01 BMatC= 7.17D-10 BMatP= 2.29D-08
 IDIUse=1 WtCom= 1.00D+00 WtEn= 0.00D+00
 Coeff-Com:  0.588D-02-0.127D+00 0.112D+01
 Coeff:      0.588D-02-0.127D+00 0.112D+01
 Gap=     0.413 Goal=   None    Shift=    0.000
 RMSDP=3.34D-07 MaxDP=5.64D-06 DE=-5.92D-08 OVMax= 1.57D-05

 Cycle   4  Pass 1  IDiag  1:
 RMSU=  1.69D-07    CP:  1.00D+00  1.29D+00  1.42D+00
 E= -461.120244275406     Delta-E=       -0.000000001775 Rises=F Damp=F
 DIIS: error= 1.14D-06 at cycle   4 NSaved=   4.
 NSaved= 4 IEnMin= 4 EnMin= -461.120244275406     IErMin= 4 ErrMin= 1.14D-06
 ErrMax= 1.14D-06  0.00D+00 EMaxC= 1.00D-01 BMatC= 2.61D-10 BMatP= 7.17D-10
 IDIUse=1 WtCom= 1.00D+00 WtEn= 0.00D+00
 Coeff-Com:  0.134D-01-0.131D+00 0.468D+00 0.650D+00
 Coeff:      0.134D-01-0.131D+00 0.468D+00 0.650D+00
 Gap=     0.413 Goal=   None    Shift=    0.000
 RMSDP=8.76D-08 MaxDP=2.15D-06 DE=-1.77D-09 OVMax= 4.29D-06

 Cycle   5  Pass 1  IDiag  1:
 RMSU=  4.71D-08    CP:  1.00D+00  1.30D+00  1.54D+00  9.20D-01
 E= -461.120244275690     Delta-E=       -0.000000000284 Rises=F Damp=F
 DIIS: error= 1.49D-07 at cycle   5 NSaved=   5.
 NSaved= 5 IEnMin= 5 EnMin= -461.120244275690     IErMin= 5 ErrMin= 1.49D-07
 ErrMax= 1.49D-07  0.00D+00 EMaxC= 1.00D-01 BMatC= 3.00D-12 BMatP= 2.61D-10
 IDIUse=1 WtCom= 1.00D+00 WtEn= 0.00D+00
 Coeff-Com:  0.269D-03 0.671D-03-0.386D-01 0.326D-01 0.101D+01
 Coeff:      0.269D-03 0.671D-03-0.386D-01 0.326D-01 0.101D+01
 Gap=     0.413 Goal=   None    Shift=    0.000
 RMSDP=3.66D-08 MaxDP=5.99D-07 DE=-2.84D-10 OVMax= 1.05D-06

 Cycle   6  Pass 1  IDiag  1:
 RMSU=  8.83D-09    CP:  1.00D+00  1.30D+00  1.59D+00  1.02D+00  1.23D+00
 E= -461.120244275687     Delta-E=        0.000000000002 Rises=F Damp=F
 DIIS: error= 3.95D-08 at cycle   6 NSaved=   6.
 NSaved= 6 IEnMin= 5 EnMin= -461.120244275690     IErMin= 6 ErrMin= 3.95D-08
 ErrMax= 3.95D-08  0.00D+00 EMaxC= 1.00D-01 BMatC= 3.18D-13 BMatP= 3.00D-12
 IDIUse=1 WtCom= 1.00D+00 WtEn= 0.00D+00
 Coeff-Com: -0.556D-03 0.639D-02-0.333D-01-0.228D-01 0.275D+00 0.775D+00
 Coeff:     -0.556D-03 0.639D-02-0.333D-01-0.228D-01 0.275D+00 0.775D+00
 Gap=     0.413 Goal=   None    Shift=    0.000
 RMSDP=7.90D-09 MaxDP=1.77D-07 DE= 2.39D-12 OVMax= 2.83D-07

 Error on total polarization charges =  0.02912
 SCF Done:  E(RwB97XD) =  -461.120244276     A.U. after    6 cycles
            NFock=  6  Conv=0.79D-08     -V/T= 2.0030
 KE= 4.597417294774D+02 PE=-1.444936636903D+03 EE= 3.461529392651D+02
 SMD-CDS (non-electrostatic) energy       (kcal/mol) =       0.21
 (included in total energy above)
 Leave Link  502 at Wed Oct  5 09:53:34 2022, MaxMem=  2952790016 cpu:            1090.3 elap:              91.4
 (Enter /mnt/data/applications/G16/g16/l701.exe)
 ... and contract with generalized density number  0.
 Compute integral first derivatives.
 R6Disp: Adding Grimme-D2 dispersion energy 1st derivatives to the gradient.
   1 Symmetry operations used in ECPInt.
 ECPInt:  NShTT=    3403 NPrTT=   10140 LenC2=    3392 LenP2D=    8544.
 LDataN:  DoStor=T MaxTD1= 7 Len=  274
 D1PCM: PCM CHGder 1st derivatives, ID1Alg=3 FixD1E=F DoIter=F DoCFld=F I1PDM=0.
 GePol: Maximum number of non-zero 1st derivatives   =     232
 Leave Link  701 at Wed Oct  5 09:53:36 2022, MaxMem=  2952790016 cpu:              20.3 elap:               1.7
 (Enter /mnt/data/applications/G16/g16/l702.exe)
 L702 exits ... SP integral derivatives will be done elsewhere.
 Leave Link  702 at Wed Oct  5 09:53:36 2022, MaxMem=  2952790016 cpu:               0.2 elap:               0.0
 (Enter /mnt/data/applications/G16/g16/l703.exe)
 Integral derivatives from FoFJK, PRISM(SPDF).
 Compute integral first derivatives, UseDBF=F ICtDFT=           0.
 Calling FoFJK, ICntrl=      2127 FMM=F ISym2X=0 I1Cent= 0 IOpClX= 0 NMat=1 NMatS=1 NMatT=0.
 FoFJK:  IHMeth= 1 ICntrl=    2127 DoSepK=T KAlg= 0 I1Cent=           0 FoldK=F
 IRaf=         1 NMat=       1 IRICut=       1 DoRegI=T DoRafI=F ISym2E= 0 IDoP0=0 IntGTp=1.
 FoFCou: FMM=F IPFlag=           0 FMFlag=      100000 FMFlg1=         800
         NFxFlg=           0 DoJE=F BraDBF=F KetDBF=F FulRan=T
         wScrn=  0.000000 ICntrl=      2527 IOpCl=  0 I1Cent=           0 NGrid=           0
         NMat0=    1 NMatS0=      1 NMatT0=    0 NMatD0=    1 NMtDS0=    0 NMtDT0=    0
 Symmetry not used in FoFCou.
 Leave Link  703 at Wed Oct  5 09:53:50 2022, MaxMem=  2952790016 cpu:             162.8 elap:              13.6
 (Enter /mnt/data/applications/G16/g16/l716.exe)
 Dipole        =-1.79127215D-04 7.51270701D-05 6.26666888D-01
 ***** Axes restored to original set *****
 -------------------------------------------------------------------
 Center     Atomic                   Forces (Hartrees/Bohr)
 Number     Number              X              Y              Z
 -------------------------------------------------------------------
      1       15           0.000002910   -0.000019649   -0.000016650
      2        6          -0.000020122    0.000018430    0.000054408
      3        6           0.000003888    0.000013560   -0.000054794
      4        6          -0.000016430   -0.000042937    0.000022992
      5        1          -0.000001897   -0.000004500   -0.000010503
      6        1           0.000015238    0.000029265   -0.000001890
      7        1           0.000005953   -0.000002054    0.000005834
      8        1          -0.000000007    0.000022282   -0.000002181
      9        1          -0.000005560    0.000007311   -0.000007526
     10        1           0.000009078   -0.000012053   -0.000023339
     11        1          -0.000001524   -0.000004086    0.000011575
     12        1           0.000003101    0.000009155    0.000000792
     13        1           0.000005374   -0.000014725    0.000021283
 -------------------------------------------------------------------
 Cartesian Forces:  Max     0.000054794 RMS     0.000018866
 Leave Link  716 at Wed Oct  5 09:53:50 2022, MaxMem=  2952790016 cpu:               0.2 elap:               0.0
 (Enter /mnt/data/applications/G16/g16/l103.exe)

 GradGradGradGradGradGradGradGradGradGradGradGradGradGradGradGradGradGrad
 Berny optimization.
 Using GEDIIS/GDIIS optimizer.
 FormGI is forming the generalized inverse of G from B-inverse, IUseBI=4.
 Internal  Forces:  Max     0.000047980 RMS     0.000015927
 Search for a local minimum.
 Step number   6 out of a maximum of   61
 All quantities printed in internal units (Hartrees-Bohrs-Radians)
 RMS Force = .15927D-04 SwitMx=.10000D-02 MixMth= 2
 Mixed Optimization -- En-DIIS/RFO-DIIS
 Swapping is turned off.
 Update second derivatives using D2CorX and points    1    2    3    4    5
                                                      6
 DE= -1.22D-07 DEPred=-2.12D-07 R= 5.77D-01
 Trust test= 5.77D-01 RLast= 6.21D-03 DXMaxT set to 1.41D-01
 ITU=  0  0  1  1  1  0
     Eigenvalues ---    0.00373   0.00912   0.00950   0.05944   0.07204
     Eigenvalues ---    0.07240   0.07261   0.07607   0.07634   0.07937
     Eigenvalues ---    0.12720   0.12859   0.15784   0.15993   0.15997
     Eigenvalues ---    0.16000   0.16000   0.16000   0.16144   0.16223
     Eigenvalues ---    0.20168   0.24216   0.24724   0.25235   0.34601
     Eigenvalues ---    0.34610   0.34663   0.34684   0.34718   0.34755
     Eigenvalues ---    0.34815   0.34896   0.35195
 En-DIIS/RFO-DIIS/Sim-DIIS IScMMF=       -3 using points:     6    5    4    3
 RFO step:  Lambda=-2.01542888D-07.
 NNeg= 0 NGDIIS= 4 SimSw=  2.50D-01 Rises=F DC= -1.22D-07 SmlDif=  1.00D-05
 NRisDI= 0 DoIntr=F SqrtH=F CThrHd= 10.0 CDAdj=  3.0
 RMS Error=  0.7885209168D-03 NUsed= 4 OKEnD=F EnDIS=F
 InvSVX:  RCond= 2.43D-07 Info=           0 Equed=N FErr=  1.67D-13 BErr=  7.09D-17
 DidBck=F Rises=F RFO-DIIS coefs:    2.01373   -1.10704    0.13367   -0.04036
 Iteration  1 RMS(Cart)=  0.00096241 RMS(Int)=  0.00000060
 Iteration  2 RMS(Cart)=  0.00000062 RMS(Int)=  0.00000003
 ITry= 1 IFail=0 DXMaxC= 2.41D-03 DCOld= 1.00D+10 DXMaxT= 1.41D-01 DXLimC= 3.00D+00 Rises=F
 Variable       Old X    -DE/DX   Delta X   Delta X   Delta X     New X
                                 (Linear)    (Quad)   (Total)
    R1        3.47299  -0.00004  -0.00008  -0.00010  -0.00018   3.47281
    R2        3.47297  -0.00002   0.00009  -0.00017  -0.00008   3.47289
    R3        3.47282  -0.00002   0.00004  -0.00011  -0.00007   3.47275
    R4        2.06352   0.00001   0.00003  -0.00000   0.00002   2.06354
    R5        2.06354  -0.00000  -0.00006   0.00004  -0.00002   2.06352
    R6        2.06625   0.00001   0.00002  -0.00000   0.00002   2.06627
    R7        2.06354   0.00000  -0.00001   0.00001   0.00000   2.06354
    R8        2.06352   0.00001  -0.00001   0.00003   0.00002   2.06354
    R9        2.06627   0.00000  -0.00003   0.00003  -0.00001   2.06627
   R10        2.06351   0.00001   0.00001   0.00002   0.00003   2.06353
   R11        2.06622   0.00001   0.00002   0.00001   0.00003   2.06625
   R12        2.06354   0.00000  -0.00003   0.00002  -0.00001   2.06353
    A1        1.74125   0.00002   0.00038  -0.00008   0.00030   1.74155
    A2        1.74167  -0.00000   0.00013  -0.00010   0.00003   1.74170
    A3        1.74159  -0.00000   0.00014  -0.00011   0.00003   1.74161
    A4        1.91272  -0.00002   0.00000  -0.00019  -0.00019   1.91253
    A5        1.91217  -0.00000   0.00000   0.00004   0.00005   1.91222
    A6        1.96032   0.00004  -0.00015   0.00033   0.00017   1.96050
    A7        1.87913   0.00001   0.00008  -0.00004   0.00003   1.87917
    A8        1.89894  -0.00001   0.00000  -0.00009  -0.00009   1.89885
    A9        1.89872  -0.00001   0.00008  -0.00005   0.00002   1.89875
   A10        1.91234   0.00001   0.00014   0.00001   0.00015   1.91249
   A11        1.91282  -0.00002   0.00000  -0.00022  -0.00022   1.91260
   A12        1.96019   0.00004  -0.00011   0.00029   0.00018   1.96037
   A13        1.87921  -0.00000  -0.00005  -0.00000  -0.00005   1.87916
   A14        1.89865  -0.00001   0.00006  -0.00004   0.00002   1.89868
   A15        1.89881  -0.00001  -0.00005  -0.00005  -0.00010   1.89871
   A16        1.91250  -0.00002  -0.00021  -0.00001  -0.00022   1.91228
   A17        1.96032   0.00005   0.00007   0.00022   0.00029   1.96061
   A18        1.91238  -0.00000   0.00003  -0.00003   0.00000   1.91239
   A19        1.89885  -0.00001  -0.00001  -0.00008  -0.00010   1.89875
   A20        1.87918   0.00001   0.00009  -0.00004   0.00005   1.87924
   A21        1.89878  -0.00002   0.00003  -0.00008  -0.00004   1.89874
    D1       -3.00265   0.00001   0.00152   0.00009   0.00161  -3.00104
    D2        1.22238   0.00001   0.00142   0.00024   0.00166   1.22403
    D3       -0.88981   0.00000   0.00142   0.00006   0.00148  -0.88833
    D4       -1.22569   0.00001   0.00177  -0.00006   0.00171  -1.22398
    D5        2.99934   0.00001   0.00167   0.00008   0.00175   3.00109
    D6        0.88715   0.00000   0.00167  -0.00010   0.00158   0.88873
    D7       -1.22198  -0.00002  -0.00128  -0.00015  -0.00143  -1.22342
    D8        3.00279  -0.00000  -0.00131  -0.00002  -0.00133   3.00146
    D9        0.89014   0.00000  -0.00118   0.00000  -0.00118   0.88896
   D10       -2.99902  -0.00001  -0.00153  -0.00001  -0.00153  -3.00055
   D11        1.22576  -0.00000  -0.00156   0.00012  -0.00143   1.22433
   D12       -0.88690   0.00000  -0.00142   0.00015  -0.00128  -0.88817
   D13        1.22468  -0.00001  -0.00032   0.00008  -0.00023   1.22445
   D14       -0.88789  -0.00001  -0.00020   0.00005  -0.00015  -0.88804
   D15       -3.00030  -0.00001  -0.00031   0.00002  -0.00029  -3.00059
   D16        3.00136   0.00001   0.00013  -0.00005   0.00009   3.00145
   D17        0.88879   0.00001   0.00025  -0.00008   0.00017   0.88896
   D18       -1.22361   0.00000   0.00014  -0.00011   0.00003  -1.22358
         Item               Value     Threshold  Converged?
 Maximum Force            0.000048     0.000450     YES
 RMS     Force            0.000016     0.000300     YES
 Maximum Displacement     0.002409     0.001800     NO 
 RMS     Displacement     0.000962     0.001200     YES
 Predicted change in Energy=-1.002219D-07
 Lowest energy point so far.  Saving SCF results.
 GradGradGradGradGradGradGradGradGradGradGradGradGradGradGradGradGradGrad

 Leave Link  103 at Wed Oct  5 09:53:50 2022, MaxMem=  2952790016 cpu:               0.2 elap:               0.0
 (Enter /mnt/data/applications/G16/g16/l202.exe)
                          Input orientation:                          
 ---------------------------------------------------------------------
 Center     Atomic      Atomic             Coordinates (Angstroms)
 Number     Number       Type             X           Y           Z
 ---------------------------------------------------------------------
      1         15           0        1.536561   -0.166131   -0.000120
      2          6           0        2.384732   -0.994935   -1.404025
      3          6           0        2.384158   -0.989982    1.407097
      4          6           0        2.426348    1.441793   -0.002670
      5          1           0        2.139103    2.017298   -0.885105
      6          1           0        3.512460    1.315652   -0.002652
      7          1           0        2.139405    2.020046    0.878064
      8          1           0        2.096391   -0.514132   -2.341098
      9          1           0        2.069570   -2.039111   -1.456597
     10          1           0        3.473596   -0.959975   -1.310595
     11          1           0        2.069621   -2.034180    1.463082
     12          1           0        2.095133   -0.506191    2.342416
     13          1           0        3.473057   -0.954730    1.314205
 ---------------------------------------------------------------------
                    Distance matrix (angstroms):
                    1          2          3          4          5
     1  P    0.000000
     2  C    1.837732   0.000000
     3  C    1.837774   2.811126   0.000000
     4  C    1.837702   2.811258   2.811184   0.000000
     5  H    2.431794   3.066458   3.789192   1.091974   0.000000
     6  H    2.469791   2.928213   2.928550   1.093413   1.776835
     7  H    2.431871   3.789225   3.065950   1.091973   1.763171
     8  H    2.432013   1.091979   3.789222   3.066392   2.920595
     9  H    2.431765   1.091968   3.066004   3.789181   4.097059
    10  H    2.469745   1.093424   2.928076   2.928462   3.290299
    11  H    2.432021   3.065881   1.091979   3.789206   4.683299
    12  H    2.432102   3.789269   1.091976   3.066558   4.097173
    13  H    2.469688   2.928283   1.093423   2.927983   3.930566
                    6          7          8          9         10
     6  H    0.000000
     7  H    1.776826   0.000000
     8  H    3.289634   4.097183   0.000000
     9  H    3.930690   4.683191   1.763128   0.000000
    10  H    2.625015   3.930753   1.776908   1.776834   0.000000
    11  H    3.930844   4.096812   4.096712   2.919684   3.289126
    12  H    3.290482   2.920302   4.683521   4.096706   3.930722
    13  H    2.624938   3.289094   3.930722   3.289833   2.624806
                   11         12         13
    11  H    0.000000
    12  H    1.763131   0.000000
    13  H    1.776797   1.776817   0.000000
 Stoichiometry    C3H9P
 Framework group  C1[X(C3H9P)]
 Deg. of freedom    33
 Full point group                 C1      NOp   1
 RotChk:  IX=0 Diff= 1.76D-01
 Largest Abelian subgroup         C1      NOp   1
 Largest concise Abelian subgroup C1      NOp   1
                         Standard orientation:                         
 ---------------------------------------------------------------------
 Center     Atomic      Atomic             Coordinates (Angstroms)
 Number     Number       Type             X           Y           Z
 ---------------------------------------------------------------------
      1         15           0        0.000059   -0.000072   -0.589437
      2          6           0       -1.129030   -1.165992    0.272566
      3          6           0       -0.445364    1.560733    0.272478
      4          6           0        1.574341   -0.394657    0.272589
      5          1           0        1.914851   -1.388684   -0.024682
      6          1           0        1.470013   -0.368902    1.360708
      7          1           0        2.343318    0.321635   -0.024069
      8          1           0       -0.893618   -2.190169   -0.024185
      9          1           0       -2.160088   -0.963517   -0.024617
     10          1           0       -1.054443   -1.088503    1.360687
     11          1           0       -1.450217    1.868556   -0.024057
     12          1           0        0.245108    2.352812   -0.024627
     13          1           0       -0.415489    1.457346    1.360592
 ---------------------------------------------------------------------
 Rotational constants (GHZ):           5.8375058           5.8370333           3.7267067
 Leave Link  202 at Wed Oct  5 09:53:50 2022, MaxMem=  2952790016 cpu:               0.1 elap:               0.0
 (Enter /mnt/data/applications/G16/g16/l301.exe)
 Standard basis: def2TZVP (5D, 7F)
 Ernie: Thresh=  0.10000D-02 Tol=  0.10000D-05 Strict=F.
 There are   204 symmetry adapted cartesian basis functions of A   symmetry.
 There are   184 symmetry adapted basis functions of A   symmetry.
   184 basis functions,   294 primitive gaussians,   204 cartesian basis functions
    21 alpha electrons       21 beta electrons
       nuclear repulsion energy       177.9280837443 Hartrees.
 IExCor= 4639 DFT=T Ex+Corr=wB97XD ExCW=0 ScaHFX=  1.000000
 ScaDFX=  1.000000  1.000000  1.000000  1.000000 ScalE2=  1.000000  1.000000
 IRadAn=      5 IRanWt=     -1 IRanGd=            0 ICorTp=0 IEmpDi=121
 HFx  wShort=  0.000000 wLong=  0.200000 cFull=  0.222036 cShort=  0.000000 cLong=  0.777964
 DFx  wShort=  0.000000 wLong=  0.200000 cFull=  0.000000 cShort=  0.000000 cLong=  1.000000
 NAtoms=   13 NActive=   13 NUniq=   13 SFac= 1.00D+00 NAtFMM=   60 NAOKFM=F Big=F
 Integral buffers will be    131072 words long.
 Raffenetti 2 integral format.
 Two-electron integral symmetry is turned on.
 R6Disp:  Grimme-D2 Dispersion energy=       -0.0052506571 Hartrees.
 Nuclear repulsion after empirical dispersion term =      177.9228330872 Hartrees.
 ------------------------------------------------------------------------------
 Polarizable Continuum Model (PCM)
 =================================
 Model                : PCM.
 Atomic radii         : SMD-Coulomb.
 Polarization charges : Total charges.
 Charge compensation  : None.
 Solution method      : On-the-fly selection.
 Cavity type          : VdW (van der Waals Surface) (Alpha=1.000).
 Cavity algorithm     : GePol (No added spheres)
                        Default sphere list used, NSphG=   13.
                        Lebedev-Laikov grids with approx.  5.0 points / Ang**2.
                        Smoothing algorithm: York/Karplus (Gamma=1.0000).
                        Polarization charges: spherical gaussians, with
                                              point-specific exponents (IZeta= 3).
                        Self-potential: point-specific (ISelfS= 7).
                        Self-field    : sphere-specific E.n sum rule (ISelfD= 2).
 1st derivatives      : Analytical E(r).r(x)/FMM algorithm (CHGder, D1EAlg=3).
                        Cavity 1st derivative terms included.
 Solvent              : Toluene, Eps=   2.374100 Eps(inf)=   2.238315
 ------------------------------------------------------------------------------
 Spheres list:
 ISph  on   Nord     Re0    Alpha      Xe            Ye            Ze
    1   P      1    2.1200  1.000      0.000059     -0.000072     -0.589437
    2   C      2    1.8500  1.000     -1.129030     -1.165992      0.272566
    3   C      3    1.8500  1.000     -0.445364      1.560733      0.272478
    4   C      4    1.8500  1.000      1.574341     -0.394657      0.272589
    5   H      5    1.2000  1.000      1.914851     -1.388684     -0.024682
    6   H      6    1.2000  1.000      1.470013     -0.368902      1.360708
    7   H      7    1.2000  1.000      2.343318      0.321635     -0.024069
    8   H      8    1.2000  1.000     -0.893618     -2.190169     -0.024185
    9   H      9    1.2000  1.000     -2.160088     -0.963517     -0.024617
   10   H     10    1.2000  1.000     -1.054443     -1.088503      1.360687
   11   H     11    1.2000  1.000     -1.450217      1.868556     -0.024057
   12   H     12    1.2000  1.000      0.245108      2.352812     -0.024627
   13   H     13    1.2000  1.000     -0.415489      1.457346      1.360592
 ------------------------------------------------------------------------------
 GePol: Number of generator spheres                  =      13
 GePol: Total number of spheres                      =      13
 GePol: Number of exposed spheres                    =      13 (100.00%)
 GePol: Number of points                             =     997
 GePol: Average weight of points                     =       0.12
 GePol: Minimum weight of points                     =   0.15D-09
 GePol: Maximum weight of points                     =    0.20615
 GePol: Number of points with low weight             =      58
 GePol: Fraction of low-weight points (<1% of avg)   =       5.82%
 GePol: Cavity surface area                          =    120.927 Ang**2
 GePol: Cavity volume                                =     95.564 Ang**3
 ------------------------------------------------------------------------------
 Atomic radii for non-electrostatic terms: SMD-CDS.
 ------------------------------------------------------------------------------
 PCM non-electrostatic energy =         0.0003342879 Hartrees.
 Nuclear repulsion after PCM non-electrostatic terms =      177.9231673751 Hartrees.
 Leave Link  301 at Wed Oct  5 09:53:50 2022, MaxMem=  2952790016 cpu:               1.3 elap:               0.1
 (Enter /mnt/data/applications/G16/g16/l302.exe)
 NPDir=0 NMtPBC=     1 NCelOv=     1 NCel=       1 NClECP=     1 NCelD=      1
         NCelK=      1 NCelE2=     1 NClLst=     1 CellRange=     0.0.
 One-electron integrals computed using PRISM.
 One-electron integral symmetry used in STVInt
   1 Symmetry operations used in ECPInt.
 ECPInt:  NShTT=    3403 NPrTT=   10140 LenC2=    3392 LenP2D=    8544.
 LDataN:  DoStor=T MaxTD1= 6 Len=  172
 NBasis=   184 RedAO= T EigKep=  9.89D-04  NBF=   184
 NBsUse=   184 1.00D-06 EigRej= -1.00D+00 NBFU=   184
 Precomputing XC quadrature grid using
 IXCGrd= 4 IRadAn=           5 IRanWt=          -1 IRanGd=           0 AccXCQ= 0.00D+00.
 Generated NRdTot=       0 NPtTot=           0 NUsed=           0 NTot=          32
 NSgBfM=   204   204   204   204   204 MxSgAt=    13 MxSgA2=    13.
 Leave Link  302 at Wed Oct  5 09:53:50 2022, MaxMem=  2952790016 cpu:               5.0 elap:               0.4
 (Enter /mnt/data/applications/G16/g16/l303.exe)
 DipDrv:  MaxL=1.
 Leave Link  303 at Wed Oct  5 09:53:50 2022, MaxMem=  2952790016 cpu:               0.5 elap:               0.1
 (Enter /mnt/data/applications/G16/g16/l401.exe)
 Initial guess from the checkpoint file:  "PMe3.chk"
 B after Tr=     0.000000    0.000000    0.000000
         Rot=    0.998061    0.000013    0.000020    0.062238 Ang=   7.14 deg.
 Guess basis will be translated and rotated to current coordinates.
 JPrj=2 DoOrth=T DoCkMO=T.
 Leave Link  401 at Wed Oct  5 09:53:51 2022, MaxMem=  2952790016 cpu:               2.4 elap:               0.2
 (Enter /mnt/data/applications/G16/g16/l502.exe)
 Integral symmetry usage will be decided dynamically.
 Closed shell SCF:
 Using DIIS extrapolation, IDIIS=  1040.
 NGot=  2952790016 LenX=  2952702271 LenY=  2952660214
 Requested convergence on RMS density matrix=1.00D-08 within 128 cycles.
 Requested convergence on MAX density matrix=1.00D-06.
 Requested convergence on             energy=1.00D-06.
 No special actions if energy rises.
 Fock matrices will be formed incrementally for  20 cycles.

 Cycle   1  Pass 1  IDiag  1:
 FoFJK:  IHMeth= 1 ICntrl=       0 DoSepK=T KAlg= 0 I1Cent=           0 FoldK=F
 IRaf=         1 NMat=       1 IRICut=       1 DoRegI=T DoRafI=F ISym2E= 0 IDoP0=0 IntGTp=1.
 FoFCou: FMM=F IPFlag=           0 FMFlag=      100000 FMFlg1=           0
         NFxFlg=           0 DoJE=T BraDBF=F KetDBF=F FulRan=T
         wScrn=  0.000000 ICntrl=       500 IOpCl=  0 I1Cent=           0 NGrid=           0
         NMat0=    1 NMatS0=      1 NMatT0=    0 NMatD0=    1 NMtDS0=    0 NMtDT0=    0
 Symmetry not used in FoFCou.
 Inv3:  Mode=1 IEnd=     2982027.
 Iteration    1 A*A^-1 deviation from unit magnitude is 2.22D-15 for    226.
 Iteration    1 A*A^-1 deviation from orthogonality  is 1.23D-15 for    473     80.
 Iteration    1 A^-1*A deviation from unit magnitude is 2.00D-15 for    226.
 Iteration    1 A^-1*A deviation from orthogonality  is 1.20D-15 for    643    201.
 E= -461.120245340629    
 DIIS: error= 6.35D-05 at cycle   1 NSaved=   1.
 NSaved= 1 IEnMin= 1 EnMin= -461.120245340629     IErMin= 1 ErrMin= 6.35D-05
 ErrMax= 6.35D-05  0.00D+00 EMaxC= 1.00D-01 BMatC= 5.59D-07 BMatP= 5.59D-07
 IDIUse=1 WtCom= 1.00D+00 WtEn= 0.00D+00
 Coeff-Com:  0.100D+01
 Coeff:      0.100D+01
 Gap=     0.677 Goal=   None    Shift=    0.000
 RMSDP=3.37D-06 MaxDP=7.74D-05              OVMax= 2.18D-04

 Cycle   2  Pass 1  IDiag  1:
 RMSU=  3.37D-06    CP:  1.00D+00
 E= -461.120246112869     Delta-E=       -0.000000772239 Rises=F Damp=F
 DIIS: error= 1.16D-05 at cycle   2 NSaved=   2.
 NSaved= 2 IEnMin= 2 EnMin= -461.120246112869     IErMin= 2 ErrMin= 1.16D-05
 ErrMax= 1.16D-05  0.00D+00 EMaxC= 1.00D-01 BMatC= 1.80D-08 BMatP= 5.59D-07
 IDIUse=1 WtCom= 1.00D+00 WtEn= 0.00D+00
 Coeff-Com: -0.160D+00 0.116D+01
 Coeff:     -0.160D+00 0.116D+01
 Gap=     0.413 Goal=   None    Shift=    0.000
 RMSDP=9.96D-07 MaxDP=2.19D-05 DE=-7.72D-07 OVMax= 6.69D-05

 Cycle   3  Pass 1  IDiag  1:
 RMSU=  5.66D-07    CP:  1.00D+00  1.24D+00
 E= -461.120246158025     Delta-E=       -0.000000045157 Rises=F Damp=F
 DIIS: error= 2.57D-06 at cycle   3 NSaved=   3.
 NSaved= 3 IEnMin= 3 EnMin= -461.120246158025     IErMin= 3 ErrMin= 2.57D-06
 ErrMax= 2.57D-06  0.00D+00 EMaxC= 1.00D-01 BMatC= 9.74D-10 BMatP= 1.80D-08
 IDIUse=1 WtCom= 1.00D+00 WtEn= 0.00D+00
 Coeff-Com: -0.233D-01 0.760D-01 0.947D+00
 Coeff:     -0.233D-01 0.760D-01 0.947D+00
 Gap=     0.413 Goal=   None    Shift=    0.000
 RMSDP=2.78D-07 MaxDP=6.82D-06 DE=-4.52D-08 OVMax= 1.35D-05

 Cycle   4  Pass 1  IDiag  1:
 RMSU=  2.17D-07    CP:  1.00D+00  1.28D+00  1.22D+00
 E= -461.120246159731     Delta-E=       -0.000000001706 Rises=F Damp=F
 DIIS: error= 1.14D-06 at cycle   4 NSaved=   4.
 NSaved= 4 IEnMin= 4 EnMin= -461.120246159731     IErMin= 4 ErrMin= 1.14D-06
 ErrMax= 1.14D-06  0.00D+00 EMaxC= 1.00D-01 BMatC= 2.65D-10 BMatP= 9.74D-10
 IDIUse=1 WtCom= 1.00D+00 WtEn= 0.00D+00
 Coeff-Com:  0.103D-01-0.110D+00 0.325D+00 0.775D+00
 Coeff:      0.103D-01-0.110D+00 0.325D+00 0.775D+00
 Gap=     0.413 Goal=   None    Shift=    0.000
 RMSDP=1.16D-07 MaxDP=2.44D-06 DE=-1.71D-09 OVMax= 4.65D-06

 Cycle   5  Pass 1  IDiag  1:
 RMSU=  5.09D-08    CP:  1.00D+00  1.29D+00  1.39D+00  1.00D+00
 E= -461.120246160068     Delta-E=       -0.000000000337 Rises=F Damp=F
 DIIS: error= 1.43D-07 at cycle   5 NSaved=   5.
 NSaved= 5 IEnMin= 5 EnMin= -461.120246160068     IErMin= 5 ErrMin= 1.43D-07
 ErrMax= 1.43D-07  0.00D+00 EMaxC= 1.00D-01 BMatC= 8.48D-12 BMatP= 2.65D-10
 IDIUse=1 WtCom= 1.00D+00 WtEn= 0.00D+00
 Coeff-Com:  0.383D-02-0.337D-01 0.465D-01 0.203D+00 0.781D+00
 Coeff:      0.383D-02-0.337D-01 0.465D-01 0.203D+00 0.781D+00
 Gap=     0.413 Goal=   None    Shift=    0.000
 RMSDP=2.92D-08 MaxDP=4.81D-07 DE=-3.37D-10 OVMax= 8.83D-07

 Cycle   6  Pass 1  IDiag  1:
 RMSU=  1.29D-08    CP:  1.00D+00  1.29D+00  1.43D+00  1.07D+00  1.11D+00
 E= -461.120246160089     Delta-E=       -0.000000000021 Rises=F Damp=F
 DIIS: error= 3.98D-08 at cycle   6 NSaved=   6.
 NSaved= 6 IEnMin= 6 EnMin= -461.120246160089     IErMin= 6 ErrMin= 3.98D-08
 ErrMax= 3.98D-08  0.00D+00 EMaxC= 1.00D-01 BMatC= 5.36D-13 BMatP= 8.48D-12
 IDIUse=1 WtCom= 1.00D+00 WtEn= 0.00D+00
 Coeff-Com: -0.195D-04 0.166D-02-0.153D-01-0.201D-01 0.147D+00 0.887D+00
 Coeff:     -0.195D-04 0.166D-02-0.153D-01-0.201D-01 0.147D+00 0.887D+00
 Gap=     0.413 Goal=   None    Shift=    0.000
 RMSDP=1.25D-08 MaxDP=2.41D-07 DE=-2.11D-11 OVMax= 3.75D-07

 Cycle   7  Pass 1  IDiag  1:
 RMSU=  3.98D-09    CP:  1.00D+00  1.29D+00  1.44D+00  1.10D+00  1.22D+00
                    CP:  1.08D+00
 E= -461.120246160090     Delta-E=       -0.000000000001 Rises=F Damp=F
 DIIS: error= 1.22D-08 at cycle   7 NSaved=   7.
 NSaved= 7 IEnMin= 7 EnMin= -461.120246160090     IErMin= 7 ErrMin= 1.22D-08
 ErrMax= 1.22D-08  0.00D+00 EMaxC= 1.00D-01 BMatC= 5.53D-14 BMatP= 5.36D-13
 IDIUse=1 WtCom= 1.00D+00 WtEn= 0.00D+00
 Coeff-Com: -0.261D-03 0.280D-02-0.820D-02-0.202D-01-0.685D-02 0.272D+00
 Coeff-Com:  0.761D+00
 Coeff:     -0.261D-03 0.280D-02-0.820D-02-0.202D-01-0.685D-02 0.272D+00
 Coeff:      0.761D+00
 Gap=     0.413 Goal=   None    Shift=    0.000
 RMSDP=3.34D-09 MaxDP=6.81D-08 DE=-1.25D-12 OVMax= 1.23D-07

 Error on total polarization charges =  0.02907
 SCF Done:  E(RwB97XD) =  -461.120246160     A.U. after    7 cycles
            NFock=  7  Conv=0.33D-08     -V/T= 2.0030
 KE= 4.597418608795D+02 PE=-1.444940048749D+03 EE= 3.461547743346D+02
 SMD-CDS (non-electrostatic) energy       (kcal/mol) =       0.21
 (included in total energy above)
 Leave Link  502 at Wed Oct  5 09:55:36 2022, MaxMem=  2952790016 cpu:            1262.4 elap:             105.8
 (Enter /mnt/data/applications/G16/g16/l701.exe)
 ... and contract with generalized density number  0.
 Compute integral first derivatives.
 R6Disp: Adding Grimme-D2 dispersion energy 1st derivatives to the gradient.
   1 Symmetry operations used in ECPInt.
 ECPInt:  NShTT=    3403 NPrTT=   10140 LenC2=    3392 LenP2D=    8544.
 LDataN:  DoStor=T MaxTD1= 7 Len=  274
 D1PCM: PCM CHGder 1st derivatives, ID1Alg=3 FixD1E=F DoIter=F DoCFld=F I1PDM=0.
 GePol: Maximum number of non-zero 1st derivatives   =     233
 Leave Link  701 at Wed Oct  5 09:55:38 2022, MaxMem=  2952790016 cpu:              20.2 elap:               1.7
 (Enter /mnt/data/applications/G16/g16/l702.exe)
 L702 exits ... SP integral derivatives will be done elsewhere.
 Leave Link  702 at Wed Oct  5 09:55:38 2022, MaxMem=  2952790016 cpu:               0.2 elap:               0.0
 (Enter /mnt/data/applications/G16/g16/l703.exe)
 Integral derivatives from FoFJK, PRISM(SPDF).
 Compute integral first derivatives, UseDBF=F ICtDFT=           0.
 Calling FoFJK, ICntrl=      2127 FMM=F ISym2X=0 I1Cent= 0 IOpClX= 0 NMat=1 NMatS=1 NMatT=0.
 FoFJK:  IHMeth= 1 ICntrl=    2127 DoSepK=T KAlg= 0 I1Cent=           0 FoldK=F
 IRaf=         1 NMat=       1 IRICut=       1 DoRegI=T DoRafI=F ISym2E= 0 IDoP0=0 IntGTp=1.
 FoFCou: FMM=F IPFlag=           0 FMFlag=      100000 FMFlg1=         800
         NFxFlg=           0 DoJE=F BraDBF=F KetDBF=F FulRan=T
         wScrn=  0.000000 ICntrl=      2527 IOpCl=  0 I1Cent=           0 NGrid=           0
         NMat0=    1 NMatS0=      1 NMatT0=    0 NMatD0=    1 NMtDS0=    0 NMtDT0=    0
 Symmetry not used in FoFCou.
 Leave Link  703 at Wed Oct  5 09:55:52 2022, MaxMem=  2952790016 cpu:             163.0 elap:              13.6
 (Enter /mnt/data/applications/G16/g16/l716.exe)
 Dipole        =-4.57673155D-04-2.45896958D-04 6.26648981D-01
 ***** Axes restored to original set *****
 -------------------------------------------------------------------
 Center     Atomic                   Forces (Hartrees/Bohr)
 Number     Number              X              Y              Z
 -------------------------------------------------------------------
      1       15          -0.000038182   -0.000036422    0.000039795
      2        6          -0.000032146    0.000007440    0.000031866
      3        6           0.000005877    0.000050302   -0.000044649
      4        6           0.000015826   -0.000025903    0.000004593
      5        1           0.000004718    0.000011646   -0.000007429
      6        1           0.000007583    0.000009893   -0.000001805
      7        1          -0.000005268    0.000002434   -0.000010909
      8        1           0.000016368    0.000007120    0.000010952
      9        1           0.000009647   -0.000011195   -0.000002027
     10        1           0.000016202   -0.000002357   -0.000015345
     11        1          -0.000002887   -0.000006572   -0.000011323
     12        1          -0.000001421    0.000002058   -0.000008042
     13        1           0.000003684   -0.000008444    0.000014322
 -------------------------------------------------------------------
 Cartesian Forces:  Max     0.000050302 RMS     0.000019083
 Leave Link  716 at Wed Oct  5 09:55:52 2022, MaxMem=  2952790016 cpu:               0.3 elap:               0.0
 (Enter /mnt/data/applications/G16/g16/l103.exe)

 GradGradGradGradGradGradGradGradGradGradGradGradGradGradGradGradGradGrad
 Berny optimization.
 Using GEDIIS/GDIIS optimizer.
 FormGI is forming the generalized inverse of G from B-inverse, IUseBI=4.
 Internal  Forces:  Max     0.000052298 RMS     0.000013344
 Search for a local minimum.
 Step number   7 out of a maximum of   61
 All quantities printed in internal units (Hartrees-Bohrs-Radians)
 RMS Force = .13344D-04 SwitMx=.10000D-02 MixMth= 2
 Mixed Optimization -- En-DIIS/RFO-DIIS
 Swapping is turned off.
 Update second derivatives using D2CorX and points    1    2    3    4    5
                                                      6    7
 DE= -1.88D-06 DEPred=-1.00D-07 R= 1.88D+01
 TightC=F SS=  1.41D+00  RLast= 5.29D-03 DXNew= 2.3784D-01 1.5856D-02
 Trust test= 1.88D+01 RLast= 5.29D-03 DXMaxT set to 1.41D-01
 ITU=  1  0  0  1  1  1  0
     Eigenvalues ---    0.00323   0.00928   0.00972   0.06440   0.07117
     Eigenvalues ---    0.07243   0.07445   0.07606   0.07731   0.08132
     Eigenvalues ---    0.12285   0.12899   0.14932   0.15915   0.15994
     Eigenvalues ---    0.16000   0.16000   0.16040   0.16110   0.16762
     Eigenvalues ---    0.17730   0.23765   0.24736   0.27285   0.34562
     Eigenvalues ---    0.34607   0.34614   0.34678   0.34729   0.34757
     Eigenvalues ---    0.34844   0.35022   0.35535
 En-DIIS/RFO-DIIS/Sim-DIIS IScMMF=       -3 using points:     7    6    5    4    3
 RFO step:  Lambda=-6.22785730D-08.
 NNeg= 0 NGDIIS= 5 SimSw=  2.50D-01 Rises=F DC= -1.88D-06 SmlDif=  1.00D-05
 NRisDI= 0 DoIntr=F SqrtH=F CThrHd= 10.0 CDAdj=  3.0
 RMS Error=  0.2761173484D-03 NUsed= 5 OKEnD=F EnDIS=F
 InvSVX:  RCond= 1.70D-08 Info=           0 Equed=N FErr=  3.20D-12 BErr=  6.29D-17
 DIIS inversion failure, remove point   5.
 InvSVX:  RCond= 2.82D-08 Info=           0 Equed=N FErr=  1.04D-12 BErr=  1.03D-16
 DIIS inversion failure, remove point   4.
 InvSVX:  RCond= 5.39D-08 Info=           0 Equed=N FErr=  3.78D-13 BErr=  0.00D+00
 DIIS inversion failure, remove point   3.
 InvSVX:  RCond= 6.98D-06 Info=           0 Equed=N FErr=  1.78D-15 BErr=  5.35D-17
 RFO-DIIS uses    2 points instead of    5
 DidBck=F Rises=F RFO-DIIS coefs:    1.29773   -0.29773    0.00000    0.00000    0.00000
 Iteration  1 RMS(Cart)=  0.00033850 RMS(Int)=  0.00000008
 Iteration  2 RMS(Cart)=  0.00000008 RMS(Int)=  0.00000001
 ITry= 1 IFail=0 DXMaxC= 1.05D-03 DCOld= 1.00D+10 DXMaxT= 1.41D-01 DXLimC= 3.00D+00 Rises=F
 Variable       Old X    -DE/DX   Delta X   Delta X   Delta X     New X
                                 (Linear)    (Quad)   (Total)
    R1        3.47281  -0.00002  -0.00005  -0.00004  -0.00009   3.47272
    R2        3.47289  -0.00005  -0.00002  -0.00016  -0.00019   3.47270
    R3        3.47275   0.00001  -0.00002   0.00006   0.00004   3.47280
    R4        2.06354  -0.00001   0.00001  -0.00002  -0.00001   2.06353
    R5        2.06352   0.00001  -0.00001   0.00002   0.00001   2.06353
    R6        2.06627   0.00001   0.00001   0.00003   0.00004   2.06631
    R7        2.06354   0.00001   0.00000   0.00002   0.00002   2.06356
    R8        2.06354  -0.00001   0.00000  -0.00002  -0.00001   2.06352
    R9        2.06627   0.00000  -0.00000  -0.00000  -0.00001   2.06626
   R10        2.06353   0.00001   0.00001   0.00003   0.00004   2.06357
   R11        2.06625   0.00001   0.00001   0.00001   0.00002   2.06627
   R12        2.06353  -0.00001  -0.00000  -0.00001  -0.00001   2.06351
    A1        1.74155  -0.00001   0.00009  -0.00012  -0.00003   1.74151
    A2        1.74170  -0.00002   0.00001  -0.00016  -0.00016   1.74155
    A3        1.74161  -0.00001   0.00001  -0.00011  -0.00010   1.74151
    A4        1.91253  -0.00001  -0.00006  -0.00003  -0.00009   1.91244
    A5        1.91222   0.00002   0.00001   0.00013   0.00015   1.91236
    A6        1.96050   0.00002   0.00005   0.00002   0.00007   1.96057
    A7        1.87917   0.00001   0.00001   0.00007   0.00008   1.87925
    A8        1.89885  -0.00002  -0.00003  -0.00015  -0.00018   1.89867
    A9        1.89875  -0.00001   0.00001  -0.00004  -0.00004   1.89871
   A10        1.91249  -0.00002   0.00005  -0.00012  -0.00008   1.91241
   A11        1.91260  -0.00001  -0.00006   0.00000  -0.00006   1.91253
   A12        1.96037   0.00003   0.00005   0.00013   0.00018   1.96055
   A13        1.87916   0.00001  -0.00001   0.00003   0.00001   1.87917
   A14        1.89868  -0.00001   0.00001  -0.00004  -0.00003   1.89864
   A15        1.89871  -0.00000  -0.00003   0.00000  -0.00003   1.89868
   A16        1.91228   0.00001  -0.00006   0.00007   0.00000   1.91229
   A17        1.96061   0.00001   0.00009   0.00005   0.00014   1.96074
   A18        1.91239  -0.00000   0.00000  -0.00001  -0.00001   1.91238
   A19        1.89875  -0.00001  -0.00003  -0.00005  -0.00008   1.89867
   A20        1.87924  -0.00001   0.00002  -0.00007  -0.00006   1.87918
   A21        1.89874  -0.00000  -0.00001   0.00001  -0.00001   1.89874
    D1       -3.00104   0.00002   0.00048   0.00036   0.00084  -3.00020
    D2        1.22403   0.00001   0.00049   0.00021   0.00070   1.22473
    D3       -0.88833   0.00000   0.00044   0.00016   0.00060  -0.88773
    D4       -1.22398   0.00000   0.00051   0.00018   0.00069  -1.22329
    D5        3.00109  -0.00001   0.00052   0.00004   0.00056   3.00165
    D6        0.88873  -0.00001   0.00047  -0.00002   0.00045   0.88918
    D7       -1.22342  -0.00001  -0.00043   0.00008  -0.00035  -1.22377
    D8        3.00146  -0.00000  -0.00040   0.00012  -0.00028   3.00118
    D9        0.88896  -0.00001  -0.00035   0.00003  -0.00032   0.88864
   D10       -3.00055   0.00001  -0.00046   0.00030  -0.00016  -3.00071
   D11        1.22433   0.00002  -0.00043   0.00034  -0.00009   1.22424
   D12       -0.88817   0.00001  -0.00038   0.00025  -0.00013  -0.88830
   D13        1.22445   0.00001  -0.00007  -0.00021  -0.00028   1.22416
   D14       -0.88804   0.00001  -0.00005  -0.00023  -0.00027  -0.88832
   D15       -3.00059   0.00000  -0.00009  -0.00027  -0.00035  -3.00094
   D16        3.00145  -0.00001   0.00003  -0.00040  -0.00037   3.00108
   D17        0.88896  -0.00001   0.00005  -0.00042  -0.00037   0.88860
   D18       -1.22358  -0.00001   0.00001  -0.00045  -0.00045  -1.22403
         Item               Value     Threshold  Converged?
 Maximum Force            0.000052     0.000450     YES
 RMS     Force            0.000013     0.000300     YES
 Maximum Displacement     0.001049     0.001800     YES
 RMS     Displacement     0.000339     0.001200     YES
 Predicted change in Energy=-3.113918D-08
 Optimization completed.
    -- Stationary point found.
                           ----------------------------
                           !   Optimized Parameters   !
                           ! (Angstroms and Degrees)  !
 --------------------------                            --------------------------
 ! Name  Definition              Value          Derivative Info.                !
 --------------------------------------------------------------------------------
 ! R1    R(1,2)                  1.8377         -DE/DX =    0.0                 !
 ! R2    R(1,3)                  1.8378         -DE/DX =   -0.0001              !
 ! R3    R(1,4)                  1.8377         -DE/DX =    0.0                 !
 ! R4    R(2,8)                  1.092          -DE/DX =    0.0                 !
 ! R5    R(2,9)                  1.092          -DE/DX =    0.0                 !
 ! R6    R(2,10)                 1.0934         -DE/DX =    0.0                 !
 ! R7    R(3,11)                 1.092          -DE/DX =    0.0                 !
 ! R8    R(3,12)                 1.092          -DE/DX =    0.0                 !
 ! R9    R(3,13)                 1.0934         -DE/DX =    0.0                 !
 ! R10   R(4,5)                  1.092          -DE/DX =    0.0                 !
 ! R11   R(4,6)                  1.0934         -DE/DX =    0.0                 !
 ! R12   R(4,7)                  1.092          -DE/DX =    0.0                 !
 ! A1    A(2,1,3)               99.7832         -DE/DX =    0.0                 !
 ! A2    A(2,1,4)               99.7923         -DE/DX =    0.0                 !
 ! A3    A(3,1,4)               99.7871         -DE/DX =    0.0                 !
 ! A4    A(1,2,8)              109.5798         -DE/DX =    0.0                 !
 ! A5    A(1,2,9)              109.5621         -DE/DX =    0.0                 !
 ! A6    A(1,2,10)             112.3282         -DE/DX =    0.0                 !
 ! A7    A(8,2,9)              107.6684         -DE/DX =    0.0                 !
 ! A8    A(8,2,10)             108.796          -DE/DX =    0.0                 !
 ! A9    A(9,2,10)             108.7901         -DE/DX =    0.0                 !
 ! A10   A(1,3,11)             109.5776         -DE/DX =    0.0                 !
 ! A11   A(1,3,12)             109.5838         -DE/DX =    0.0                 !
 ! A12   A(1,3,13)             112.3211         -DE/DX =    0.0                 !
 ! A13   A(11,3,12)            107.6681         -DE/DX =    0.0                 !
 ! A14   A(11,3,13)            108.7861         -DE/DX =    0.0                 !
 ! A15   A(12,3,13)            108.7881         -DE/DX =    0.0                 !
 ! A16   A(1,4,5)              109.5659         -DE/DX =    0.0                 !
 ! A17   A(1,4,6)              112.3344         -DE/DX =    0.0                 !
 ! A18   A(1,4,7)              109.5716         -DE/DX =    0.0                 !
 ! A19   A(5,4,6)              108.7905         -DE/DX =    0.0                 !
 ! A20   A(5,4,7)              107.6723         -DE/DX =    0.0                 !
 ! A21   A(6,4,7)              108.7899         -DE/DX =    0.0                 !
 ! D1    D(3,1,2,8)           -171.9469         -DE/DX =    0.0                 !
 ! D2    D(3,1,2,9)             70.1318         -DE/DX =    0.0                 !
 ! D3    D(3,1,2,10)           -50.8976         -DE/DX =    0.0                 !
 ! D4    D(4,1,2,8)            -70.1288         -DE/DX =    0.0                 !
 ! D5    D(4,1,2,9)            171.95           -DE/DX =    0.0                 !
 ! D6    D(4,1,2,10)            50.9205         -DE/DX =    0.0                 !
 ! D7    D(2,1,3,11)           -70.0966         -DE/DX =    0.0                 !
 ! D8    D(2,1,3,12)           171.9711         -DE/DX =    0.0                 !
 ! D9    D(2,1,3,13)            50.9338         -DE/DX =    0.0                 !
 ! D10   D(4,1,3,11)          -171.919          -DE/DX =    0.0                 !
 ! D11   D(4,1,3,12)            70.1487         -DE/DX =    0.0                 !
 ! D12   D(4,1,3,13)           -50.8886         -DE/DX =    0.0                 !
 ! D13   D(2,1,4,5)             70.1556         -DE/DX =    0.0                 !
 ! D14   D(2,1,4,6)            -50.8812         -DE/DX =    0.0                 !
 ! D15   D(2,1,4,7)           -171.9211         -DE/DX =    0.0                 !
 ! D16   D(3,1,4,5)            171.9705         -DE/DX =    0.0                 !
 ! D17   D(3,1,4,6)             50.9338         -DE/DX =    0.0                 !
 ! D18   D(3,1,4,7)            -70.1062         -DE/DX =    0.0                 !
 --------------------------------------------------------------------------------
 Lowest energy point so far.  Saving SCF results.
 Largest change from initial coordinates is atom   12       2.403 Angstoms.
 GradGradGradGradGradGradGradGradGradGradGradGradGradGradGradGradGradGrad

 Leave Link  103 at Wed Oct  5 09:55:52 2022, MaxMem=  2952790016 cpu:               0.2 elap:               0.0
 (Enter /mnt/data/applications/G16/g16/l202.exe)
                          Input orientation:                          
 ---------------------------------------------------------------------
 Center     Atomic      Atomic             Coordinates (Angstroms)
 Number     Number       Type             X           Y           Z
 ---------------------------------------------------------------------
      1         15           0        1.536561   -0.166131   -0.000120
      2          6           0        2.384732   -0.994935   -1.404025
      3          6           0        2.384158   -0.989982    1.407097
      4          6           0        2.426348    1.441793   -0.002670
      5          1           0        2.139103    2.017298   -0.885105
      6          1           0        3.512460    1.315652   -0.002652
      7          1           0        2.139405    2.020046    0.878064
      8          1           0        2.096391   -0.514132   -2.341098
      9          1           0        2.069570   -2.039111   -1.456597
     10          1           0        3.473596   -0.959975   -1.310595
     11          1           0        2.069621   -2.034180    1.463082
     12          1           0        2.095133   -0.506191    2.342416
     13          1           0        3.473057   -0.954730    1.314205
 ---------------------------------------------------------------------
                    Distance matrix (angstroms):
                    1          2          3          4          5
     1  P    0.000000
     2  C    1.837732   0.000000
     3  C    1.837774   2.811126   0.000000
     4  C    1.837702   2.811258   2.811184   0.000000
     5  H    2.431794   3.066458   3.789192   1.091974   0.000000
     6  H    2.469791   2.928213   2.928550   1.093413   1.776835
     7  H    2.431871   3.789225   3.065950   1.091973   1.763171
     8  H    2.432013   1.091979   3.789222   3.066392   2.920595
     9  H    2.431765   1.091968   3.066004   3.789181   4.097059
    10  H    2.469745   1.093424   2.928076   2.928462   3.290299
    11  H    2.432021   3.065881   1.091979   3.789206   4.683299
    12  H    2.432102   3.789269   1.091976   3.066558   4.097173
    13  H    2.469688   2.928283   1.093423   2.927983   3.930566
                    6          7          8          9         10
     6  H    0.000000
     7  H    1.776826   0.000000
     8  H    3.289634   4.097183   0.000000
     9  H    3.930690   4.683191   1.763128   0.000000
    10  H    2.625015   3.930753   1.776908   1.776834   0.000000
    11  H    3.930844   4.096812   4.096712   2.919684   3.289126
    12  H    3.290482   2.920302   4.683521   4.096706   3.930722
    13  H    2.624938   3.289094   3.930722   3.289833   2.624806
                   11         12         13
    11  H    0.000000
    12  H    1.763131   0.000000
    13  H    1.776797   1.776817   0.000000
 Stoichiometry    C3H9P
 Framework group  C1[X(C3H9P)]
 Deg. of freedom    33
 Full point group                 C1      NOp   1
 RotChk:  IX=0 Diff= 2.55D-12
 Largest Abelian subgroup         C1      NOp   1
 Largest concise Abelian subgroup C1      NOp   1
                         Standard orientation:                         
 ---------------------------------------------------------------------
 Center     Atomic      Atomic             Coordinates (Angstroms)
 Number     Number       Type             X           Y           Z
 ---------------------------------------------------------------------
      1         15           0        0.000059   -0.000072   -0.589437
      2          6           0       -1.129030   -1.165992    0.272566
      3          6           0       -0.445364    1.560733    0.272478
      4          6           0        1.574341   -0.394657    0.272589
      5          1           0        1.914851   -1.388684   -0.024682
      6          1           0        1.470013   -0.368902    1.360708
      7          1           0        2.343318    0.321635   -0.024069
      8          1           0       -0.893618   -2.190169   -0.024185
      9          1           0       -2.160088   -0.963517   -0.024617
     10          1           0       -1.054443   -1.088503    1.360687
     11          1           0       -1.450217    1.868556   -0.024057
     12          1           0        0.245108    2.352812   -0.024627
     13          1           0       -0.415489    1.457346    1.360592
 ---------------------------------------------------------------------
 Rotational constants (GHZ):           5.8375058           5.8370333           3.7267067
 Leave Link  202 at Wed Oct  5 09:55:52 2022, MaxMem=  2952790016 cpu:               0.1 elap:               0.0
 (Enter /mnt/data/applications/G16/g16/l601.exe)
 Copying SCF densities to generalized density rwf, IOpCl= 0 IROHF=0.

 **********************************************************************

            Population analysis using the SCF density.

 **********************************************************************

 Orbital symmetries:
       Occupied  (A) (A) (A) (A) (A) (A) (A) (A) (A) (A) (A) (A)
                 (A) (A) (A) (A) (A) (A) (A) (A) (A)
       Virtual   (A) (A) (A) (A) (A) (A) (A) (A) (A) (A) (A) (A)
                 (A) (A) (A) (A) (A) (A) (A) (A) (A) (A) (A) (A)
                 (A) (A) (A) (A) (A) (A) (A) (A) (A) (A) (A) (A)
                 (A) (A) (A) (A) (A) (A) (A) (A) (A) (A) (A) (A)
                 (A) (A) (A) (A) (A) (A) (A) (A) (A) (A) (A) (A)
                 (A) (A) (A) (A) (A) (A) (A) (A) (A) (A) (A) (A)
                 (A) (A) (A) (A) (A) (A) (A) (A) (A) (A) (A) (A)
                 (A) (A) (A) (A) (A) (A) (A) (A) (A) (A) (A) (A)
                 (A) (A) (A) (A) (A) (A) (A) (A) (A) (A) (A) (A)
                 (A) (A) (A) (A) (A) (A) (A) (A) (A) (A) (A) (A)
                 (A) (A) (A) (A) (A) (A) (A) (A) (A) (A) (A) (A)
                 (A) (A) (A) (A) (A) (A) (A) (A) (A) (A) (A) (A)
                 (A) (A) (A) (A) (A) (A) (A) (A) (A) (A) (A) (A)
                 (A) (A) (A) (A) (A) (A) (A)
 The electronic state is 1-A.
 Alpha  occ. eigenvalues --  -77.19649 -10.26964 -10.26963 -10.26961  -6.64209
 Alpha  occ. eigenvalues --   -4.78916  -4.78916  -4.78413  -0.85609  -0.78072
 Alpha  occ. eigenvalues --   -0.78069  -0.61450  -0.51967  -0.50596  -0.50595
 Alpha  occ. eigenvalues --   -0.47689  -0.47687  -0.46187  -0.40078  -0.40077
 Alpha  occ. eigenvalues --   -0.29793
 Alpha virt. eigenvalues --    0.11481   0.12075   0.12075   0.16177   0.17747
 Alpha virt. eigenvalues --    0.18022   0.18024   0.19180   0.19180   0.22370
 Alpha virt. eigenvalues --    0.22370   0.23747   0.28086   0.28087   0.29672
 Alpha virt. eigenvalues --    0.29673   0.30207   0.34070   0.36146   0.38793
 Alpha virt. eigenvalues --    0.38795   0.44502   0.44504   0.45432   0.46221
 Alpha virt. eigenvalues --    0.46224   0.47006   0.47503   0.52542   0.52544
 Alpha virt. eigenvalues --    0.54728   0.54729   0.54932   0.55962   0.58771
 Alpha virt. eigenvalues --    0.58772   0.64983   0.71464   0.71468   0.79009
 Alpha virt. eigenvalues --    0.79299   0.79303   0.83615   0.85952   0.85953
 Alpha virt. eigenvalues --    0.92017   0.97476   0.97481   1.03903   1.03908
 Alpha virt. eigenvalues --    1.04374   1.10412   1.10414   1.10596   1.15353
 Alpha virt. eigenvalues --    1.15578   1.15579   1.41478   1.41484   1.44799
 Alpha virt. eigenvalues --    1.48466   1.48469   1.50954   1.52338   1.58997
 Alpha virt. eigenvalues --    1.59695   1.59697   1.61341   1.61343   1.63314
 Alpha virt. eigenvalues --    1.63970   1.63971   1.64603   1.67854   1.67857
 Alpha virt. eigenvalues --    1.69884   1.69885   1.72008   1.72097   1.72103
 Alpha virt. eigenvalues --    1.74807   1.92686   1.92689   1.98837   2.05582
 Alpha virt. eigenvalues --    2.09594   2.09594   2.13491   2.13497   2.14144
 Alpha virt. eigenvalues --    2.17509   2.17515   2.20122   2.23657   2.29502
 Alpha virt. eigenvalues --    2.29510   2.36763   2.36767   2.38611   2.45107
 Alpha virt. eigenvalues --    2.45682   2.45686   2.48692   2.55462   2.55465
 Alpha virt. eigenvalues --    2.60837   2.60839   2.64053   2.67057   2.67062
 Alpha virt. eigenvalues --    2.67063   2.70404   2.70407   2.71165   2.83936
 Alpha virt. eigenvalues --    2.89769   2.89774   2.96058   3.02568   3.02579
 Alpha virt. eigenvalues --    3.13430   3.17512   3.17537   3.17539   3.25750
 Alpha virt. eigenvalues --    3.25753   3.31146   3.36367   3.36473   3.36479
 Alpha virt. eigenvalues --    3.43275   3.43280   3.43491   3.51874   3.54478
 Alpha virt. eigenvalues --    3.54482   3.59116   3.59121   3.59384   3.64297
 Alpha virt. eigenvalues --    3.65843   3.65851   3.67883   3.67888   3.78717
 Alpha virt. eigenvalues --    3.78726   3.88329   4.27250   4.34627   4.34679
 Alpha virt. eigenvalues --    4.34683   4.39774   4.39778   4.45489   4.50551
 Alpha virt. eigenvalues --    4.50560   7.63410   7.84732   7.84740  15.40464
 Alpha virt. eigenvalues --   22.36239  22.36578  22.36583
          Condensed to atoms (all electrons):
               1          2          3          4          5          6
     1  P   14.168284   0.339914   0.339932   0.339931  -0.023810  -0.049487
     2  C    0.339914   5.000538  -0.046959  -0.046982  -0.001890  -0.002980
     3  C    0.339932  -0.046959   5.000611  -0.046961   0.004748  -0.002986
     4  C    0.339931  -0.046982  -0.046961   5.000608   0.395552   0.405603
     5  H   -0.023810  -0.001890   0.004748   0.395552   0.519954  -0.023243
     6  H   -0.049487  -0.002980  -0.002986   0.405603  -0.023243   0.559755
     7  H   -0.023795   0.004747  -0.001891   0.395550  -0.014706  -0.023266
     8  H   -0.023790   0.395545   0.004746  -0.001887   0.001240  -0.000153
     9  H   -0.023795   0.395555  -0.001894   0.004747  -0.000124  -0.000092
    10  H   -0.049498   0.405607  -0.002979  -0.002984  -0.000152   0.006986
    11  H   -0.023797  -0.001892   0.395557   0.004746  -0.000110  -0.000092
    12  H   -0.023789   0.004746   0.395561  -0.001896  -0.000124  -0.000152
    13  H   -0.049501  -0.002987   0.405594  -0.002976  -0.000092   0.006989
               7          8          9         10         11         12
     1  P   -0.023795  -0.023790  -0.023795  -0.049498  -0.023797  -0.023789
     2  C    0.004747   0.395545   0.395555   0.405607  -0.001892   0.004746
     3  C   -0.001891   0.004746  -0.001894  -0.002979   0.395557   0.395561
     4  C    0.395550  -0.001887   0.004747  -0.002984   0.004746  -0.001896
     5  H   -0.014706   0.001240  -0.000124  -0.000152  -0.000110  -0.000124
     6  H   -0.023266  -0.000153  -0.000092   0.006986  -0.000092  -0.000152
     7  H    0.519938  -0.000124  -0.000110  -0.000092  -0.000124   0.001241
     8  H   -0.000124   0.519949  -0.014708  -0.023253  -0.000124  -0.000110
     9  H   -0.000110  -0.014708   0.519942  -0.023259   0.001241  -0.000124
    10  H   -0.000092  -0.023253  -0.023259   0.559812  -0.000153  -0.000092
    11  H   -0.000124  -0.000124   0.001241  -0.000153   0.519966  -0.014710
    12  H    0.001241  -0.000110  -0.000124  -0.000092  -0.014710   0.519921
    13  H   -0.000154  -0.000092  -0.000152   0.006987  -0.023257  -0.023259
              13
     1  P   -0.049501
     2  C   -0.002987
     3  C    0.405594
     4  C   -0.002976
     5  H   -0.000092
     6  H    0.006989
     7  H   -0.000154
     8  H   -0.000092
     9  H   -0.000152
    10  H    0.006987
    11  H   -0.023257
    12  H   -0.023259
    13  H    0.559808
 Mulliken charges:
               1
     1  P    0.103201
     2  C   -0.442962
     3  C   -0.443077
     4  C   -0.443053
     5  H    0.142758
     6  H    0.123117
     7  H    0.142787
     8  H    0.142761
     9  H    0.142773
    10  H    0.123069
    11  H    0.142749
    12  H    0.142786
    13  H    0.123091
 Sum of Mulliken charges =  -0.00000
 Mulliken charges with hydrogens summed into heavy atoms:
               1
     1  P    0.103201
     2  C   -0.034359
     3  C   -0.034452
     4  C   -0.034390
 Electronic spatial extent (au):  <R**2>=            434.8277
 Charge=              0.0000 electrons
 Dipole moment (field-independent basis, Debye):
    X=             -0.0012    Y=             -0.0006    Z=              1.5928  Tot=              1.5928
 Quadrupole moment (field-independent basis, Debye-Ang):
   XX=            -33.1720   YY=            -33.1719   ZZ=            -38.2748
   XY=             -0.0002   XZ=              0.0009   YZ=              0.0003
 Traceless Quadrupole moment (field-independent basis, Debye-Ang):
   XX=              1.7009   YY=              1.7010   ZZ=             -3.4019
   XY=             -0.0002   XZ=              0.0009   YZ=              0.0003
 Octapole moment (field-independent basis, Debye-Ang**2):
  XXX=             -1.7446  YYY=             -1.5811  ZZZ=             10.4322  XYY=              1.7406
  XXY=              1.5803  XXZ=             -1.8768  XZZ=             -0.0008  YZZ=             -0.0007
  YYZ=             -1.8766  XYZ=             -0.0006
 Hexadecapole moment (field-independent basis, Debye-Ang**3):
 XXXX=           -251.6270 YYYY=           -251.5916 ZZZZ=           -118.1311 XXXY=             -0.0019
 XXXZ=             -0.1270 YYYX=              0.0028 YYYZ=             -0.1181 ZZZX=              0.0033
 ZZZY=             -0.0014 XXYY=            -83.8712 XXZZ=            -63.5745 YYZZ=            -63.5720
 XXYZ=              0.1213 YYXZ=              0.1299 ZZXY=             -0.0002
 N-N= 1.779231673751D+02 E-N=-1.444940046060D+03  KE= 4.597418608795D+02
 No NMR shielding tensors so no spin-rotation constants.
 Leave Link  601 at Wed Oct  5 09:55:52 2022, MaxMem=  2952790016 cpu:               2.6 elap:               0.3
 (Enter /mnt/data/applications/G16/g16/l9999.exe)
 1\1\GINC-KIMIK2160\FOpt\RwB97XD\def2TZVP\C3H9P1\DGARAY\05-Oct-2022\0\\
 #p opt=(maxstep=5) freq def2tzvp WB97XD scrf(smd,solvent=toluene)\\tri
 methylphosphine\\0,1\P,1.5365606152,-0.1661309806,-0.0001203079\C,2.38
 47319499,-0.9949354229,-1.4040245874\C,2.3841575778,-0.9899821308,1.40
 70969157\C,2.4263482215,1.4417933953,-0.0026703127\H,2.1391034628,2.01
 72982413,-0.8851054689\H,3.5124603748,1.3156516633,-0.0026519165\H,2.1
 394052456,2.0200457404,0.8780637063\H,2.0963911797,-0.5141322317,-2.34
 10975508\H,2.0695702826,-2.0391112722,-1.4565971791\H,3.4735957247,-0.
 959975055,-1.3105953128\H,2.0696214913,-2.034180412,1.463082227\H,2.09
 51331136,-0.5061913829,2.3424163038\H,3.4730567606,-0.9547301524,1.314
 2054832\\Version=AM64L-G16RevA.03\State=1-A\HF=-461.1202462\RMSD=3.336
 e-09\RMSF=1.908e-05\Dipole=0.6265499,-0.0111529,-0.0002217\Quadrupole=
 -2.5281093,1.2635202,1.2645891,0.0657801,-0.000405,-0.0001094\PG=C01 [
 X(C3H9P1)]\\@


 DIATOMIC MOLECULES ARE PECULIAR BECAUSE THEY ONLY HAVE TWO ENDS,
 AND THESE ENDS ARE VERY CLOSE TOGETHER.
 KLAUS RUEDENBERG, REV.MOD.PHYS. PG 176, 32, (1960)
 Leave Link 9999 at Wed Oct  5 09:55:52 2022, MaxMem=  2952790016 cpu:               0.3 elap:               0.0
 Job cpu time:       0 days  3 hours 25 minutes 21.5 seconds.
 Elapsed time:       0 days  0 hours 17 minutes 13.1 seconds.
 File lengths (MBytes):  RWF=     41 Int=      0 D2E=      0 Chk=      5 Scr=      1
 Normal termination of Gaussian 16 at Wed Oct  5 09:55:52 2022.
 (Enter /mnt/data/applications/G16/g16/l1.exe)
 Link1:  Proceeding to internal job step number  2.
 ---------------------------------------------------------------------
 #P Geom=AllCheck Guess=TCheck SCRF=Check GenChk RwB97XD/def2TZVP Freq
 ---------------------------------------------------------------------
 1/8=5,10=4,29=7,30=1,38=1,40=1/1,3;
 2/12=2,40=1/2;
 3/5=44,7=101,11=2,14=-4,25=1,30=1,70=2,71=2,74=-58,116=1,140=1/1,2,3;
 4/5=101/1;
 5/5=2,38=6,98=1/2;
 8/6=4,10=90,11=11/1;
 11/6=1,8=1,9=11,15=111,16=1/1,2,10;
 10/6=1/2;
 6/7=2,8=2,9=2,10=2,28=1/1;
 7/8=1,10=1,25=1/1,2,3,16;
 1/8=5,10=4,30=1/3;
 99//99;
 Leave Link    1 at Wed Oct  5 09:55:52 2022, MaxMem=  2952790016 cpu:               0.5 elap:               0.0
 (Enter /mnt/data/applications/G16/g16/l101.exe)
 Structure from the checkpoint file:  "PMe3.chk"
 ------------------
 trimethylphosphine
 ------------------
 Charge =  0 Multiplicity = 1
 Redundant internal coordinates found in file.  (old form).
 P,0,1.5365606152,-0.1661309806,-0.0001203079
 C,0,2.3847319499,-0.9949354229,-1.4040245874
 C,0,2.3841575778,-0.9899821308,1.4070969157
 C,0,2.4263482215,1.4417933953,-0.0026703127
 H,0,2.1391034628,2.0172982413,-0.8851054689
 H,0,3.5124603748,1.3156516633,-0.0026519165
 H,0,2.1394052456,2.0200457404,0.8780637063
 H,0,2.0963911797,-0.5141322317,-2.3410975508
 H,0,2.0695702826,-2.0391112722,-1.4565971791
 H,0,3.4735957247,-0.959975055,-1.3105953128
 H,0,2.0696214913,-2.034180412,1.463082227
 H,0,2.0951331136,-0.5061913829,2.3424163038
 H,0,3.4730567606,-0.9547301524,1.3142054832
 Recover connectivity data from disk.
 ITRead=  0  0  0  0  0  0  0  0  0  0  0  0  0
 MicOpt= -1 -1 -1 -1 -1 -1 -1 -1 -1 -1 -1 -1 -1
 NAtoms=     13 NQM=       13 NQMF=       0 NMMI=      0 NMMIF=      0
                NMic=       0 NMicF=      0.
                    Isotopes and Nuclear Properties:
 (Nuclear quadrupole moments (NQMom) in fm**2, nuclear magnetic moments (NMagM)
  in nuclear magnetons)

  Atom         1           2           3           4           5           6           7           8           9          10
 IAtWgt=          31          12          12          12           1           1           1           1           1           1
 AtmWgt=  30.9737634  12.0000000  12.0000000  12.0000000   1.0078250   1.0078250   1.0078250   1.0078250   1.0078250   1.0078250
 NucSpn=           1           0           0           0           1           1           1           1           1           1
 AtZEff=  12.9400000   3.6000000   3.6000000   3.6000000   1.0000000   1.0000000   1.0000000   1.0000000   1.0000000   1.0000000
 NQMom=    0.0000000   0.0000000   0.0000000   0.0000000   0.0000000   0.0000000   0.0000000   0.0000000   0.0000000   0.0000000
 NMagM=    1.1316000   0.0000000   0.0000000   0.0000000   2.7928460   2.7928460   2.7928460   2.7928460   2.7928460   2.7928460
 AtZNuc=  15.0000000   6.0000000   6.0000000   6.0000000   1.0000000   1.0000000   1.0000000   1.0000000   1.0000000   1.0000000

  Atom        11          12          13
 IAtWgt=           1           1           1
 AtmWgt=   1.0078250   1.0078250   1.0078250
 NucSpn=           1           1           1
 AtZEff=   1.0000000   1.0000000   1.0000000
 NQMom=    0.0000000   0.0000000   0.0000000
 NMagM=    2.7928460   2.7928460   2.7928460
 AtZNuc=   1.0000000   1.0000000   1.0000000
 Leave Link  101 at Wed Oct  5 09:55:53 2022, MaxMem=  2952790016 cpu:               4.8 elap:               0.4
 (Enter /mnt/data/applications/G16/g16/l103.exe)

 GradGradGradGradGradGradGradGradGradGradGradGradGradGradGradGradGradGrad
 Berny optimization.
 Initialization pass.
                           ----------------------------
                           !    Initial Parameters    !
                           ! (Angstroms and Degrees)  !
 --------------------------                            --------------------------
 ! Name  Definition              Value          Derivative Info.                !
 --------------------------------------------------------------------------------
 ! R1    R(1,2)                  1.8377         calculate D2E/DX2 analytically  !
 ! R2    R(1,3)                  1.8378         calculate D2E/DX2 analytically  !
 ! R3    R(1,4)                  1.8377         calculate D2E/DX2 analytically  !
 ! R4    R(2,8)                  1.092          calculate D2E/DX2 analytically  !
 ! R5    R(2,9)                  1.092          calculate D2E/DX2 analytically  !
 ! R6    R(2,10)                 1.0934         calculate D2E/DX2 analytically  !
 ! R7    R(3,11)                 1.092          calculate D2E/DX2 analytically  !
 ! R8    R(3,12)                 1.092          calculate D2E/DX2 analytically  !
 ! R9    R(3,13)                 1.0934         calculate D2E/DX2 analytically  !
 ! R10   R(4,5)                  1.092          calculate D2E/DX2 analytically  !
 ! R11   R(4,6)                  1.0934         calculate D2E/DX2 analytically  !
 ! R12   R(4,7)                  1.092          calculate D2E/DX2 analytically  !
 ! A1    A(2,1,3)               99.7832         calculate D2E/DX2 analytically  !
 ! A2    A(2,1,4)               99.7923         calculate D2E/DX2 analytically  !
 ! A3    A(3,1,4)               99.7871         calculate D2E/DX2 analytically  !
 ! A4    A(1,2,8)              109.5798         calculate D2E/DX2 analytically  !
 ! A5    A(1,2,9)              109.5621         calculate D2E/DX2 analytically  !
 ! A6    A(1,2,10)             112.3282         calculate D2E/DX2 analytically  !
 ! A7    A(8,2,9)              107.6684         calculate D2E/DX2 analytically  !
 ! A8    A(8,2,10)             108.796          calculate D2E/DX2 analytically  !
 ! A9    A(9,2,10)             108.7901         calculate D2E/DX2 analytically  !
 ! A10   A(1,3,11)             109.5776         calculate D2E/DX2 analytically  !
 ! A11   A(1,3,12)             109.5838         calculate D2E/DX2 analytically  !
 ! A12   A(1,3,13)             112.3211         calculate D2E/DX2 analytically  !
 ! A13   A(11,3,12)            107.6681         calculate D2E/DX2 analytically  !
 ! A14   A(11,3,13)            108.7861         calculate D2E/DX2 analytically  !
 ! A15   A(12,3,13)            108.7881         calculate D2E/DX2 analytically  !
 ! A16   A(1,4,5)              109.5659         calculate D2E/DX2 analytically  !
 ! A17   A(1,4,6)              112.3344         calculate D2E/DX2 analytically  !
 ! A18   A(1,4,7)              109.5716         calculate D2E/DX2 analytically  !
 ! A19   A(5,4,6)              108.7905         calculate D2E/DX2 analytically  !
 ! A20   A(5,4,7)              107.6723         calculate D2E/DX2 analytically  !
 ! A21   A(6,4,7)              108.7899         calculate D2E/DX2 analytically  !
 ! D1    D(3,1,2,8)           -171.9469         calculate D2E/DX2 analytically  !
 ! D2    D(3,1,2,9)             70.1318         calculate D2E/DX2 analytically  !
 ! D3    D(3,1,2,10)           -50.8976         calculate D2E/DX2 analytically  !
 ! D4    D(4,1,2,8)            -70.1288         calculate D2E/DX2 analytically  !
 ! D5    D(4,1,2,9)            171.95           calculate D2E/DX2 analytically  !
 ! D6    D(4,1,2,10)            50.9205         calculate D2E/DX2 analytically  !
 ! D7    D(2,1,3,11)           -70.0966         calculate D2E/DX2 analytically  !
 ! D8    D(2,1,3,12)           171.9711         calculate D2E/DX2 analytically  !
 ! D9    D(2,1,3,13)            50.9338         calculate D2E/DX2 analytically  !
 ! D10   D(4,1,3,11)          -171.919          calculate D2E/DX2 analytically  !
 ! D11   D(4,1,3,12)            70.1487         calculate D2E/DX2 analytically  !
 ! D12   D(4,1,3,13)           -50.8886         calculate D2E/DX2 analytically  !
 ! D13   D(2,1,4,5)             70.1556         calculate D2E/DX2 analytically  !
 ! D14   D(2,1,4,6)            -50.8812         calculate D2E/DX2 analytically  !
 ! D15   D(2,1,4,7)           -171.9211         calculate D2E/DX2 analytically  !
 ! D16   D(3,1,4,5)            171.9705         calculate D2E/DX2 analytically  !
 ! D17   D(3,1,4,6)             50.9338         calculate D2E/DX2 analytically  !
 ! D18   D(3,1,4,7)            -70.1062         calculate D2E/DX2 analytically  !
 --------------------------------------------------------------------------------
 Trust Radius=5.00D-02 FncErr=1.00D-07 GrdErr=1.00D-07 EigMax=2.50D+02 EigMin=1.00D-04
 Number of steps in this run=      2 maximum allowed number of steps=      2.
 GradGradGradGradGradGradGradGradGradGradGradGradGradGradGradGradGradGrad

 Leave Link  103 at Wed Oct  5 09:55:53 2022, MaxMem=  2952790016 cpu:               0.1 elap:               0.0
 (Enter /mnt/data/applications/G16/g16/l202.exe)
                          Input orientation:                          
 ---------------------------------------------------------------------
 Center     Atomic      Atomic             Coordinates (Angstroms)
 Number     Number       Type             X           Y           Z
 ---------------------------------------------------------------------
      1         15           0        1.536561   -0.166131   -0.000120
      2          6           0        2.384732   -0.994935   -1.404025
      3          6           0        2.384158   -0.989982    1.407097
      4          6           0        2.426348    1.441793   -0.002670
      5          1           0        2.139103    2.017298   -0.885105
      6          1           0        3.512460    1.315652   -0.002652
      7          1           0        2.139405    2.020046    0.878064
      8          1           0        2.096391   -0.514132   -2.341098
      9          1           0        2.069570   -2.039111   -1.456597
     10          1           0        3.473596   -0.959975   -1.310595
     11          1           0        2.069621   -2.034180    1.463082
     12          1           0        2.095133   -0.506191    2.342416
     13          1           0        3.473057   -0.954730    1.314205
 ---------------------------------------------------------------------
                    Distance matrix (angstroms):
                    1          2          3          4          5
     1  P    0.000000
     2  C    1.837732   0.000000
     3  C    1.837774   2.811126   0.000000
     4  C    1.837702   2.811258   2.811184   0.000000
     5  H    2.431794   3.066458   3.789192   1.091974   0.000000
     6  H    2.469791   2.928213   2.928550   1.093413   1.776835
     7  H    2.431871   3.789225   3.065950   1.091973   1.763171
     8  H    2.432013   1.091979   3.789222   3.066392   2.920595
     9  H    2.431765   1.091968   3.066004   3.789181   4.097059
    10  H    2.469745   1.093424   2.928076   2.928462   3.290299
    11  H    2.432021   3.065881   1.091979   3.789206   4.683299
    12  H    2.432102   3.789269   1.091976   3.066558   4.097173
    13  H    2.469688   2.928283   1.093423   2.927983   3.930566
                    6          7          8          9         10
     6  H    0.000000
     7  H    1.776826   0.000000
     8  H    3.289634   4.097183   0.000000
     9  H    3.930690   4.683191   1.763128   0.000000
    10  H    2.625015   3.930753   1.776908   1.776834   0.000000
    11  H    3.930844   4.096812   4.096712   2.919684   3.289126
    12  H    3.290482   2.920302   4.683521   4.096706   3.930722
    13  H    2.624938   3.289094   3.930722   3.289833   2.624806
                   11         12         13
    11  H    0.000000
    12  H    1.763131   0.000000
    13  H    1.776797   1.776817   0.000000
 Stoichiometry    C3H9P
 Framework group  C1[X(C3H9P)]
 Deg. of freedom    33
 Full point group                 C1      NOp   1
 RotChk:  IX=0 Diff= 3.53D-12
 Largest Abelian subgroup         C1      NOp   1
 Largest concise Abelian subgroup C1      NOp   1
                         Standard orientation:                         
 ---------------------------------------------------------------------
 Center     Atomic      Atomic             Coordinates (Angstroms)
 Number     Number       Type             X           Y           Z
 ---------------------------------------------------------------------
      1         15           0        0.000059   -0.000072   -0.589437
      2          6           0       -1.129030   -1.165992    0.272566
      3          6           0       -0.445364    1.560733    0.272478
      4          6           0        1.574341   -0.394657    0.272589
      5          1           0        1.914851   -1.388684   -0.024682
      6          1           0        1.470013   -0.368902    1.360708
      7          1           0        2.343318    0.321635   -0.024069
      8          1           0       -0.893618   -2.190169   -0.024185
      9          1           0       -2.160088   -0.963517   -0.024617
     10          1           0       -1.054443   -1.088503    1.360687
     11          1           0       -1.450217    1.868556   -0.024057
     12          1           0        0.245108    2.352812   -0.024627
     13          1           0       -0.415489    1.457346    1.360592
 ---------------------------------------------------------------------
 Rotational constants (GHZ):           5.8375058           5.8370333           3.7267067
 Leave Link  202 at Wed Oct  5 09:55:53 2022, MaxMem=  2952790016 cpu:               0.1 elap:               0.0
 (Enter /mnt/data/applications/G16/g16/l301.exe)
 Standard basis: def2TZVP (5D, 7F)
 Ernie: Thresh=  0.10000D-02 Tol=  0.10000D-05 Strict=F.
 There are   204 symmetry adapted cartesian basis functions of A   symmetry.
 There are   184 symmetry adapted basis functions of A   symmetry.
   184 basis functions,   294 primitive gaussians,   204 cartesian basis functions
    21 alpha electrons       21 beta electrons
       nuclear repulsion energy       177.9280837443 Hartrees.
 IExCor= 4639 DFT=T Ex+Corr=wB97XD ExCW=0 ScaHFX=  1.000000
 ScaDFX=  1.000000  1.000000  1.000000  1.000000 ScalE2=  1.000000  1.000000
 IRadAn=      5 IRanWt=     -1 IRanGd=            0 ICorTp=0 IEmpDi=121
 HFx  wShort=  0.000000 wLong=  0.200000 cFull=  0.222036 cShort=  0.000000 cLong=  0.777964
 DFx  wShort=  0.000000 wLong=  0.200000 cFull=  0.000000 cShort=  0.000000 cLong=  1.000000
 NAtoms=   13 NActive=   13 NUniq=   13 SFac= 1.00D+00 NAtFMM=   60 NAOKFM=F Big=F
 Integral buffers will be    131072 words long.
 Raffenetti 2 integral format.
 Two-electron integral symmetry is turned on.
 R6Disp:  Grimme-D2 Dispersion energy=       -0.0052506571 Hartrees.
 Nuclear repulsion after empirical dispersion term =      177.9228330872 Hartrees.
 Force inversion solution in PCM.
 ------------------------------------------------------------------------------
 Polarizable Continuum Model (PCM)
 =================================
 Model                : PCM.
 Atomic radii         : SMD-Coulomb.
 Polarization charges : Total charges.
 Charge compensation  : None.
 Solution method      : Matrix inversion.
 Cavity type          : VdW (van der Waals Surface) (Alpha=1.000).
 Cavity algorithm     : GePol (No added spheres)
                        Default sphere list used, NSphG=   13.
                        Lebedev-Laikov grids with approx.  5.0 points / Ang**2.
                        Smoothing algorithm: York/Karplus (Gamma=1.0000).
                        Polarization charges: spherical gaussians, with
                                              point-specific exponents (IZeta= 3).
                        Self-potential: point-specific (ISelfS= 7).
                        Self-field    : sphere-specific E.n sum rule (ISelfD= 2).
 1st derivatives      : Analytical E(r).r(x)/FMM algorithm (CHGder, D1EAlg=3).
                        Cavity 1st derivative terms included.
 2nd derivatives      : Analytical E(r).r(xy)/FMM algorithm (CHGder, D2EAlg=3).
                        Cavity 2nd derivative terms included.
 Solvent              : Toluene, Eps=   2.374100 Eps(inf)=   2.238315
 ------------------------------------------------------------------------------
 Spheres list:
 ISph  on   Nord     Re0    Alpha      Xe            Ye            Ze
    1   P      1    2.1200  1.000      0.000059     -0.000072     -0.589437
    2   C      2    1.8500  1.000     -1.129030     -1.165992      0.272566
    3   C      3    1.8500  1.000     -0.445364      1.560733      0.272478
    4   C      4    1.8500  1.000      1.574341     -0.394657      0.272589
    5   H      5    1.2000  1.000      1.914851     -1.388684     -0.024682
    6   H      6    1.2000  1.000      1.470013     -0.368902      1.360708
    7   H      7    1.2000  1.000      2.343318      0.321635     -0.024069
    8   H      8    1.2000  1.000     -0.893618     -2.190169     -0.024185
    9   H      9    1.2000  1.000     -2.160088     -0.963517     -0.024617
   10   H     10    1.2000  1.000     -1.054443     -1.088503      1.360687
   11   H     11    1.2000  1.000     -1.450217      1.868556     -0.024057
   12   H     12    1.2000  1.000      0.245108      2.352812     -0.024627
   13   H     13    1.2000  1.000     -0.415489      1.457346      1.360592
 ------------------------------------------------------------------------------
 GePol: Number of generator spheres                  =      13
 GePol: Total number of spheres                      =      13
 GePol: Number of exposed spheres                    =      13 (100.00%)
 GePol: Number of points                             =     997
 GePol: Average weight of points                     =       0.12
 GePol: Minimum weight of points                     =   0.15D-09
 GePol: Maximum weight of points                     =    0.20615
 GePol: Number of points with low weight             =      58
 GePol: Fraction of low-weight points (<1% of avg)   =       5.82%
 GePol: Cavity surface area                          =    120.927 Ang**2
 GePol: Cavity volume                                =     95.564 Ang**3
 ------------------------------------------------------------------------------
 Atomic radii for non-electrostatic terms: SMD-CDS.
 ------------------------------------------------------------------------------
 PCM non-electrostatic energy =         0.0003342879 Hartrees.
 Nuclear repulsion after PCM non-electrostatic terms =      177.9231673751 Hartrees.
 Leave Link  301 at Wed Oct  5 09:55:53 2022, MaxMem=  2952790016 cpu:               1.5 elap:               0.1
 (Enter /mnt/data/applications/G16/g16/l302.exe)
 NPDir=0 NMtPBC=     1 NCelOv=     1 NCel=       1 NClECP=     1 NCelD=      1
         NCelK=      1 NCelE2=     1 NClLst=     1 CellRange=     0.0.
 One-electron integrals computed using PRISM.
 One-electron integral symmetry used in STVInt
   1 Symmetry operations used in ECPInt.
 ECPInt:  NShTT=    3403 NPrTT=   10140 LenC2=    3392 LenP2D=    8544.
 LDataN:  DoStor=T MaxTD1= 6 Len=  172
 NBasis=   184 RedAO= T EigKep=  9.89D-04  NBF=   184
 NBsUse=   184 1.00D-06 EigRej= -1.00D+00 NBFU=   184
 Precomputing XC quadrature grid using
 IXCGrd= 4 IRadAn=           5 IRanWt=          -1 IRanGd=           0 AccXCQ= 0.00D+00.
 Generated NRdTot=       0 NPtTot=           0 NUsed=           0 NTot=          32
 NSgBfM=   204   204   204   204   204 MxSgAt=    13 MxSgA2=    13.
 Leave Link  302 at Wed Oct  5 09:55:54 2022, MaxMem=  2952790016 cpu:               6.0 elap:               0.5
 (Enter /mnt/data/applications/G16/g16/l303.exe)
 DipDrv:  MaxL=1.
 Leave Link  303 at Wed Oct  5 09:55:54 2022, MaxMem=  2952790016 cpu:               0.5 elap:               0.1
 (Enter /mnt/data/applications/G16/g16/l401.exe)
 Initial guess from the checkpoint file:  "PMe3.chk"
 B after Tr=    -0.000000   -0.000000   -0.000000
         Rot=    1.000000    0.000000    0.000000   -0.000000 Ang=   0.00 deg.
 Guess basis will be translated and rotated to current coordinates.
 JPrj=2 DoOrth=T DoCkMO=T.
 Leave Link  401 at Wed Oct  5 09:55:54 2022, MaxMem=  2952790016 cpu:               2.9 elap:               0.3
 (Enter /mnt/data/applications/G16/g16/l502.exe)
 Integral symmetry usage will be decided dynamically.
 Closed shell SCF:
 Using DIIS extrapolation, IDIIS=  1040.
 NGot=  2952790016 LenX=  2952702271 LenY=  2952660214
 Requested convergence on RMS density matrix=1.00D-08 within 128 cycles.
 Requested convergence on MAX density matrix=1.00D-06.
 Requested convergence on             energy=1.00D-06.
 No special actions if energy rises.
 Fock matrices will be formed incrementally for  20 cycles.

 Cycle   1  Pass 1  IDiag  1:
 FoFJK:  IHMeth= 1 ICntrl=       0 DoSepK=T KAlg= 0 I1Cent=           0 FoldK=F
 IRaf=         1 NMat=       1 IRICut=       1 DoRegI=T DoRafI=F ISym2E= 0 IDoP0=0 IntGTp=1.
 FoFCou: FMM=F IPFlag=           0 FMFlag=      100000 FMFlg1=           0
         NFxFlg=           0 DoJE=T BraDBF=F KetDBF=F FulRan=T
         wScrn=  0.000000 ICntrl=       500 IOpCl=  0 I1Cent=           0 NGrid=           0
         NMat0=    1 NMatS0=      1 NMatT0=    0 NMatD0=    1 NMtDS0=    0 NMtDT0=    0
 Symmetry not used in FoFCou.
 Inv3:  Mode=1 IEnd=     2982027.
 Iteration    1 A*A^-1 deviation from unit magnitude is 1.67D-15 for    597.
 Iteration    1 A*A^-1 deviation from orthogonality  is 1.23D-15 for    684    226.
 Iteration    1 A^-1*A deviation from unit magnitude is 1.67D-15 for    892.
 Iteration    1 A^-1*A deviation from orthogonality  is 2.16D-15 for    893    511.
 E= -461.120246160077    
 DIIS: error= 2.28D-09 at cycle   1 NSaved=   1.
 NSaved= 1 IEnMin= 1 EnMin= -461.120246160077     IErMin= 1 ErrMin= 2.28D-09
 ErrMax= 2.28D-09  0.00D+00 EMaxC= 1.00D-01 BMatC= 1.86D-15 BMatP= 1.86D-15
 IDIUse=1 WtCom= 1.00D+00 WtEn= 0.00D+00
 Coeff-Com:  0.100D+01
 Coeff:      0.100D+01
 Gap=     0.413 Goal=   None    Shift=    0.000
 RMSDP=1.15D-09 MaxDP=3.15D-08              OVMax= 4.00D-08

 Error on total polarization charges =  0.02907
 SCF Done:  E(RwB97XD) =  -461.120246160     A.U. after    1 cycles
            NFock=  1  Conv=0.11D-08     -V/T= 2.0030
 KE= 4.597418610987D+02 PE=-1.444940046279D+03 EE= 3.461547716448D+02
 SMD-CDS (non-electrostatic) energy       (kcal/mol) =       0.21
 (included in total energy above)
 Leave Link  502 at Wed Oct  5 09:56:13 2022, MaxMem=  2952790016 cpu:             227.7 elap:              19.3
 (Enter /mnt/data/applications/G16/g16/l801.exe)
 DoSCS=F DFT=T ScalE2(SS,OS)=  1.000000  1.000000
 Range of M.O.s used for correlation:     1   184
 NBasis=   184 NAE=    21 NBE=    21 NFC=     0 NFV=     0
 NROrb=    184 NOA=    21 NOB=    21 NVA=   163 NVB=   163

 **** Warning!!: The largest alpha MO coefficient is  0.13756699D+02

 Leave Link  801 at Wed Oct  5 09:56:13 2022, MaxMem=  2952790016 cpu:               0.2 elap:               0.0
 (Enter /mnt/data/applications/G16/g16/l1101.exe)
 Using compressed storage, NAtomX=    13.
 Will process     14 centers per pass.
   1 Symmetry operations used in ECPInt.
 ECPInt:  NShTT=    3403 NPrTT=   10140 LenC2=    3392 LenP2D=    8544.
 LDataN:  DoStor=T MaxTD1= 7 Len=  274
 R6Disp: Adding Grimme-D2 dispersion energy 1st derivatives to the gradient.
 Leave Link 1101 at Wed Oct  5 09:56:14 2022, MaxMem=  2952790016 cpu:               5.3 elap:               0.5
 (Enter /mnt/data/applications/G16/g16/l1102.exe)
 Symmetrizing basis deriv contribution to polar:
 IMax=3 JMax=2 DiffMx= 0.00D+00
 Leave Link 1102 at Wed Oct  5 09:56:14 2022, MaxMem=  2952790016 cpu:               0.4 elap:               0.1
 (Enter /mnt/data/applications/G16/g16/l1110.exe)
 Forming Gx(P) for the SCF density, NAtomX=    13.
 Integral derivatives from FoFJK, PRISM(SPDF).
 Do as many integral derivatives as possible in FoFJK.
 G2DrvN: MDV=    2952788944.
 G2DrvN: will do    14 centers at a time, making    1 passes.
 Calling FoFCou, ICntrl=  3107 FMM=F I1Cent=   0 AccDes= 0.00D+00.
 FoFJK:  IHMeth= 1 ICntrl=    3107 DoSepK=T KAlg= 0 I1Cent=           0 FoldK=F
 IRaf=         1 NMat=       1 IRICut=       1 DoRegI=T DoRafI=F ISym2E= 0 IDoP0=0 IntGTp=1.
 FoFCou: FMM=F IPFlag=           0 FMFlag=      100000 FMFlg1=           0
         NFxFlg=           0 DoJE=F BraDBF=F KetDBF=F FulRan=T
         wScrn=  0.000000 ICntrl=      3507 IOpCl=  0 I1Cent=           0 NGrid=           0
         NMat0=    1 NMatS0=      1 NMatT0=    0 NMatD0=    1 NMtDS0=    0 NMtDT0=    0
 Symmetry not used in FoFCou.
 NEqPCM:  Using equilibrium solvation (IEInf=0, Eps=   2.3741, EpsInf=   2.2383)
 G2PCM: DoFxE=T DoFxN=T DoGrad=T DoDP/DQ/DG/TGxP=FFFF NFrqRd=   0 IEInf=0 SqF1=F DoCFld=F IF1Alg=4.
 GePol: Maximum number of non-zero 1st derivatives   =     233
 End of G2Drv F.D. properties file   721 does not exist.
 End of G2Drv F.D. properties file   722 does not exist.
 End of G2Drv F.D. properties file   788 does not exist.
 Leave Link 1110 at Wed Oct  5 09:57:19 2022, MaxMem=  2952790016 cpu:             781.5 elap:              65.3
 (Enter /mnt/data/applications/G16/g16/l1002.exe)
 Minotr:  Closed shell wavefunction.
          IDoAtm=1111111111111
 NEqPCM:  Using equilibrium solvation (IEInf=0, Eps=   2.3741, EpsInf=   2.2383)
          Direct CPHF calculation.
          Differentiating once with respect to electric field.
                with respect to dipole field.
          Differentiating once with respect to nuclear coordinates.
          Requested convergence is 1.0D-08 RMS, and 1.0D-07 maximum.
          Secondary convergence is 1.0D-12 RMS, and 1.0D-12 maximum.
          NewPWx=T KeepS1=F KeepF1=F KeepIn=T MapXYZ=F SortEE=F KeepMc=T.
         3833 words used for storage of precomputed grid.
 Keep R1 ints in memory in canonical form, NReq=302068984.
 FoFCou: FMM=F IPFlag=           0 FMFlag=           0 FMFlg1=           0
         NFxFlg=           0 DoJE=F BraDBF=F KetDBF=F FulRan=T
         wScrn=  0.000000 ICntrl=       600 IOpCl=  0 I1Cent=           0 NGrid=           0
         NMat0=    1 NMatS0=  17020 NMatT0=    0 NMatD0=    1 NMtDS0=    0 NMtDT0=    0
 Symmetry not used in FoFCou.
 Two-electron integral symmetry not used.
          MDV=    2952790016 using IRadAn=       1.
          Solving linear equations simultaneously, MaxMat=       0.
          There are    42 degrees of freedom in the 1st order CPHF.  IDoFFX=6 NUNeed=     3.
     39 vectors produced by pass  0 Test12= 8.15D-15 2.38D-09 XBig12= 2.74D+01 2.39D+00.
 AX will form    39 AO Fock derivatives at one time.
     39 vectors produced by pass  1 Test12= 8.15D-15 2.38D-09 XBig12= 1.83D+00 5.82D-01.
     39 vectors produced by pass  2 Test12= 8.15D-15 2.38D-09 XBig12= 5.29D-02 6.64D-02.
     39 vectors produced by pass  3 Test12= 8.15D-15 2.38D-09 XBig12= 9.42D-04 7.65D-03.
     39 vectors produced by pass  4 Test12= 8.15D-15 2.38D-09 XBig12= 2.41D-05 1.38D-03.
     39 vectors produced by pass  5 Test12= 8.15D-15 2.38D-09 XBig12= 2.71D-07 1.01D-04.
     28 vectors produced by pass  6 Test12= 8.15D-15 2.38D-09 XBig12= 1.14D-09 7.41D-06.
      6 vectors produced by pass  7 Test12= 8.15D-15 2.38D-09 XBig12= 4.31D-12 3.82D-07.
      3 vectors produced by pass  8 Test12= 8.15D-15 2.38D-09 XBig12= 1.60D-14 2.25D-08.
 InvSVY:  IOpt=1 It=  1 EMax= 8.88D-16
 Solved reduced A of dimension   271 with    42 vectors.
 FullF1:  Do perturbations      1 to       3.
 Isotropic polarizability for W=    0.000000       74.02 Bohr**3.
 End of Minotr F.D. properties file   721 does not exist.
 End of Minotr F.D. properties file   722 does not exist.
 End of Minotr F.D. properties file   788 does not exist.
 Leave Link 1002 at Wed Oct  5 09:58:33 2022, MaxMem=  2952790016 cpu:             887.2 elap:              74.1
 (Enter /mnt/data/applications/G16/g16/l601.exe)
 Copying SCF densities to generalized density rwf, IOpCl= 0 IROHF=0.

 **********************************************************************

            Population analysis using the SCF density.

 **********************************************************************

 Orbital symmetries:
       Occupied  (A) (A) (A) (A) (A) (A) (A) (A) (A) (A) (A) (A)
                 (A) (A) (A) (A) (A) (A) (A) (A) (A)
       Virtual   (A) (A) (A) (A) (A) (A) (A) (A) (A) (A) (A) (A)
                 (A) (A) (A) (A) (A) (A) (A) (A) (A) (A) (A) (A)
                 (A) (A) (A) (A) (A) (A) (A) (A) (A) (A) (A) (A)
                 (A) (A) (A) (A) (A) (A) (A) (A) (A) (A) (A) (A)
                 (A) (A) (A) (A) (A) (A) (A) (A) (A) (A) (A) (A)
                 (A) (A) (A) (A) (A) (A) (A) (A) (A) (A) (A) (A)
                 (A) (A) (A) (A) (A) (A) (A) (A) (A) (A) (A) (A)
                 (A) (A) (A) (A) (A) (A) (A) (A) (A) (A) (A) (A)
                 (A) (A) (A) (A) (A) (A) (A) (A) (A) (A) (A) (A)
                 (A) (A) (A) (A) (A) (A) (A) (A) (A) (A) (A) (A)
                 (A) (A) (A) (A) (A) (A) (A) (A) (A) (A) (A) (A)
                 (A) (A) (A) (A) (A) (A) (A) (A) (A) (A) (A) (A)
                 (A) (A) (A) (A) (A) (A) (A) (A) (A) (A) (A) (A)
                 (A) (A) (A) (A) (A) (A) (A)
 The electronic state is 1-A.
 Alpha  occ. eigenvalues --  -77.19649 -10.26964 -10.26963 -10.26961  -6.64209
 Alpha  occ. eigenvalues --   -4.78916  -4.78916  -4.78413  -0.85609  -0.78072
 Alpha  occ. eigenvalues --   -0.78069  -0.61450  -0.51967  -0.50596  -0.50595
 Alpha  occ. eigenvalues --   -0.47689  -0.47687  -0.46187  -0.40078  -0.40077
 Alpha  occ. eigenvalues --   -0.29793
 Alpha virt. eigenvalues --    0.11481   0.12075   0.12075   0.16177   0.17747
 Alpha virt. eigenvalues --    0.18022   0.18024   0.19180   0.19180   0.22370
 Alpha virt. eigenvalues --    0.22370   0.23747   0.28086   0.28087   0.29672
 Alpha virt. eigenvalues --    0.29673   0.30207   0.34070   0.36146   0.38793
 Alpha virt. eigenvalues --    0.38795   0.44502   0.44504   0.45432   0.46221
 Alpha virt. eigenvalues --    0.46224   0.47006   0.47503   0.52542   0.52544
 Alpha virt. eigenvalues --    0.54728   0.54729   0.54932   0.55962   0.58771
 Alpha virt. eigenvalues --    0.58772   0.64983   0.71464   0.71468   0.79009
 Alpha virt. eigenvalues --    0.79299   0.79303   0.83615   0.85952   0.85953
 Alpha virt. eigenvalues --    0.92017   0.97476   0.97481   1.03903   1.03908
 Alpha virt. eigenvalues --    1.04374   1.10412   1.10414   1.10596   1.15353
 Alpha virt. eigenvalues --    1.15578   1.15579   1.41478   1.41484   1.44799
 Alpha virt. eigenvalues --    1.48466   1.48469   1.50954   1.52338   1.58997
 Alpha virt. eigenvalues --    1.59695   1.59697   1.61341   1.61343   1.63314
 Alpha virt. eigenvalues --    1.63970   1.63971   1.64603   1.67854   1.67857
 Alpha virt. eigenvalues --    1.69884   1.69885   1.72008   1.72097   1.72103
 Alpha virt. eigenvalues --    1.74807   1.92686   1.92689   1.98837   2.05582
 Alpha virt. eigenvalues --    2.09594   2.09594   2.13491   2.13497   2.14144
 Alpha virt. eigenvalues --    2.17509   2.17515   2.20122   2.23657   2.29502
 Alpha virt. eigenvalues --    2.29510   2.36763   2.36767   2.38611   2.45107
 Alpha virt. eigenvalues --    2.45682   2.45686   2.48692   2.55462   2.55465
 Alpha virt. eigenvalues --    2.60837   2.60839   2.64053   2.67057   2.67062
 Alpha virt. eigenvalues --    2.67063   2.70404   2.70407   2.71165   2.83936
 Alpha virt. eigenvalues --    2.89769   2.89774   2.96058   3.02568   3.02579
 Alpha virt. eigenvalues --    3.13430   3.17512   3.17537   3.17539   3.25750
 Alpha virt. eigenvalues --    3.25753   3.31146   3.36367   3.36473   3.36479
 Alpha virt. eigenvalues --    3.43275   3.43280   3.43491   3.51874   3.54478
 Alpha virt. eigenvalues --    3.54482   3.59116   3.59121   3.59384   3.64297
 Alpha virt. eigenvalues --    3.65843   3.65851   3.67883   3.67888   3.78717
 Alpha virt. eigenvalues --    3.78726   3.88329   4.27250   4.34627   4.34679
 Alpha virt. eigenvalues --    4.34683   4.39774   4.39778   4.45489   4.50551
 Alpha virt. eigenvalues --    4.50560   7.63410   7.84732   7.84740  15.40464
 Alpha virt. eigenvalues --   22.36239  22.36578  22.36583
          Condensed to atoms (all electrons):
               1          2          3          4          5          6
     1  P   14.168284   0.339914   0.339932   0.339931  -0.023810  -0.049487
     2  C    0.339914   5.000538  -0.046959  -0.046982  -0.001890  -0.002980
     3  C    0.339932  -0.046959   5.000611  -0.046961   0.004748  -0.002986
     4  C    0.339931  -0.046982  -0.046961   5.000608   0.395552   0.405603
     5  H   -0.023810  -0.001890   0.004748   0.395552   0.519954  -0.023243
     6  H   -0.049487  -0.002980  -0.002986   0.405603  -0.023243   0.559755
     7  H   -0.023795   0.004747  -0.001891   0.395550  -0.014706  -0.023266
     8  H   -0.023790   0.395545   0.004746  -0.001887   0.001240  -0.000153
     9  H   -0.023795   0.395555  -0.001894   0.004747  -0.000124  -0.000092
    10  H   -0.049498   0.405607  -0.002979  -0.002984  -0.000152   0.006986
    11  H   -0.023797  -0.001892   0.395557   0.004746  -0.000110  -0.000092
    12  H   -0.023789   0.004746   0.395561  -0.001896  -0.000124  -0.000152
    13  H   -0.049501  -0.002987   0.405594  -0.002976  -0.000092   0.006989
               7          8          9         10         11         12
     1  P   -0.023795  -0.023790  -0.023795  -0.049498  -0.023797  -0.023789
     2  C    0.004747   0.395545   0.395555   0.405607  -0.001892   0.004746
     3  C   -0.001891   0.004746  -0.001894  -0.002979   0.395557   0.395561
     4  C    0.395550  -0.001887   0.004747  -0.002984   0.004746  -0.001896
     5  H   -0.014706   0.001240  -0.000124  -0.000152  -0.000110  -0.000124
     6  H   -0.023266  -0.000153  -0.000092   0.006986  -0.000092  -0.000152
     7  H    0.519938  -0.000124  -0.000110  -0.000092  -0.000124   0.001241
     8  H   -0.000124   0.519949  -0.014708  -0.023253  -0.000124  -0.000110
     9  H   -0.000110  -0.014708   0.519942  -0.023259   0.001241  -0.000124
    10  H   -0.000092  -0.023253  -0.023259   0.559812  -0.000153  -0.000092
    11  H   -0.000124  -0.000124   0.001241  -0.000153   0.519967  -0.014710
    12  H    0.001241  -0.000110  -0.000124  -0.000092  -0.014710   0.519921
    13  H   -0.000154  -0.000092  -0.000152   0.006987  -0.023257  -0.023259
              13
     1  P   -0.049501
     2  C   -0.002987
     3  C    0.405594
     4  C   -0.002976
     5  H   -0.000092
     6  H    0.006989
     7  H   -0.000154
     8  H   -0.000092
     9  H   -0.000152
    10  H    0.006987
    11  H   -0.023257
    12  H   -0.023259
    13  H    0.559808
 Mulliken charges:
               1
     1  P    0.103201
     2  C   -0.442962
     3  C   -0.443077
     4  C   -0.443053
     5  H    0.142758
     6  H    0.123117
     7  H    0.142787
     8  H    0.142761
     9  H    0.142773
    10  H    0.123069
    11  H    0.142749
    12  H    0.142786
    13  H    0.123091
 Sum of Mulliken charges =  -0.00000
 Mulliken charges with hydrogens summed into heavy atoms:
               1
     1  P    0.103201
     2  C   -0.034359
     3  C   -0.034452
     4  C   -0.034390
 APT charges:
               1
     1  P    0.585060
     2  C   -0.185043
     3  C   -0.185432
     4  C   -0.186032
     5  H    0.014123
     6  H   -0.036533
     7  H    0.013103
     8  H    0.012886
     9  H    0.013098
    10  H   -0.035831
    11  H    0.014030
    12  H    0.013064
    13  H   -0.036492
 Sum of APT charges =  -0.00000
 APT charges with hydrogens summed into heavy atoms:
               1
     1  P    0.585060
     2  C   -0.194891
     3  C   -0.194830
     4  C   -0.195339
 Electronic spatial extent (au):  <R**2>=            434.8277
 Charge=             -0.0000 electrons
 Dipole moment (field-independent basis, Debye):
    X=             -0.0012    Y=             -0.0006    Z=              1.5928  Tot=              1.5928
 Quadrupole moment (field-independent basis, Debye-Ang):
   XX=            -33.1720   YY=            -33.1719   ZZ=            -38.2748
   XY=             -0.0002   XZ=              0.0009   YZ=              0.0003
 Traceless Quadrupole moment (field-independent basis, Debye-Ang):
   XX=              1.7009   YY=              1.7010   ZZ=             -3.4019
   XY=             -0.0002   XZ=              0.0009   YZ=              0.0003
 Octapole moment (field-independent basis, Debye-Ang**2):
  XXX=             -1.7446  YYY=             -1.5811  ZZZ=             10.4322  XYY=              1.7406
  XXY=              1.5803  XXZ=             -1.8768  XZZ=             -0.0008  YZZ=             -0.0007
  YYZ=             -1.8766  XYZ=             -0.0006
 Hexadecapole moment (field-independent basis, Debye-Ang**3):
 XXXX=           -251.6270 YYYY=           -251.5916 ZZZZ=           -118.1311 XXXY=             -0.0019
 XXXZ=             -0.1270 YYYX=              0.0028 YYYZ=             -0.1181 ZZZX=              0.0033
 ZZZY=             -0.0014 XXYY=            -83.8712 XXZZ=            -63.5745 YYZZ=            -63.5720
 XXYZ=              0.1213 YYXZ=              0.1299 ZZXY=             -0.0002
 N-N= 1.779231673751D+02 E-N=-1.444940046652D+03  KE= 4.597418610987D+02
  Exact polarizability:  77.251   0.003  77.234   0.003  -0.012  67.578
 Approx polarizability:  68.292  -0.000  68.294   0.000  -0.000  63.420
 No NMR shielding tensors so no spin-rotation constants.
 Leave Link  601 at Wed Oct  5 09:58:34 2022, MaxMem=  2952790016 cpu:               2.9 elap:               0.3
 (Enter /mnt/data/applications/G16/g16/l701.exe)
 ... and contract with generalized density number  0.
 Compute integral second derivatives.
 R6Disp: Adding Grimme-D2 dispersion energy 2nd derivatives to the Hessian.
   1 Symmetry operations used in ECPInt.
 ECPInt:  NShTT=    3403 NPrTT=   10140 LenC2=    3392 LenP2D=    8544.
 LDataN:  DoStor=T MaxTD1= 8 Len=  415
 D2PCM: PCM CHGder 2nd derivatives, FixD1E=F FixD2E=F DoIter=F DoCFld=F I1PDM=0
 GePol: Maximum number of non-zero 2nd derivatives   =     233
 Leave Link  701 at Wed Oct  5 09:58:42 2022, MaxMem=  2952790016 cpu:             100.3 elap:               8.4
 (Enter /mnt/data/applications/G16/g16/l702.exe)
 L702 exits ... SP integral derivatives will be done elsewhere.
 Leave Link  702 at Wed Oct  5 09:58:42 2022, MaxMem=  2952790016 cpu:               0.2 elap:               0.0
 (Enter /mnt/data/applications/G16/g16/l703.exe)
 Integral derivatives from FoFJK, PRISM(SPDF).
 Compute integral second derivatives, UseDBF=F ICtDFT=           0.
 Calling FoFJK, ICntrl=    100127 FMM=F ISym2X=0 I1Cent= 0 IOpClX= 0 NMat=1 NMatS=1 NMatT=0.
 FoFJK:  IHMeth= 1 ICntrl=  100127 DoSepK=T KAlg= 0 I1Cent=           0 FoldK=F
 IRaf=         1 NMat=       1 IRICut=       1 DoRegI=T DoRafI=F ISym2E= 0 IDoP0=0 IntGTp=1.
 FoFCou: FMM=F IPFlag=           0 FMFlag=      100000 FMFlg1=         800
         NFxFlg=           0 DoJE=F BraDBF=F KetDBF=F FulRan=T
         wScrn=  0.000000 ICntrl=    100527 IOpCl=  0 I1Cent=           0 NGrid=           0
         NMat0=    1 NMatS0=      1 NMatT0=    0 NMatD0=    1 NMtDS0=    0 NMtDT0=    0
 Symmetry not used in FoFCou.
 Leave Link  703 at Wed Oct  5 10:00:51 2022, MaxMem=  2952790016 cpu:            1543.2 elap:             129.0
 (Enter /mnt/data/applications/G16/g16/l716.exe)
 Dipole        =-4.57625960D-04-2.45867065D-04 6.26648911D-01
 Polarizability= 7.72514643D+01 2.80418797D-03 7.72344067D+01
                 3.49906728D-03-1.24670046D-02 6.75781958D+01
 Full mass-weighted force constant matrix:
 Low frequencies ---  -12.3896   -8.6635   -0.0026    0.0020    0.0029   15.3926
 Low frequencies ---  178.8403  224.8245  225.5863
 Diagonal vibrational polarizability:
        2.4735923       2.4852148       1.8939563
 Harmonic frequencies (cm**-1), IR intensities (KM/Mole), Raman scattering
 activities (A**4/AMU), depolarization ratios for plane and unpolarized
 incident light, reduced masses (AMU), force constants (mDyne/A),
 and normal coordinates:
                      1                      2                      3
                      A                      A                      A
 Frequencies --    178.8346               224.8205               225.5857
 Red. masses --      1.0214                 1.0631                 1.0628
 Frc consts  --      0.0192                 0.0317                 0.0319
 IR Inten    --      0.0007                 0.0454                 0.0507
  Atom  AN      X      Y      Z        X      Y      Z        X      Y      Z
     1  15     0.00  -0.00   0.00    -0.01   0.02   0.00     0.02   0.01   0.00
     2   6     0.01  -0.01  -0.00     0.03  -0.02  -0.01    -0.00   0.02  -0.03
     3   6    -0.02  -0.01   0.00     0.00   0.01   0.03    -0.04  -0.01   0.01
     4   6     0.01   0.02  -0.00    -0.01  -0.02  -0.02     0.00  -0.03   0.02
     5   1    -0.17  -0.12   0.25    -0.24  -0.17   0.22    -0.19  -0.16   0.25
     6   1     0.09   0.34  -0.00     0.08   0.28  -0.02     0.06   0.25   0.02
     7   1     0.09  -0.18  -0.26     0.11  -0.26  -0.27     0.12  -0.23  -0.19
     8   1    -0.21   0.01  -0.25     0.37  -0.03   0.30    -0.11   0.02  -0.14
     9   1    -0.02   0.21   0.25     0.05  -0.36  -0.32    -0.00   0.13   0.06
    10   1     0.25  -0.24  -0.00    -0.27   0.25  -0.01     0.07  -0.09  -0.02
    11   1     0.11   0.17  -0.25     0.04   0.08  -0.03    -0.22  -0.30   0.33
    12   1     0.18  -0.09   0.25     0.07  -0.01   0.10    -0.35   0.15  -0.31
    13   1    -0.33  -0.10   0.00    -0.07  -0.03   0.02     0.37   0.10   0.01
                      4                      5                      6
                      A                      A                      A
 Frequencies --    259.4498               259.9682               300.2733
 Red. masses --      2.2350                 2.2409                 2.5136
 Frc consts  --      0.0886                 0.0892                 0.1335
 IR Inten    --      0.1644                 0.1729                 0.4735
  Atom  AN      X      Y      Z        X      Y      Z        X      Y      Z
     1  15    -0.08  -0.02   0.00    -0.02   0.08  -0.00     0.00  -0.00   0.16
     2   6     0.01  -0.15  -0.06     0.17  -0.08   0.04    -0.09  -0.09  -0.09
     3   6     0.20   0.06  -0.00    -0.04   0.11  -0.07    -0.03   0.12  -0.09
     4   6    -0.08   0.12   0.06    -0.10  -0.17   0.03     0.12  -0.03  -0.09
     5   1     0.01   0.10   0.22    -0.23  -0.17  -0.13     0.05  -0.01  -0.25
     6   1    -0.14   0.26   0.05    -0.20  -0.39   0.03     0.40  -0.11  -0.06
     7   1    -0.12   0.14   0.01     0.05  -0.23   0.25     0.05  -0.01  -0.24
     8   1     0.09  -0.08  -0.24     0.26  -0.01  -0.12    -0.04  -0.03  -0.25
     9   1    -0.02  -0.20   0.02     0.09  -0.19   0.26    -0.03  -0.04  -0.24
    10   1     0.06  -0.32  -0.05     0.38  -0.20   0.03    -0.29  -0.30  -0.06
    11   1     0.18   0.22   0.21    -0.03   0.07  -0.14    -0.01   0.05  -0.25
    12   1     0.27  -0.08  -0.23    -0.04   0.09  -0.12    -0.02   0.05  -0.25
    13   1     0.46   0.14  -0.00    -0.09   0.21  -0.06    -0.11   0.40  -0.06
                      7                      8                      9
                      A                      A                      A
 Frequencies --    675.7486               733.2325               733.4653
 Red. masses --      4.0122                 4.3905                 4.3761
 Frc consts  --      1.0795                 1.3908                 1.3871
 IR Inten    --      0.5364                18.4878                18.2950
  Atom  AN      X      Y      Z        X      Y      Z        X      Y      Z
     1  15     0.00   0.00   0.15     0.09   0.19  -0.00     0.19  -0.09   0.00
     2   6     0.17   0.18  -0.09    -0.22  -0.21   0.14    -0.04  -0.10   0.05
     3   6     0.07  -0.24  -0.09     0.09  -0.22  -0.11    -0.02   0.21   0.10
     4   6    -0.24   0.06  -0.09    -0.05   0.06  -0.03    -0.30   0.07  -0.15
     5   1    -0.28   0.08  -0.19    -0.25   0.02  -0.12    -0.28   0.08  -0.18
     6   1    -0.09   0.02  -0.08    -0.07  -0.05  -0.03    -0.28   0.08  -0.15
     7   1    -0.28   0.06  -0.19     0.10  -0.07   0.05    -0.36   0.09  -0.21
     8   1     0.19   0.21  -0.19    -0.17  -0.20   0.16    -0.23  -0.17   0.15
     9   1     0.21   0.20  -0.19    -0.26  -0.28   0.22     0.02   0.08  -0.02
    10   1     0.07   0.07  -0.07    -0.18  -0.22   0.15    -0.11  -0.03   0.05
    11   1     0.09  -0.28  -0.19     0.08  -0.37  -0.21    -0.06   0.07   0.07
    12   1     0.07  -0.28  -0.19     0.00  -0.13  -0.09    -0.13   0.34   0.20
    13   1     0.03  -0.09  -0.08     0.02  -0.23  -0.12    -0.10   0.18   0.10
                     10                     11                     12
                      A                      A                      A
 Frequencies --    798.8204               847.4375               848.1823
 Red. masses --      1.1629                 1.1851                 1.1845
 Frc consts  --      0.4372                 0.5015                 0.5021
 IR Inten    --      0.0096                 0.8899                 0.6943
  Atom  AN      X      Y      Z        X      Y      Z        X      Y      Z
     1  15     0.00  -0.00   0.00     0.01   0.02  -0.00     0.01  -0.01  -0.00
     2   6     0.05  -0.05  -0.00    -0.03  -0.03  -0.08    -0.03   0.02  -0.00
     3   6    -0.07  -0.02   0.00    -0.03  -0.03   0.04    -0.03   0.03  -0.07
     4   6     0.02   0.07  -0.00    -0.03  -0.03   0.04    -0.03   0.03   0.07
     5   1    -0.35  -0.02  -0.15     0.09   0.05  -0.07    -0.21   0.07  -0.30
     6   1    -0.05  -0.17  -0.00     0.29   0.02   0.07     0.47  -0.17   0.12
     7   1     0.30  -0.18   0.16    -0.22   0.08  -0.22    -0.07  -0.05  -0.21
     8   1    -0.31  -0.17   0.15    -0.08  -0.14   0.29     0.15   0.09  -0.08
     9   1     0.16   0.31  -0.15    -0.14  -0.08   0.29    -0.08  -0.16   0.09
    10   1    -0.13   0.12  -0.00     0.39   0.41  -0.14     0.08  -0.07  -0.00
    11   1     0.01   0.35   0.15     0.04   0.09  -0.07    -0.07   0.21   0.29
    12   1     0.19  -0.30  -0.16     0.09  -0.22  -0.22     0.05   0.06   0.21
    13   1     0.17   0.05   0.00     0.01   0.30   0.07     0.19  -0.46  -0.12
                     13                     14                     15
                      A                      A                      A
 Frequencies --    966.3877               966.7958               974.1431
 Red. masses --      1.3907                 1.3885                 1.4647
 Frc consts  --      0.7652                 0.7646                 0.8189
 IR Inten    --     32.9129                32.7630                41.5671
  Atom  AN      X      Y      Z        X      Y      Z        X      Y      Z
     1  15    -0.04   0.03  -0.00     0.03   0.04  -0.01    -0.00  -0.00  -0.07
     2   6     0.09  -0.09  -0.00     0.02   0.01   0.06     0.02   0.03   0.08
     3   6     0.06   0.03  -0.04    -0.10  -0.02  -0.02     0.02  -0.03   0.09
     4   6    -0.02  -0.05   0.05    -0.02  -0.11  -0.02    -0.04   0.02   0.09
     5   1     0.16   0.03  -0.01     0.42  -0.00   0.19    -0.14   0.07  -0.23
     6   1     0.26   0.04   0.07    -0.03   0.21  -0.02     0.42  -0.13   0.13
     7   1    -0.23   0.09  -0.17    -0.35   0.20  -0.14    -0.08  -0.04  -0.19
     8   1    -0.40  -0.24   0.19     0.00   0.05  -0.11     0.05   0.11  -0.20
     9   1     0.23   0.40  -0.18     0.08   0.05  -0.13     0.10   0.04  -0.20
    10   1    -0.15   0.17  -0.00    -0.23  -0.21   0.09    -0.28  -0.30   0.12
    11   1    -0.02  -0.22  -0.02    -0.02   0.40   0.19     0.08  -0.13  -0.23
    12   1    -0.13   0.27   0.18     0.20  -0.31  -0.11    -0.03  -0.09  -0.20
    13   1    -0.06  -0.24  -0.07     0.21  -0.06  -0.03    -0.14   0.43   0.13
                     16                     17                     18
                      A                      A                      A
 Frequencies --   1325.6882              1326.6206              1347.1095
 Red. masses --      1.2205                 1.2203                 1.2082
 Frc consts  --      1.2638                 1.2654                 1.2918
 IR Inten    --      7.8051                 8.3097                 8.5445
  Atom  AN      X      Y      Z        X      Y      Z        X      Y      Z
     1  15     0.00  -0.00   0.00     0.00   0.00   0.00    -0.00  -0.00   0.00
     2   6    -0.00   0.00   0.00    -0.07  -0.07   0.05     0.05   0.05  -0.04
     3   6    -0.03   0.08   0.05     0.01  -0.05  -0.03     0.02  -0.06  -0.04
     4   6    -0.08   0.02  -0.05    -0.05   0.01  -0.03    -0.06   0.02  -0.04
     5   1     0.33   0.07   0.24     0.20   0.04   0.13     0.26   0.05   0.19
     6   1     0.38  -0.10   0.02     0.22  -0.04   0.01     0.30  -0.07   0.01
     7   1     0.26  -0.21   0.24     0.15  -0.12   0.15     0.21  -0.16   0.20
     8   1     0.01   0.01   0.00     0.35   0.13  -0.27    -0.26  -0.10   0.21
     9   1    -0.00   0.00  -0.01     0.12   0.36  -0.27    -0.09  -0.27   0.21
    10   1     0.02  -0.01  -0.00     0.31   0.32  -0.02    -0.23  -0.24   0.01
    11   1    -0.05  -0.32  -0.24     0.03   0.21   0.14     0.04   0.26   0.20
    12   1     0.22  -0.25  -0.24    -0.13   0.15   0.16    -0.17   0.20   0.20
    13   1     0.11  -0.37  -0.02    -0.05   0.24   0.01    -0.08   0.30   0.01
                     19                     20                     21
                      A                      A                      A
 Frequencies --   1459.0936              1462.2841              1462.6634
 Red. masses --      1.0537                 1.0503                 1.0503
 Frc consts  --      1.3217                 1.3232                 1.3240
 IR Inten    --      0.0271                 5.9403                 5.8669
  Atom  AN      X      Y      Z        X      Y      Z        X      Y      Z
     1  15     0.00  -0.00  -0.00     0.00  -0.00  -0.00    -0.00  -0.00   0.00
     2   6    -0.03   0.03   0.00    -0.00   0.01   0.01    -0.02  -0.01  -0.04
     3   6     0.04   0.01  -0.00    -0.00  -0.02   0.03     0.01  -0.01   0.03
     4   6    -0.01  -0.04  -0.00     0.02  -0.00  -0.04    -0.00   0.01   0.01
     5   1    -0.05   0.04  -0.27    -0.36  -0.23   0.32     0.08   0.03   0.02
     6   1     0.11   0.41   0.00     0.27  -0.10  -0.00    -0.08  -0.09  -0.00
     7   1     0.04   0.04   0.28    -0.21   0.37   0.28     0.02  -0.08  -0.13
     8   1    -0.02  -0.05   0.26    -0.14  -0.01  -0.04     0.40  -0.01   0.31
     9   1     0.06  -0.01  -0.27     0.02  -0.14  -0.16    -0.01   0.40   0.26
    10   1     0.30  -0.28   0.00     0.14  -0.00   0.00    -0.16  -0.23  -0.00
    11   1    -0.05   0.03   0.27     0.15   0.23  -0.26     0.16   0.29  -0.17
    12   1    -0.02  -0.05  -0.27    -0.24   0.14  -0.13    -0.30   0.14  -0.30
    13   1    -0.41  -0.11   0.00     0.15  -0.15   0.00    -0.03  -0.24   0.00
                     22                     23                     24
                      A                      A                      A
 Frequencies --   1472.8840              1472.9564              1481.3020
 Red. masses --      1.0484                 1.0484                 1.0442
 Frc consts  --      1.3401                 1.3402                 1.3500
 IR Inten    --     14.8449                14.9925                14.9948
  Atom  AN      X      Y      Z        X      Y      Z        X      Y      Z
     1  15    -0.00  -0.01  -0.00    -0.01   0.00   0.00    -0.00   0.00  -0.01
     2   6     0.02  -0.02  -0.01    -0.03   0.03  -0.01    -0.01  -0.01  -0.03
     3   6    -0.02  -0.01   0.01    -0.04  -0.01  -0.00    -0.00   0.01  -0.03
     4   6    -0.01  -0.05  -0.00    -0.00  -0.01   0.01     0.01  -0.00  -0.03
     5   1    -0.07   0.06  -0.37     0.06   0.06  -0.13    -0.26  -0.16   0.21
     6   1     0.14   0.55  -0.00    -0.04   0.10   0.00     0.20  -0.06   0.00
     7   1     0.07   0.04   0.38     0.05  -0.07  -0.02    -0.15   0.26   0.20
     8   1     0.08   0.05  -0.18     0.04  -0.07   0.35     0.32  -0.00   0.22
     9   1    -0.06   0.06   0.30     0.06   0.06  -0.26    -0.01   0.32   0.21
    10   1    -0.29   0.21  -0.00     0.30  -0.35  -0.00    -0.15  -0.17   0.00
    11   1     0.06   0.03  -0.21     0.05  -0.07  -0.33    -0.16  -0.27   0.21
    12   1    -0.05   0.06   0.08     0.04   0.07   0.36     0.28  -0.15   0.22
    13   1     0.23   0.01   0.00     0.50   0.16  -0.00    -0.06   0.21   0.00
                     25                     26                     27
                      A                      A                      A
 Frequencies --   3037.9632              3039.8348              3040.8317
 Red. masses --      1.0351                 1.0351                 1.0351
 Frc consts  --      5.6288                 5.6354                 5.6389
 IR Inten    --     32.3556                20.5361                21.3227
  Atom  AN      X      Y      Z        X      Y      Z        X      Y      Z
     1  15     0.00   0.00  -0.00    -0.00   0.00  -0.00    -0.00  -0.00  -0.00
     2   6     0.01   0.01  -0.01     0.00   0.00  -0.00     0.02   0.02  -0.03
     3   6     0.01  -0.02  -0.02     0.01  -0.03  -0.03    -0.00   0.01   0.01
     4   6    -0.02   0.01  -0.02     0.02  -0.01   0.02     0.01  -0.00   0.01
     5   1     0.10  -0.31  -0.10    -0.10   0.31   0.10    -0.04   0.12   0.04
     6   1    -0.06   0.01   0.48     0.06  -0.01  -0.47     0.02  -0.01  -0.17
     7   1     0.23   0.23  -0.10    -0.24  -0.23   0.10    -0.08  -0.08   0.04
     8   1     0.04  -0.17  -0.05     0.01  -0.03  -0.01     0.11  -0.43  -0.14
     9   1    -0.18   0.04  -0.05    -0.02   0.00  -0.01    -0.43   0.09  -0.13
    10   1     0.02   0.02   0.28     0.00   0.00   0.03     0.06   0.06   0.64
    11   1    -0.28   0.08  -0.09    -0.33   0.09  -0.11     0.14  -0.04   0.04
    12   1     0.19   0.22  -0.09     0.24   0.26  -0.11    -0.09  -0.10   0.04
    13   1     0.01  -0.05   0.44     0.02  -0.06   0.51    -0.01   0.03  -0.20
                     28                     29                     30
                      A                      A                      A
 Frequencies --   3123.3851              3123.9619              3125.0751
 Red. masses --      1.1011                 1.1029                 1.1026
 Frc consts  --      6.3290                 6.3415                 6.3447
 IR Inten    --     41.2917                 2.9270                 9.2700
  Atom  AN      X      Y      Z        X      Y      Z        X      Y      Z
     1  15     0.00   0.00  -0.00    -0.00   0.00  -0.00    -0.00  -0.00  -0.00
     2   6    -0.01  -0.01  -0.02    -0.00  -0.00  -0.00    -0.03  -0.04  -0.08
     3   6    -0.01   0.03  -0.05    -0.01   0.04  -0.06     0.00  -0.01   0.01
     4   6     0.04  -0.01  -0.06    -0.03   0.01   0.05    -0.01   0.00   0.01
     5   1    -0.11   0.34   0.09     0.09  -0.27  -0.07     0.02  -0.07  -0.02
     6   1    -0.05   0.01   0.52     0.04  -0.01  -0.44     0.01  -0.00  -0.11
     7   1    -0.28  -0.27   0.10     0.23   0.22  -0.08     0.05   0.05  -0.02
     8   1    -0.03   0.11   0.03    -0.00   0.02   0.01    -0.12   0.47   0.13
     9   1     0.11  -0.02   0.03     0.01  -0.00   0.00     0.45  -0.10   0.12
    10   1     0.01   0.01   0.15     0.00   0.00   0.02     0.05   0.05   0.68
    11   1     0.29  -0.08   0.08     0.36  -0.10   0.10    -0.08   0.02  -0.02
    12   1    -0.20  -0.22   0.08    -0.26  -0.28   0.10     0.05   0.05  -0.02
    13   1     0.01  -0.04   0.41     0.02  -0.05   0.54    -0.00   0.01  -0.12
                     31                     32                     33
                      A                      A                      A
 Frequencies --   3136.1752              3136.6152              3137.6100
 Red. masses --      1.1018                 1.1019                 1.1019
 Frc consts  --      6.3852                 6.3874                 6.3913
 IR Inten    --      5.3733                12.7188                12.2543
  Atom  AN      X      Y      Z        X      Y      Z        X      Y      Z
     1  15     0.00  -0.00  -0.00    -0.00  -0.00  -0.00    -0.00   0.00  -0.00
     2   6    -0.01   0.01  -0.00     0.01  -0.01  -0.00    -0.07   0.06  -0.00
     3   6     0.03   0.01   0.00    -0.08  -0.02   0.00    -0.01  -0.00  -0.00
     4   6    -0.02  -0.08  -0.00    -0.01  -0.03  -0.00     0.00   0.01   0.00
     5   1    -0.22   0.61   0.19    -0.08   0.21   0.07     0.02  -0.06  -0.02
     6   1    -0.01  -0.02   0.02    -0.00  -0.01   0.01     0.00   0.00  -0.00
     7   1     0.46   0.42  -0.18     0.17   0.15  -0.07    -0.04  -0.03   0.02
     8   1     0.02  -0.08  -0.02    -0.01   0.07   0.02     0.14  -0.64  -0.19
     9   1     0.09  -0.02   0.03    -0.05   0.01  -0.02     0.67  -0.12   0.20
    10   1    -0.00   0.00   0.00     0.00  -0.00  -0.00    -0.01   0.01   0.01
    11   1    -0.21   0.07  -0.07     0.60  -0.19   0.18     0.09  -0.03   0.03
    12   1    -0.14  -0.16   0.06     0.41   0.48  -0.19     0.05   0.06  -0.02
    13   1     0.01   0.00   0.00    -0.02  -0.00  -0.00    -0.00  -0.00  -0.00

 -------------------
 - Thermochemistry -
 -------------------
 Temperature   298.150 Kelvin.  Pressure   1.00000 Atm.
 Atom     1 has atomic number 15 and mass  30.97376
 Atom     2 has atomic number  6 and mass  12.00000
 Atom     3 has atomic number  6 and mass  12.00000
 Atom     4 has atomic number  6 and mass  12.00000
 Atom     5 has atomic number  1 and mass   1.00783
 Atom     6 has atomic number  1 and mass   1.00783
 Atom     7 has atomic number  1 and mass   1.00783
 Atom     8 has atomic number  1 and mass   1.00783
 Atom     9 has atomic number  1 and mass   1.00783
 Atom    10 has atomic number  1 and mass   1.00783
 Atom    11 has atomic number  1 and mass   1.00783
 Atom    12 has atomic number  1 and mass   1.00783
 Atom    13 has atomic number  1 and mass   1.00783
 Molecular mass:    76.04419 amu.
 Principal axes and moments of inertia in atomic units:
                           1         2         3
     Eigenvalues --   309.16307 309.18810 484.27241
           X            0.99983  -0.01865   0.00000
           Y            0.01865   0.99983   0.00000
           Z           -0.00000  -0.00000   1.00000
 This molecule is an asymmetric top.
 Rotational symmetry number  1.
 Rotational temperatures (Kelvin)      0.28016     0.28013     0.17885
 Rotational constants (GHZ):           5.83751     5.83703     3.72671
 Zero-point vibrational energy     297303.1 (Joules/Mol)
                                   71.05715 (Kcal/Mol)
 Warning -- explicit consideration of   6 degrees of freedom as
           vibrations may cause significant error
 Vibrational temperatures:    257.30   323.47   324.57   373.29   374.04
          (Kelvin)            432.03   972.25  1054.96  1055.29  1149.32
                             1219.27  1220.35  1390.42  1391.00  1401.57
                             1907.37  1908.71  1938.19  2099.31  2103.90
                             2104.45  2119.15  2119.26  2131.26  4370.95
                             4373.64  4375.08  4493.85  4494.68  4496.29
                             4512.26  4512.89  4514.32
 
 Zero-point correction=                           0.113237 (Hartree/Particle)
 Thermal correction to Energy=                    0.119795
 Thermal correction to Enthalpy=                  0.120739
 Thermal correction to Gibbs Free Energy=         0.084128
 Sum of electronic and zero-point Energies=           -461.007009
 Sum of electronic and thermal Energies=              -461.000451
 Sum of electronic and thermal Enthalpies=            -460.999507
 Sum of electronic and thermal Free Energies=         -461.036119
 
                     E (Thermal)             CV                S
                      KCal/Mol        Cal/Mol-Kelvin    Cal/Mol-Kelvin
 Total                   75.172             22.952             77.055
 Electronic               0.000              0.000              0.000
 Translational            0.889              2.981             38.902
 Rotational               0.889              2.981             25.340
 Vibrational             73.395             16.990             12.813
 Vibration     1          0.629              1.868              2.341
 Vibration     2          0.649              1.803              1.920
 Vibration     3          0.650              1.802              1.914
 Vibration     4          0.668              1.747              1.665
 Vibration     5          0.668              1.746              1.662
 Vibration     6          0.693              1.673              1.415
                       Q            Log10(Q)             Ln(Q)
 Total Bot       0.201402D-38        -38.695936        -89.100686
 Total V=0       0.245086D+14         13.389319         30.830046
 Vib (Bot)       0.100326D-50        -50.998585       -117.428581
 Vib (Bot)    1  0.112356D+01          0.050595          0.116500
 Vib (Bot)    2  0.878034D+00         -0.056489         -0.130070
 Vib (Bot)    3  0.874769D+00         -0.058107         -0.133796
 Vib (Bot)    4  0.748831D+00         -0.125616         -0.289242
 Vib (Bot)    5  0.747147D+00         -0.126594         -0.291493
 Vib (Bot)    6  0.633247D+00         -0.198427         -0.456894
 Vib (V=0)       0.122087D+02          1.086670          2.502151
 Vib (V=0)    1  0.172979D+01          0.237993          0.548000
 Vib (V=0)    2  0.151042D+01          0.179097          0.412386
 Vib (V=0)    3  0.150758D+01          0.178281          0.410507
 Vib (V=0)    4  0.140042D+01          0.146257          0.336769
 Vib (V=0)    5  0.139902D+01          0.145823          0.335769
 Vib (V=0)    6  0.130685D+01          0.116225          0.267617
 Electronic      0.100000D+01          0.000000          0.000000
 Translational   0.260647D+08          7.416053         17.076093
 Rotational      0.770186D+05          4.886596         11.251802
 
                                                          trimethylphosphine
                                                             IR Spectrum
 
 333333 333                                                         111111   111                                                     
 111111 000                                                         444444   333           999   88 7 77 6              3 22 1       
 333222 443                                                         877665   422           766   44 9 33 7              0 52 7       
 876543 108                                                         133329   776           476   87 9 33 6              0 95 9       
 
 XXXXXX XXX                                                         XXXXX    XXX           XXX   XX   XX X              X XX         
 XXXX X XXX                                                         XXXXX    XXX           XXX        XX                             
 XXXX X XXX                                                         XXXXX    XXX           XXX        XX                             
 XX X X XXX                                                         XXX      XXX           XXX        XX                             
 XX   X XXX                                                         XXX                    XXX        XX                             
 XX   X XXX                                                         XXX                    XXX        XX                             
      X XXX                                                         XXX                    XXX        XX                             
      X XXX                                                                                XXX        XX                             
      X XXX                                                                                XXX        XX                             
      X XXX                                                                                XXX                                       
      X   X                                                                                XXX                                       
      X   X                                                                                XXX                                       
      X   X                                                                                XXX                                       
      X   X                                                                                XXX                                       
      X   X                                                                                XXX                                       
      X   X                                                                                XXX                                       
      X                                                                                    X                                         
      X                                                                                    X                                         
      X                                                                                    X                                         
      X                                                                                    X                                         
 
 ***** Axes restored to original set *****
 -------------------------------------------------------------------
 Center     Atomic                   Forces (Hartrees/Bohr)
 Number     Number              X              Y              Z
 -------------------------------------------------------------------
      1       15          -0.000038187   -0.000036409    0.000039805
      2        6          -0.000032144    0.000007443    0.000031863
      3        6           0.000005878    0.000050303   -0.000044652
      4        6           0.000015827   -0.000025910    0.000004597
      5        1           0.000004717    0.000011647   -0.000007433
      6        1           0.000007584    0.000009894   -0.000001805
      7        1          -0.000005268    0.000002432   -0.000010911
      8        1           0.000016368    0.000007120    0.000010949
      9        1           0.000009646   -0.000011202   -0.000002028
     10        1           0.000016205   -0.000002357   -0.000015345
     11        1          -0.000002887   -0.000006577   -0.000011322
     12        1          -0.000001422    0.000002059   -0.000008042
     13        1           0.000003684   -0.000008444    0.000014322
 -------------------------------------------------------------------
 Cartesian Forces:  Max     0.000050303 RMS     0.000019084
 Force constants in Cartesian coordinates: 
                1             2             3             4             5 
      1  0.255844D+00
      2  0.437283D-03  0.283439D+00
      3 -0.177949D-03 -0.323928D-03  0.282895D+00
      4 -0.770191D-01  0.393466D-01  0.668736D-01  0.510707D+00
      5  0.182423D-01 -0.648877D-01 -0.330555D-01  0.305542D-01  0.511216D+00
      6  0.304516D-01 -0.324369D-01 -0.100377D+00  0.516147D-01 -0.531979D-01
      7 -0.770377D-01  0.391119D-01 -0.669032D-01  0.346226D-02 -0.472311D-02
      8  0.181359D-01 -0.645362D-01  0.329237D-01 -0.479505D-02  0.664573D-02
      9 -0.305454D-01  0.324964D-01 -0.100350D+00 -0.110382D-01  0.103324D-01
     10 -0.800398D-01 -0.785678D-01  0.183900D-03  0.368356D-02  0.117936D-01
     11 -0.365599D-01 -0.116789D+00  0.350650D-03 -0.761598D-02 -0.138956D-01
     12  0.123619D-03  0.185707D-03 -0.451255D-01 -0.101368D-01 -0.217405D-01
     13  0.291646D-02 -0.391944D-02  0.105059D-01  0.234694D-03  0.707752D-03
     14  0.713876D-02 -0.889427D-02  0.167043D-01  0.728445D-03  0.127537D-02
     15  0.168776D-03 -0.173069D-02 -0.127292D-03  0.430243D-04  0.293557D-03
     16 -0.133876D-01 -0.244670D-02  0.216714D-04  0.209013D-02  0.996926D-03
     17 -0.248729D-01 -0.626865D-02  0.109478D-04 -0.336764D-03  0.233165D-02
     18  0.456362D-04  0.432495D-04 -0.918401D-04 -0.114194D-02  0.135410D-03
     19  0.291112D-02 -0.397925D-02 -0.104613D-01 -0.152638D-02 -0.322903D-02
     20  0.712262D-02 -0.898707D-02 -0.165923D-01 -0.349383D-02 -0.597522D-02
     21 -0.152707D-03  0.181309D-02 -0.135369D-03 -0.288700D-03  0.431437D-03
     22  0.262139D-02 -0.696397D-02  0.819438D-02 -0.635036D-01  0.301180D-01
     23 -0.380028D-02  0.452485D-02 -0.946774D-02  0.300670D-01 -0.944477D-01
     24 -0.607948D-02  0.943986D-02 -0.131992D-01 -0.656205D-01  0.108632D+00
     25  0.294462D-02  0.105171D-01 -0.187220D-02 -0.671283D-01 -0.731536D-01
     26 -0.373279D-02 -0.905222D-02  0.179287D-02 -0.779558D-01 -0.296325D+00
     27 -0.671844D-02 -0.167807D-01 -0.374028D-04 -0.725200D-02 -0.165668D-01
     28 -0.127612D-01  0.145738D-02  0.214576D-02 -0.311893D+00 -0.124815D-01
     29  0.127276D-01 -0.202431D-02 -0.294106D-02 -0.676221D-02 -0.448234D-01
     30  0.216104D-01 -0.327782D-02 -0.510134D-02 -0.197580D-01  0.275201D-02
     31  0.297841D-02  0.104966D-01  0.184490D-02  0.200765D-03 -0.309985D-03
     32 -0.368094D-02 -0.895727D-02 -0.175739D-02 -0.315460D-03  0.456006D-03
     33  0.676714D-02  0.167521D-01 -0.955743D-04  0.627227D-03 -0.607676D-03
     34  0.268374D-02 -0.696983D-02 -0.818839D-02 -0.135347D-02  0.188014D-02
     35 -0.381850D-02  0.444241D-02  0.941499D-02  0.143942D-02 -0.157036D-02
     36  0.611085D-02 -0.943082D-02 -0.131792D-01 -0.305763D-02  0.298761D-02
     37 -0.126538D-01  0.148019D-02 -0.216702D-02  0.204550D-02 -0.395738D-03
     38  0.126608D-01 -0.200916D-02  0.294039D-02 -0.860615D-03  0.000000D+00
     39 -0.216040D-01  0.325054D-02 -0.507543D-02 -0.864870D-03 -0.396061D-03
                6             7             8             9            10 
      6  0.452443D+00
      7  0.110362D-01  0.510288D+00
      8 -0.104406D-01  0.301651D-01  0.511330D+00
      9 -0.205909D-01 -0.517162D-01  0.530584D-01  0.451481D+00
     10  0.142973D-02  0.377569D-02  0.118772D-01 -0.138099D-02  0.507201D+00
     11 -0.155544D-02 -0.761218D-02 -0.139027D-01  0.146473D-02 -0.621638D-01
     12 -0.291225D-03  0.102112D-01  0.218657D-01 -0.308690D-03  0.000000D+00
     13  0.288613D-04 -0.153807D-02 -0.326056D-02 -0.370789D-03 -0.632249D-01
     14 -0.960026D-04 -0.349837D-02 -0.602546D-02 -0.280739D-03  0.420229D-01
     15  0.277462D-03  0.296374D-03 -0.425256D-03  0.418446D-03 -0.585538D-01
     16  0.167974D-03  0.206936D-02  0.102570D-02 -0.177077D-03 -0.310234D+00
     17  0.957631D-03 -0.325299D-03  0.238877D-02 -0.961702D-03  0.273711D-01
     18 -0.189384D-03  0.115174D-02 -0.164273D-03 -0.172566D-03  0.826940D-04
     19  0.372709D-03  0.241970D-03  0.704753D-03 -0.409139D-04 -0.629919D-01
     20  0.302256D-03  0.733122D-03  0.128839D-02  0.850459D-04  0.422543D-01
     21  0.408719D-03 -0.490072D-04 -0.306395D-03  0.285301D-03  0.582519D-01
     22 -0.601780D-01 -0.134707D-02  0.189771D-02  0.249044D-02  0.198646D-03
     23  0.101922D+00  0.145154D-02 -0.160963D-02 -0.312103D-02 -0.389835D-03
     24 -0.246897D+00  0.304366D-02 -0.299083D-02 -0.414121D-02 -0.574184D-03
     25 -0.433301D-02  0.199418D-03 -0.311515D-03 -0.590621D-03 -0.134966D-02
     26 -0.100149D-01 -0.305622D-03  0.451334D-03  0.179093D-03  0.197477D-02
     27 -0.414385D-01 -0.621660D-03  0.576929D-03  0.109439D-02  0.274846D-02
     28 -0.296100D-01  0.203896D-02 -0.403632D-03 -0.926996D-03  0.206710D-02
     29  0.290760D-02 -0.879178D-03  0.133856D-04  0.127301D-02  0.113483D-02
     30 -0.425043D-01  0.846575D-03  0.402347D-03  0.219275D-02 -0.278442D-03
     31  0.608483D-03 -0.670117D-01 -0.728167D-01  0.449595D-02 -0.135705D-02
     32 -0.201048D-03 -0.776431D-01 -0.296160D+00  0.107858D-01  0.197875D-02
     33  0.113261D-02  0.739956D-02  0.173746D-01 -0.415092D-01 -0.277020D-02
     34 -0.249839D-02 -0.634234D-01  0.302628D-01  0.602724D-01  0.198285D-03
     35  0.309491D-02  0.302649D-01 -0.949975D-01 -0.102415D+00 -0.400727D-03
     36 -0.416568D-02  0.656790D-01 -0.109127D+00 -0.245987D+00  0.602498D-03
     37  0.909198D-03 -0.311717D+00 -0.124816D-01  0.295284D-01  0.207240D-02
     38 -0.124178D-02 -0.673963D-02 -0.448864D-01 -0.289671D-02  0.111478D-02
     39  0.219156D-02  0.196258D-01 -0.274777D-02 -0.424120D-01  0.257941D-03
               11            12            13            14            15 
     11  0.423610D+00
     12 -0.104404D-03  0.542062D+00
     13  0.372088D-01 -0.556398D-01  0.658464D-01
     14 -0.118807D+00  0.122486D+00 -0.414983D-01  0.125267D+00
     15  0.115931D+00 -0.222589D+00  0.641677D-01 -0.126678D+00  0.239756D+00
     16  0.387743D-01  0.553123D-04 -0.640311D-02  0.152569D-03  0.830864D-03
     17 -0.421027D-01  0.325042D-04  0.165091D-01 -0.244336D-02 -0.150254D-02
     18  0.279573D-04 -0.466714D-01 -0.259440D-01  0.205317D-02  0.113978D-02
     19  0.374675D-01  0.553749D-01  0.124272D-02 -0.524354D-02 -0.682122D-02
     20 -0.119294D+00 -0.122679D+00 -0.521128D-02  0.100729D-01  0.145902D-01
     21 -0.116085D+00 -0.221875D+00  0.683301D-02 -0.147027D-01 -0.194676D-01
     22 -0.352244D-03 -0.550311D-03  0.160505D-03  0.693409D-04 -0.707341D-04
     23  0.620550D-03  0.681328D-03  0.989546D-05 -0.514184D-03 -0.240622D-03
     24  0.273721D-03  0.924555D-03 -0.105537D-03 -0.603249D-03 -0.139988D-05
     25  0.126724D-02  0.286735D-02 -0.173190D-03 -0.296429D-03 -0.853142D-05
     26 -0.959400D-03 -0.262343D-02  0.448977D-04  0.285934D-03  0.870519D-04
     27 -0.275200D-02 -0.478140D-02  0.142437D-03  0.933739D-05  0.154971D-03
     28 -0.657763D-03 -0.777720D-03 -0.372389D-04  0.191857D-04  0.542382D-05
     29  0.916030D-03  0.981729D-03 -0.531508D-04 -0.107843D-03  0.994285D-05
     30  0.179512D-02  0.125880D-02 -0.136052D-03 -0.276155D-04 -0.737484D-05
     31  0.127849D-02 -0.288292D-02  0.932482D-03  0.896668D-03 -0.654992D-04
     32 -0.954326D-03  0.262848D-02 -0.542959D-03 -0.701287D-03 -0.109407D-03
     33  0.276796D-02 -0.483904D-02  0.802823D-03  0.175048D-02  0.249872D-03
     34 -0.381100D-03  0.566446D-03 -0.170749D-03 -0.136043D-03 -0.403409D-04
     35  0.635121D-03 -0.692929D-03  0.170505D-03  0.232084D-03 -0.120929D-03
     36 -0.309616D-03  0.940482D-03 -0.259531D-03 -0.398082D-04  0.207621D-03
     37 -0.653397D-03  0.788152D-03  0.213949D-03 -0.355202D-03  0.479552D-04
     38  0.922564D-03 -0.102127D-02 -0.165279D-03  0.359865D-03 -0.104377D-03
     39 -0.180379D-02  0.129484D-02 -0.249657D-04 -0.575574D-03 -0.112780D-04
               16            17            18            19            20 
     16  0.331307D+00
     17 -0.376971D-01  0.480171D-01
     18 -0.599171D-04 -0.678862D-04  0.446235D-01
     19 -0.640722D-02  0.165642D-01  0.258852D-01  0.656087D-01
     20  0.147974D-03 -0.246064D-02 -0.204256D-02 -0.417550D-01  0.125796D+00
     21 -0.831601D-03  0.151284D-02  0.114918D-02 -0.639029D-01  0.126856D+00
     22 -0.416975D-04  0.139968D-03 -0.262165D-04 -0.166942D-03 -0.129863D-03
     23 -0.127264D-04 -0.422387D-04 -0.253606D-04  0.169003D-03  0.225706D-03
     24 -0.159283D-04 -0.611986D-04 -0.745665D-04  0.253108D-03  0.312288D-04
     25  0.222871D-03  0.736025D-04  0.150369D-03  0.925052D-03  0.892070D-03
     26  0.219000D-03  0.359685D-03  0.854624D-04 -0.543113D-03 -0.704142D-03
     27  0.290913D-03  0.547193D-03 -0.349372D-04 -0.792643D-03 -0.173536D-02
     28  0.292345D-03  0.116204D-02  0.900103D-04  0.213440D-03 -0.351288D-03
     29 -0.691016D-03 -0.539274D-04 -0.137931D-03 -0.158222D-03  0.357160D-03
     30 -0.984564D-03 -0.281249D-03  0.218652D-03  0.257760D-04  0.565784D-03
     31  0.227502D-03  0.737651D-04 -0.154327D-03 -0.175109D-03 -0.297428D-03
     32  0.222390D-03  0.364921D-03 -0.891720D-04  0.445805D-04  0.289869D-03
     33 -0.293802D-03 -0.558022D-03 -0.308892D-04 -0.143820D-03 -0.125798D-04
     34 -0.374723D-04  0.149545D-03  0.265314D-04  0.164801D-03  0.637012D-04
     35 -0.169920D-04 -0.503679D-04  0.287990D-04  0.105512D-04 -0.498261D-03
     36  0.205067D-04  0.720707D-04 -0.733602D-04  0.108068D-03  0.597630D-03
     37  0.301129D-03  0.118870D-02 -0.105757D-03 -0.402325D-04  0.248704D-04
     38 -0.674331D-03 -0.402438D-04  0.153136D-03 -0.524662D-04 -0.111043D-03
     39  0.975649D-03  0.299407D-03  0.207856D-03  0.143137D-03  0.332284D-04
               21            22            23            24            25 
     21  0.239058D+00
     22  0.395201D-04  0.660561D-01
     23  0.123178D-03 -0.352580D-01  0.102635D+00
     24  0.205292D-03  0.680416D-01 -0.113745D+00  0.262399D+00
     25  0.650283D-04  0.150718D-02  0.858962D-02  0.108122D-02  0.701151D-01
     26  0.109441D-03 -0.365345D-02 -0.121892D-01 -0.180921D-02  0.830774D-01
     27  0.252347D-03  0.869209D-02  0.271455D-01  0.249591D-02  0.383850D-02
     28 -0.441438D-04 -0.644577D-02 -0.656679D-03  0.359072D-03 -0.721089D-02
     29  0.100963D-03  0.143028D-01  0.135227D-03  0.134972D-03 -0.305757D-01
     30 -0.145966D-04 -0.273158D-01 -0.248058D-02 -0.137929D-02 -0.123323D-02
     31  0.113706D-04 -0.164684D-03  0.110627D-03  0.102854D-03  0.155383D-03
     32 -0.923546D-04  0.148144D-03  0.138431D-03  0.604529D-05 -0.955986D-04
     33  0.154336D-03 -0.269727D-03 -0.623079D-04  0.293035D-03  0.265734D-04
     34  0.740811D-04  0.904987D-03 -0.410158D-03 -0.809561D-03 -0.162671D-03
     35  0.246336D-03 -0.406140D-03  0.740163D-03  0.939668D-03  0.106825D-03
     36 -0.102630D-04  0.812381D-03 -0.949873D-03 -0.116891D-02 -0.997131D-04
     37 -0.576266D-05  0.220913D-03  0.129942D-03  0.323684D-03 -0.448997D-04
     38 -0.659142D-05  0.876222D-04 -0.217087D-03 -0.247785D-03 -0.910723D-04
     39 -0.996336D-05  0.140310D-03  0.220669D-03  0.543134D-03  0.108268D-03
               26            27            28            29            30 
     26  0.316982D+00
     27  0.123277D-01  0.441183D-01
     28  0.828186D-03 -0.551265D-03  0.333279D+00
     29  0.799355D-03 -0.301128D-02  0.114687D-01  0.446677D-01
     30  0.102875D-03 -0.127611D-02  0.285413D-01  0.514746D-03  0.463380D-01
     31 -0.924139D-04 -0.251509D-04 -0.392276D-04 -0.916756D-04 -0.111808D-03
     32  0.240162D-03  0.187775D-03 -0.618422D-05 -0.223249D-04  0.606357D-04
     33 -0.170008D-03 -0.751795D-03  0.221852D-04  0.179806D-04 -0.919234D-04
     34  0.144596D-03  0.267465D-03  0.224906D-03  0.860372D-04 -0.137794D-03
     35  0.137654D-03  0.708275D-04  0.128316D-03 -0.216872D-03 -0.219201D-03
     36 -0.104363D-04  0.290279D-03 -0.325316D-03  0.251009D-03  0.547447D-03
     37 -0.575224D-05 -0.187068D-04  0.270912D-03 -0.508914D-03 -0.106842D-02
     38 -0.263241D-04 -0.191061D-04 -0.506803D-03  0.359844D-03  0.929515D-04
     39 -0.565590D-04 -0.859607D-04  0.107172D-02 -0.101684D-03 -0.180725D-03
               31            32            33            34            35 
     31  0.699243D-01
     32  0.827425D-01  0.316781D+00
     33 -0.406688D-02 -0.131501D-01  0.441950D-01
     34  0.151762D-02 -0.368071D-02 -0.864623D-02  0.659318D-01
     35  0.859725D-02 -0.122488D-01 -0.270916D-01 -0.354083D-01  0.103252D+00
     36 -0.109409D-02  0.184599D-02  0.257741D-02 -0.681339D-01  0.114242D+00
     37 -0.718866D-02  0.828612D-03  0.545138D-03 -0.647841D-02 -0.667095D-03
     38 -0.305877D-01  0.773791D-03  0.298925D-02  0.143994D-01  0.142605D-03
     39  0.133712D-02 -0.115187D-03 -0.128390D-02  0.272477D-01  0.250180D-02
               36            37            38            39 
     36  0.261412D+00
     37 -0.363127D-03  0.332999D+00
     38 -0.129084D-03  0.114154D-01  0.447318D-01
     39 -0.138995D-02 -0.284138D-01 -0.509019D-03  0.462118D-01
 FormGI is forming the generalized inverse of G from B-inverse, IUseBI=4.
 Leave Link  716 at Wed Oct  5 10:00:51 2022, MaxMem=  2952790016 cpu:               0.4 elap:               0.1
 (Enter /mnt/data/applications/G16/g16/l103.exe)

 GradGradGradGradGradGradGradGradGradGradGradGradGradGradGradGradGradGrad
 Berny optimization.
 Red2BG is reusing G-inverse.
 Internal  Forces:  Max     0.000052298 RMS     0.000013344
 Search for a local minimum.
 Step number   1 out of a maximum of    2
 All quantities printed in internal units (Hartrees-Bohrs-Radians)
 Second derivative matrix not updated -- analytic derivatives used.
 ITU=  0
     Eigenvalues ---    0.00224   0.00346   0.00350   0.04939   0.04963
     Eigenvalues ---    0.05091   0.05097   0.05266   0.05273   0.06433
     Eigenvalues ---    0.08891   0.08936   0.10734   0.10758   0.11064
     Eigenvalues ---    0.11096   0.11796   0.11816   0.13714   0.16052
     Eigenvalues ---    0.16066   0.21526   0.21551   0.22419   0.33623
     Eigenvalues ---    0.33636   0.33720   0.34125   0.34222   0.34240
     Eigenvalues ---    0.34585   0.34594   0.34619
 Angle between quadratic step and forces=  69.81 degrees.
 Linear search not attempted -- first point.
 Iteration  1 RMS(Cart)=  0.00051991 RMS(Int)=  0.00000016
 Iteration  2 RMS(Cart)=  0.00000018 RMS(Int)=  0.00000001
 ITry= 1 IFail=0 DXMaxC= 1.10D-03 DCOld= 1.00D+10 DXMaxT= 5.00D-02 DXLimC= 3.00D+00 Rises=F
 Variable       Old X    -DE/DX   Delta X   Delta X   Delta X     New X
                                 (Linear)    (Quad)   (Total)
    R1        3.47281  -0.00002   0.00000  -0.00006  -0.00006   3.47275
    R2        3.47289  -0.00005   0.00000  -0.00025  -0.00025   3.47264
    R3        3.47275   0.00001   0.00000   0.00007   0.00007   3.47282
    R4        2.06354  -0.00001   0.00000  -0.00002  -0.00002   2.06353
    R5        2.06352   0.00001   0.00000   0.00001   0.00001   2.06353
    R6        2.06627   0.00001   0.00000   0.00005   0.00005   2.06633
    R7        2.06354   0.00001   0.00000   0.00004   0.00004   2.06358
    R8        2.06354  -0.00001   0.00000  -0.00002  -0.00002   2.06352
    R9        2.06627   0.00000   0.00000   0.00000   0.00000   2.06627
   R10        2.06353   0.00001   0.00000   0.00004   0.00004   2.06357
   R11        2.06625   0.00001   0.00000   0.00002   0.00002   2.06627
   R12        2.06353  -0.00001   0.00000  -0.00001  -0.00001   2.06352
    A1        1.74155  -0.00001   0.00000  -0.00010  -0.00010   1.74145
    A2        1.74170  -0.00002   0.00000  -0.00025  -0.00025   1.74146
    A3        1.74161  -0.00001   0.00000  -0.00006  -0.00006   1.74156
    A4        1.91253  -0.00001   0.00000  -0.00009  -0.00009   1.91244
    A5        1.91222   0.00002   0.00000   0.00027   0.00027   1.91249
    A6        1.96050   0.00002   0.00000   0.00007   0.00007   1.96057
    A7        1.87917   0.00001   0.00000   0.00009   0.00009   1.87925
    A8        1.89885  -0.00002   0.00000  -0.00025  -0.00025   1.89860
    A9        1.89875  -0.00001   0.00000  -0.00008  -0.00008   1.89866
   A10        1.91249  -0.00002   0.00000  -0.00019  -0.00019   1.91230
   A11        1.91260  -0.00001   0.00000   0.00003   0.00003   1.91262
   A12        1.96037   0.00003   0.00000   0.00025   0.00025   1.96062
   A13        1.87916   0.00001   0.00000   0.00000   0.00000   1.87916
   A14        1.89868  -0.00001   0.00000  -0.00009  -0.00009   1.89859
   A15        1.89871  -0.00000   0.00000  -0.00000  -0.00000   1.89871
   A16        1.91228   0.00001   0.00000   0.00010   0.00010   1.91238
   A17        1.96061   0.00001   0.00000   0.00007   0.00007   1.96068
   A18        1.91239  -0.00000   0.00000   0.00002   0.00002   1.91241
   A19        1.89875  -0.00001   0.00000  -0.00008  -0.00008   1.89867
   A20        1.87924  -0.00001   0.00000  -0.00012  -0.00012   1.87912
   A21        1.89874  -0.00000   0.00000   0.00000   0.00000   1.89874
    D1       -3.00104   0.00002   0.00000   0.00080   0.00080  -3.00024
    D2        1.22403   0.00001   0.00000   0.00059   0.00059   1.22462
    D3       -0.88833   0.00000   0.00000   0.00047   0.00047  -0.88787
    D4       -1.22398   0.00000   0.00000   0.00066   0.00066  -1.22331
    D5        3.00109  -0.00001   0.00000   0.00046   0.00046   3.00155
    D6        0.88873  -0.00001   0.00000   0.00033   0.00033   0.88906
    D7       -1.22342  -0.00001   0.00000   0.00047   0.00047  -1.22295
    D8        3.00146  -0.00000   0.00000   0.00056   0.00056   3.00203
    D9        0.88896  -0.00001   0.00000   0.00039   0.00039   0.88935
   D10       -3.00055   0.00001   0.00000   0.00075   0.00075  -2.99980
   D11        1.22433   0.00002   0.00000   0.00085   0.00085   1.22518
   D12       -0.88817   0.00001   0.00000   0.00067   0.00067  -0.88750
   D13        1.22445   0.00001   0.00000  -0.00076  -0.00076   1.22369
   D14       -0.88804   0.00001   0.00000  -0.00076  -0.00076  -0.88881
   D15       -3.00059   0.00000   0.00000  -0.00083  -0.00083  -3.00142
   D16        3.00145  -0.00001   0.00000  -0.00092  -0.00092   3.00053
   D17        0.88896  -0.00001   0.00000  -0.00093  -0.00093   0.88803
   D18       -1.22358  -0.00001   0.00000  -0.00099  -0.00099  -1.22457
         Item               Value     Threshold  Converged?
 Maximum Force            0.000052     0.000450     YES
 RMS     Force            0.000013     0.000300     YES
 Maximum Displacement     0.001095     0.001800     YES
 RMS     Displacement     0.000520     0.001200     YES
 Predicted change in Energy=-5.036734D-08
 Optimization completed.
    -- Stationary point found.
                           ----------------------------
                           !   Optimized Parameters   !
                           ! (Angstroms and Degrees)  !
 --------------------------                            --------------------------
 ! Name  Definition              Value          Derivative Info.                !
 --------------------------------------------------------------------------------
 ! R1    R(1,2)                  1.8377         -DE/DX =    0.0                 !
 ! R2    R(1,3)                  1.8378         -DE/DX =   -0.0001              !
 ! R3    R(1,4)                  1.8377         -DE/DX =    0.0                 !
 ! R4    R(2,8)                  1.092          -DE/DX =    0.0                 !
 ! R5    R(2,9)                  1.092          -DE/DX =    0.0                 !
 ! R6    R(2,10)                 1.0934         -DE/DX =    0.0                 !
 ! R7    R(3,11)                 1.092          -DE/DX =    0.0                 !
 ! R8    R(3,12)                 1.092          -DE/DX =    0.0                 !
 ! R9    R(3,13)                 1.0934         -DE/DX =    0.0                 !
 ! R10   R(4,5)                  1.092          -DE/DX =    0.0                 !
 ! R11   R(4,6)                  1.0934         -DE/DX =    0.0                 !
 ! R12   R(4,7)                  1.092          -DE/DX =    0.0                 !
 ! A1    A(2,1,3)               99.7832         -DE/DX =    0.0                 !
 ! A2    A(2,1,4)               99.7923         -DE/DX =    0.0                 !
 ! A3    A(3,1,4)               99.7871         -DE/DX =    0.0                 !
 ! A4    A(1,2,8)              109.5798         -DE/DX =    0.0                 !
 ! A5    A(1,2,9)              109.5621         -DE/DX =    0.0                 !
 ! A6    A(1,2,10)             112.3282         -DE/DX =    0.0                 !
 ! A7    A(8,2,9)              107.6684         -DE/DX =    0.0                 !
 ! A8    A(8,2,10)             108.796          -DE/DX =    0.0                 !
 ! A9    A(9,2,10)             108.7901         -DE/DX =    0.0                 !
 ! A10   A(1,3,11)             109.5776         -DE/DX =    0.0                 !
 ! A11   A(1,3,12)             109.5838         -DE/DX =    0.0                 !
 ! A12   A(1,3,13)             112.3211         -DE/DX =    0.0                 !
 ! A13   A(11,3,12)            107.6681         -DE/DX =    0.0                 !
 ! A14   A(11,3,13)            108.7861         -DE/DX =    0.0                 !
 ! A15   A(12,3,13)            108.7881         -DE/DX =    0.0                 !
 ! A16   A(1,4,5)              109.5659         -DE/DX =    0.0                 !
 ! A17   A(1,4,6)              112.3344         -DE/DX =    0.0                 !
 ! A18   A(1,4,7)              109.5716         -DE/DX =    0.0                 !
 ! A19   A(5,4,6)              108.7905         -DE/DX =    0.0                 !
 ! A20   A(5,4,7)              107.6723         -DE/DX =    0.0                 !
 ! A21   A(6,4,7)              108.7899         -DE/DX =    0.0                 !
 ! D1    D(3,1,2,8)           -171.9469         -DE/DX =    0.0                 !
 ! D2    D(3,1,2,9)             70.1318         -DE/DX =    0.0                 !
 ! D3    D(3,1,2,10)           -50.8976         -DE/DX =    0.0                 !
 ! D4    D(4,1,2,8)            -70.1288         -DE/DX =    0.0                 !
 ! D5    D(4,1,2,9)            171.95           -DE/DX =    0.0                 !
 ! D6    D(4,1,2,10)            50.9205         -DE/DX =    0.0                 !
 ! D7    D(2,1,3,11)           -70.0966         -DE/DX =    0.0                 !
 ! D8    D(2,1,3,12)           171.9711         -DE/DX =    0.0                 !
 ! D9    D(2,1,3,13)            50.9338         -DE/DX =    0.0                 !
 ! D10   D(4,1,3,11)          -171.919          -DE/DX =    0.0                 !
 ! D11   D(4,1,3,12)            70.1487         -DE/DX =    0.0                 !
 ! D12   D(4,1,3,13)           -50.8886         -DE/DX =    0.0                 !
 ! D13   D(2,1,4,5)             70.1556         -DE/DX =    0.0                 !
 ! D14   D(2,1,4,6)            -50.8812         -DE/DX =    0.0                 !
 ! D15   D(2,1,4,7)           -171.9211         -DE/DX =    0.0                 !
 ! D16   D(3,1,4,5)            171.9705         -DE/DX =    0.0                 !
 ! D17   D(3,1,4,6)             50.9338         -DE/DX =    0.0                 !
 ! D18   D(3,1,4,7)            -70.1062         -DE/DX =    0.0                 !
 --------------------------------------------------------------------------------
 GradGradGradGradGradGradGradGradGradGradGradGradGradGradGradGradGradGrad

 Leave Link  103 at Wed Oct  5 10:00:51 2022, MaxMem=  2952790016 cpu:               0.2 elap:               0.0
 (Enter /mnt/data/applications/G16/g16/l9999.exe)

 ----------------------------------------------------------------------

 Electric dipole moment (input orientation):
 (Debye = 10**-18 statcoulomb cm , SI units = C m)
                  (au)            (Debye)         (10**-30 SI)
   Tot        0.626649D+00      0.159278D+01      0.531295D+01
   x          0.626550D+00      0.159253D+01      0.531211D+01
   y         -0.111528D-01     -0.283476D-01     -0.945575D-01
   z         -0.221707D-03     -0.563524D-03     -0.187971D-02

 Dipole polarizability, Alpha (input orientation).
 (esu units = cm**3 , SI units = C**2 m**2 J**-1)
 Alpha(0;0):
               (au)            (10**-24 esu)      (10**-40 SI)
   iso        0.740214D+02      0.109688D+02      0.122045D+02
   aniso      0.966478D+01      0.143217D+01      0.159351D+01
   xx         0.675813D+02      0.100145D+02      0.111426D+02
   yx         0.172560D+00      0.255707D-01      0.284512D-01
   yy         0.772461D+02      0.114467D+02      0.127362D+02
   zx        -0.131033D-01     -0.194171D-02     -0.216045D-02
   zy         0.670194D-02      0.993126D-03      0.110500D-02
   zz         0.772367D+02      0.114453D+02      0.127346D+02

 ----------------------------------------------------------------------

 Dipole orientation:
    15         -0.00546842         -0.26215816          2.90880612
     6          2.61916640         -1.84656040          4.54017707
     6         -2.69207495         -1.74267730          4.53704578
     6          0.05337660          2.80526159          4.53591778
     1          1.74005263          3.85312239          3.97442419
     1          0.04902274          2.60350021          6.59228953
     1         -1.59123388          3.91762269          3.97372315
     1          4.40589097         -0.97947756          3.97983422
     1          2.68339536         -3.83151143          3.97985558
     1          2.44373867         -1.74074520          6.59626708
     1         -2.83295899         -3.72399860          3.97783446
     1         -4.44299793         -0.80700037          3.97405881
     1         -2.51545355         -1.64257645          6.59331746

 Electric dipole moment (dipole orientation):
 (Debye = 10**-18 statcoulomb cm , SI units = C m)
                  (au)            (Debye)         (10**-30 SI)
   Tot        0.626649D+00      0.159278D+01      0.531295D+01
   x          0.000000D+00      0.000000D+00      0.000000D+00
   y          0.000000D+00      0.000000D+00      0.000000D+00
   z          0.626649D+00      0.159278D+01      0.531295D+01

 Dipole polarizability, Alpha (dipole orientation).
 (esu units = cm**3 , SI units = C**2 m**2 J**-1)
 Alpha(0;0):
               (au)            (10**-24 esu)      (10**-40 SI)
   iso        0.740214D+02      0.109688D+02      0.122045D+02
   aniso      0.966478D+01      0.143217D+01      0.159351D+01
   xx         0.772365D+02      0.114453D+02      0.127346D+02
   yx        -0.624204D-02     -0.924974D-03     -0.102917D-02
   yy         0.772494D+02      0.114472D+02      0.127367D+02
   zx         0.166433D-01      0.246629D-02      0.274412D-02
   zy         0.169332D-03      0.250924D-04      0.279190D-04
   zz         0.675782D+02      0.100141D+02      0.111421D+02

 ----------------------------------------------------------------------
 1\1\GINC-KIMIK2160\Freq\RwB97XD\def2TZVP\C3H9P1\DGARAY\05-Oct-2022\0\\
 #P Geom=AllCheck Guess=TCheck SCRF=Check GenChk RwB97XD/def2TZVP Freq\
 \trimethylphosphine\\0,1\P,1.5365606152,-0.1661309806,-0.0001203079\C,
 2.3847319499,-0.9949354229,-1.4040245874\C,2.3841575778,-0.9899821308,
 1.4070969157\C,2.4263482215,1.4417933953,-0.0026703127\H,2.1391034628,
 2.0172982413,-0.8851054689\H,3.5124603748,1.3156516633,-0.0026519165\H
 ,2.1394052456,2.0200457404,0.8780637063\H,2.0963911797,-0.5141322317,-
 2.3410975508\H,2.0695702826,-2.0391112722,-1.4565971791\H,3.4735957247
 ,-0.959975055,-1.3105953128\H,2.0696214913,-2.034180412,1.463082227\H,
 2.0951331136,-0.5061913829,2.3424163038\H,3.4730567606,-0.9547301524,1
 .3142054832\\Version=AM64L-G16RevA.03\State=1-A\HF=-461.1202462\RMSD=1
 .149e-09\RMSF=1.908e-05\ZeroPoint=0.1132368\Thermal=0.1197947\Dipole=0
 .6265498,-0.0111528,-0.0002217\DipoleDeriv=0.4945473,0.0021022,0.00104
 19,0.0035605,0.6288633,0.0001579,0.0014835,0.0001545,0.6317692,-0.1277
 027,0.1290135,0.224044,0.0052207,-0.1925652,-0.0423071,0.0107883,-0.03
 8489,-0.2348619,-0.1274015,0.1280478,-0.2259657,0.0059918,-0.1946477,0
 .0435576,-0.0129433,0.036053,-0.2342458,-0.1340441,-0.2616017,0.000616
 6,-0.0168314,-0.2518407,-0.0006969,0.0004833,0.0023053,-0.1722108,0.07
 37981,-0.0029636,-0.0339269,0.0155203,-0.000374,0.0919624,-0.0337354,0
 .1087476,-0.0310552,-0.1829257,-0.0748446,0.0006559,0.0028404,-0.02321
 43,0.0003596,-0.0004214,-0.0000993,0.0965404,0.0731847,-0.0028676,0.03
 38225,0.0159065,-0.0011388,-0.0924686,0.0336236,-0.110393,-0.0327367,0
 .0736259,0.0320209,-0.015996,0.0222811,0.060725,0.073043,-0.0318478,0.
 0550188,-0.0956927,0.0716087,-0.0336801,0.0185974,-0.0427651,-0.110127
 2,-0.0451053,0.0026603,-0.0262876,0.0778115,-0.1798857,0.043044,0.0658
 092,0.0046952,0.0658419,-0.0536797,-0.0005213,-0.0524034,0.0065501,0.0
 724503,-0.0329732,-0.0181519,-0.0424256,-0.1083986,0.0457708,-0.002141
 9,0.0292678,0.0780381,0.0736337,0.0315285,0.0155133,0.0222354,0.061035
 9,-0.0737745,0.0316768,-0.0562423,-0.0954788,-0.1808889,0.0431738,-0.0
 660604,0.0037703,0.0658404,0.0531808,0.0008953,0.0523675,0.0055727\Pol
 ar=67.5812765,0.1725597,77.2460795,-0.0131033,0.0067019,77.2367109\Qua
 drupole=-2.528109,1.2635199,1.2645891,0.0657802,-0.0004051,-0.0001091\
 PG=C01 [X(C3H9P1)]\NImag=0\\0.25584358,0.00043728,0.28343911,-0.000177
 95,-0.00032393,0.28289519,-0.07701910,0.03934656,0.06687365,0.51070656
 ,0.01824231,-0.06488775,-0.03305551,0.03055422,0.51121599,0.03045158,-
 0.03243691,-0.10037686,0.05161471,-0.05319789,0.45244318,-0.07703775,0
 .03911192,-0.06690321,0.00346226,-0.00472311,0.01103617,0.51028769,0.0
 1813589,-0.06453624,0.03292373,-0.00479505,0.00664573,-0.01044059,0.03
 016506,0.51133008,-0.03054543,0.03249638,-0.10035017,-0.01103823,0.010
 33242,-0.02059090,-0.05171622,0.05305839,0.45148129,-0.08003977,-0.078
 56785,0.00018390,0.00368356,0.01179355,0.00142973,0.00377569,0.0118772
 0,-0.00138099,0.50720121,-0.03655987,-0.11678945,0.00035065,-0.0076159
 8,-0.01389559,-0.00155544,-0.00761218,-0.01390266,0.00146473,-0.062163
 80,0.42361022,0.00012362,0.00018571,-0.04512548,-0.01013677,-0.0217405
 3,-0.00029123,0.01021123,0.02186575,-0.00030869,0.00000057,-0.00010440
 ,0.54206239,0.00291646,-0.00391944,0.01050585,0.00023469,0.00070775,0.
 00002886,-0.00153807,-0.00326056,-0.00037079,-0.06322488,0.03720878,-0
 .05563984,0.06584644,0.00713876,-0.00889427,0.01670430,0.00072844,0.00
 127537,-0.00009600,-0.00349837,-0.00602546,-0.00028074,0.04202291,-0.1
 1880687,0.12248586,-0.04149829,0.12526719,0.00016878,-0.00173069,-0.00
 012729,0.00004302,0.00029356,0.00027746,0.00029637,-0.00042526,0.00041
 845,-0.05855384,0.11593061,-0.22258888,0.06416774,-0.12667750,0.239755
 72,-0.01338763,-0.00244670,0.00002167,0.00209013,0.00099693,0.00016797
 ,0.00206936,0.00102570,-0.00017708,-0.31023359,0.03877430,0.00005531,-
 0.00640311,0.00015257,0.00083086,0.33130739,-0.02487288,-0.00626865,0.
 00001095,-0.00033676,0.00233165,0.00095763,-0.00032530,0.00238877,-0.0
 0096170,0.02737109,-0.04210269,0.00003250,0.01650915,-0.00244336,-0.00
 150254,-0.03769709,0.04801710,0.00004564,0.00004325,-0.00009184,-0.001
 14194,0.00013541,-0.00018938,0.00115174,-0.00016427,-0.00017257,0.0000
 8269,0.00002796,-0.04667145,-0.02594401,0.00205317,0.00113978,-0.00005
 992,-0.00006789,0.04462352,0.00291112,-0.00397925,-0.01046133,-0.00152
 638,-0.00322903,0.00037271,0.00024197,0.00070475,-0.00004091,-0.062991
 94,0.03746754,0.05537489,0.00124272,-0.00524354,-0.00682122,-0.0064072
 2,0.01656418,0.02588518,0.06560872,0.00712262,-0.00898707,-0.01659226,
 -0.00349383,-0.00597522,0.00030226,0.00073312,0.00128839,0.00008505,0.
 04225433,-0.11929350,-0.12267878,-0.00521128,0.01007285,0.01459016,0.0
 0014797,-0.00246064,-0.00204256,-0.04175499,0.12579591,-0.00015271,0.0
 0181309,-0.00013537,-0.00028870,0.00043144,0.00040872,-0.00004901,-0.0
 0030639,0.00028530,0.05825186,-0.11608548,-0.22187490,0.00683301,-0.01
 470266,-0.01946764,-0.00083160,0.00151284,0.00114918,-0.06390294,0.126
 85620,0.23905756,0.00262139,-0.00696397,0.00819438,-0.06350355,0.03011
 800,-0.06017796,-0.00134707,0.00189771,0.00249044,0.00019865,-0.000352
 24,-0.00055031,0.00016050,0.00006934,-0.00007073,-0.00004170,0.0001399
 7,-0.00002622,-0.00016694,-0.00012986,0.00003952,0.06605609,-0.0038002
 8,0.00452485,-0.00946774,0.03006701,-0.09444769,0.10192213,0.00145154,
 -0.00160963,-0.00312103,-0.00038983,0.00062055,0.00068133,0.00000990,-
 0.00051418,-0.00024062,-0.00001273,-0.00004224,-0.00002536,0.00016900,
 0.00022571,0.00012318,-0.03525795,0.10263512,-0.00607948,0.00943986,-0
 .01319922,-0.06562049,0.10863203,-0.24689664,0.00304366,-0.00299083,-0
 .00414121,-0.00057418,0.00027372,0.00092455,-0.00010554,-0.00060325,-0
 .00000140,-0.00001593,-0.00006120,-0.00007457,0.00025311,0.00003123,0.
 00020529,0.06804159,-0.11374524,0.26239931,0.00294462,0.01051707,-0.00
 187220,-0.06712830,-0.07315357,-0.00433301,0.00019942,-0.00031152,-0.0
 0059062,-0.00134966,0.00126724,0.00286735,-0.00017319,-0.00029643,-0.0
 0000853,0.00022287,0.00007360,0.00015037,0.00092505,0.00089207,0.00006
 503,0.00150718,0.00858962,0.00108122,0.07011508,-0.00373279,-0.0090522
 2,0.00179287,-0.07795575,-0.29632458,-0.01001487,-0.00030562,0.0004513
 3,0.00017909,0.00197477,-0.00095940,-0.00262343,0.00004490,0.00028593,
 0.00008705,0.00021900,0.00035969,0.00008546,-0.00054311,-0.00070414,0.
 00010944,-0.00365345,-0.01218922,-0.00180921,0.08307744,0.31698175,-0.
 00671844,-0.01678071,-0.00003740,-0.00725200,-0.01656679,-0.04143855,-
 0.00062166,0.00057693,0.00109439,0.00274846,-0.00275200,-0.00478140,0.
 00014244,0.00000934,0.00015497,0.00029091,0.00054719,-0.00003494,-0.00
 079264,-0.00173536,0.00025235,0.00869209,0.02714545,0.00249591,0.00383
 850,0.01232773,0.04411826,-0.01276123,0.00145738,0.00214576,-0.3118926
 7,-0.01248147,-0.02961005,0.00203896,-0.00040363,-0.00092700,0.0020671
 0,-0.00065776,-0.00077772,-0.00003724,0.00001919,0.00000542,0.00029234
 ,0.00116204,0.00009001,0.00021344,-0.00035129,-0.00004414,-0.00644577,
 -0.00065668,0.00035907,-0.00721089,0.00082819,-0.00055127,0.33327937,0
 .01272762,-0.00202431,-0.00294106,-0.00676221,-0.04482338,0.00290760,-
 0.00087918,0.00001339,0.00127301,0.00113483,0.00091603,0.00098173,-0.0
 0005315,-0.00010784,0.00000994,-0.00069102,-0.00005393,-0.00013793,-0.
 00015822,0.00035716,0.00010096,0.01430284,0.00013523,0.00013497,-0.030
 57568,0.00079936,-0.00301128,0.01146872,0.04466765,0.02161038,-0.00327
 782,-0.00510134,-0.01975798,0.00275201,-0.04250430,0.00084658,0.000402
 35,0.00219275,-0.00027844,0.00179512,0.00125880,-0.00013605,-0.0000276
 2,-0.00000737,-0.00098456,-0.00028125,0.00021865,0.00002578,0.00056578
 ,-0.00001460,-0.02731576,-0.00248058,-0.00137929,-0.00123323,0.0001028
 7,-0.00127611,0.02854132,0.00051475,0.04633802,0.00297841,0.01049663,0
 .00184490,0.00020076,-0.00030999,0.00060848,-0.06701173,-0.07281673,0.
 00449595,-0.00135705,0.00127849,-0.00288292,0.00093248,0.00089667,-0.0
 0006550,0.00022750,0.00007377,-0.00015433,-0.00017511,-0.00029743,0.00
 001137,-0.00016468,0.00011063,0.00010285,0.00015538,-0.00009241,-0.000
 02515,-0.00003923,-0.00009168,-0.00011181,0.06992430,-0.00368094,-0.00
 895727,-0.00175739,-0.00031546,0.00045601,-0.00020105,-0.07764315,-0.2
 9615980,0.01078577,0.00197875,-0.00095433,0.00262848,-0.00054296,-0.00
 070129,-0.00010941,0.00022239,0.00036492,-0.00008917,0.00004458,0.0002
 8987,-0.00009235,0.00014814,0.00013843,0.00000605,-0.00009560,0.000240
 16,0.00018778,-0.00000618,-0.00002232,0.00006064,0.08274253,0.31678066
 ,0.00676714,0.01675205,-0.00009557,0.00062723,-0.00060768,0.00113261,0
 .00739956,0.01737461,-0.04150919,-0.00277020,0.00276796,-0.00483904,0.
 00080282,0.00175048,0.00024987,-0.00029380,-0.00055802,-0.00003089,-0.
 00014382,-0.00001258,0.00015434,-0.00026973,-0.00006231,0.00029304,0.0
 0002657,-0.00017001,-0.00075179,0.00002219,0.00001798,-0.00009192,-0.0
 0406688,-0.01315014,0.04419504,0.00268374,-0.00696983,-0.00818839,-0.0
 0135347,0.00188014,-0.00249839,-0.06342338,0.03026279,0.06027244,0.000
 19828,-0.00038110,0.00056645,-0.00017075,-0.00013604,-0.00004034,-0.00
 003747,0.00014954,0.00002653,0.00016480,0.00006370,0.00007408,0.000904
 99,-0.00041016,-0.00080956,-0.00016267,0.00014460,0.00026746,0.0002249
 1,0.00008604,-0.00013779,0.00151762,-0.00368071,-0.00864623,0.06593182
 ,-0.00381850,0.00444241,0.00941499,0.00143942,-0.00157036,0.00309491,0
 .03026490,-0.09499747,-0.10241464,-0.00040073,0.00063512,-0.00069293,0
 .00017051,0.00023208,-0.00012093,-0.00001699,-0.00005037,0.00002880,0.
 00001055,-0.00049826,0.00024634,-0.00040614,0.00074016,0.00093967,0.00
 010682,0.00013765,0.00007083,0.00012832,-0.00021687,-0.00021920,0.0085
 9725,-0.01224884,-0.02709160,-0.03540832,0.10325214,0.00611085,-0.0094
 3082,-0.01317921,-0.00305763,0.00298761,-0.00416568,0.06567902,-0.1091
 2664,-0.24598740,0.00060250,-0.00030962,0.00094048,-0.00025953,-0.0000
 3981,0.00020762,0.00002051,0.00007207,-0.00007336,0.00010807,0.0005976
 3,-0.00001026,0.00081238,-0.00094987,-0.00116891,-0.00009971,-0.000010
 44,0.00029028,-0.00032532,0.00025101,0.00054745,-0.00109409,0.00184599
 ,0.00257741,-0.06813393,0.11424197,0.26141153,-0.01265382,0.00148019,-
 0.00216702,0.00204550,-0.00039574,0.00090920,-0.31171735,-0.01248160,0
 .02952844,0.00207240,-0.00065340,0.00078815,0.00021395,-0.00035520,0.0
 0004796,0.00030113,0.00118870,-0.00010576,-0.00004023,0.00002487,-0.00
 000576,0.00022091,0.00012994,0.00032368,-0.00004490,-0.00000575,-0.000
 01871,0.00027091,-0.00050891,-0.00106842,-0.00718866,0.00082861,0.0005
 4514,-0.00647841,-0.00066710,-0.00036313,0.33299857,0.01266078,-0.0020
 0916,0.00294039,-0.00086062,-0.00000018,-0.00124178,-0.00673963,-0.044
 88644,-0.00289671,0.00111478,0.00092256,-0.00102127,-0.00016528,0.0003
 5986,-0.00010438,-0.00067433,-0.00004024,0.00015314,-0.00005247,-0.000
 11104,-0.00000659,0.00008762,-0.00021709,-0.00024778,-0.00009107,-0.00
 002632,-0.00001911,-0.00050680,0.00035984,0.00009295,-0.03058772,0.000
 77379,0.00298925,0.01439936,0.00014261,-0.00012908,0.01141538,0.044731
 81,-0.02160398,0.00325054,-0.00507543,-0.00086487,-0.00039606,0.002191
 56,0.01962578,-0.00274777,-0.04241204,0.00025794,-0.00180379,0.0012948
 4,-0.00002497,-0.00057557,-0.00001128,0.00097565,0.00029941,0.00020786
 ,0.00014314,0.00003323,-0.00000996,0.00014031,0.00022067,0.00054313,0.
 00010827,-0.00005656,-0.00008596,0.00107172,-0.00010168,-0.00018072,0.
 00133712,-0.00011519,-0.00128390,0.02724767,0.00250180,-0.00138995,-0.
 02841377,-0.00050902,0.04621185\\0.00003819,0.00003641,-0.00003980,0.0
 0003214,-0.00000744,-0.00003186,-0.00000588,-0.00005030,0.00004465,-0.
 00001583,0.00002591,-0.00000460,-0.00000472,-0.00001165,0.00000743,-0.
 00000758,-0.00000989,0.00000181,0.00000527,-0.00000243,0.00001091,-0.0
 0001637,-0.00000712,-0.00001095,-0.00000965,0.00001120,0.00000203,-0.0
 0001621,0.00000236,0.00001534,0.00000289,0.00000658,0.00001132,0.00000
 142,-0.00000206,0.00000804,-0.00000368,0.00000844,-0.00001432\\\@


 THE MORE POWERFUL THE METHOD, THE MORE CATASTROPHIC THE ERRORS.
     -- M.D. KAMEN
 Job cpu time:       0 days  0 hours 59 minutes 26.3 seconds.
 Elapsed time:       0 days  0 hours  4 minutes 58.7 seconds.
 File lengths (MBytes):  RWF=     65 Int=      0 D2E=      0 Chk=      8 Scr=      1
 Normal termination of Gaussian 16 at Wed Oct  5 10:00:51 2022.
