 Entering Gaussian System, Link 0=g16
 Initial command:
 /mnt/data/applications/G16/g16/l1.exe "/scratch/Gau-2431.inp" -scrdir="/scratch/"
 Entering Link 1 = /mnt/data/applications/G16/g16/l1.exe PID=      2432.
  
 Copyright (c) 1988,1990,1992,1993,1995,1998,2003,2009,2016,
            Gaussian, Inc.  All Rights Reserved.
  
 This is part of the Gaussian(R) 16 program.  It is based on
 the Gaussian(R) 09 system (copyright 2009, Gaussian, Inc.),
 the Gaussian(R) 03 system (copyright 2003, Gaussian, Inc.),
 the Gaussian(R) 98 system (copyright 1998, Gaussian, Inc.),
 the Gaussian(R) 94 system (copyright 1995, Gaussian, Inc.),
 the Gaussian 92(TM) system (copyright 1992, Gaussian, Inc.),
 the Gaussian 90(TM) system (copyright 1990, Gaussian, Inc.),
 the Gaussian 88(TM) system (copyright 1988, Gaussian, Inc.),
 the Gaussian 86(TM) system (copyright 1986, Carnegie Mellon
 University), and the Gaussian 82(TM) system (copyright 1983,
 Carnegie Mellon University). Gaussian is a federally registered
 trademark of Gaussian, Inc.
  
 This software contains proprietary and confidential information,
 including trade secrets, belonging to Gaussian, Inc.
  
 This software is provided under written license and may be
 used, copied, transmitted, or stored only in accord with that
 written license.
  
 The following legend is applicable only to US Government
 contracts under FAR:
  
                    RESTRICTED RIGHTS LEGEND
  
 Use, reproduction and disclosure by the US Government is
 subject to restrictions as set forth in subparagraphs (a)
 and (c) of the Commercial Computer Software - Restricted
 Rights clause in FAR 52.227-19.
  
 Gaussian, Inc.
 340 Quinnipiac St., Bldg. 40, Wallingford CT 06492
  
  
 ---------------------------------------------------------------
 Warning -- This program may not be used in any manner that
 competes with the business of Gaussian, Inc. or will provide
 assistance to any competitor of Gaussian, Inc.  The licensee
 of this program is prohibited from giving any competitor of
 Gaussian, Inc. access to this program.  By using this program,
 the user acknowledges that Gaussian, Inc. is engaged in the
 business of creating and licensing software in the field of
 computational chemistry and represents and warrants to the
 licensee that it is not a competitor of Gaussian, Inc. and that
 it will not use this program in any manner prohibited above.
 ---------------------------------------------------------------
  

 Cite this work as:
 Gaussian 16, Revision A.03,
 M. J. Frisch, G. W. Trucks, H. B. Schlegel, G. E. Scuseria, 
 M. A. Robb, J. R. Cheeseman, G. Scalmani, V. Barone, 
 G. A. Petersson, H. Nakatsuji, X. Li, M. Caricato, A. V. Marenich, 
 J. Bloino, B. G. Janesko, R. Gomperts, B. Mennucci, H. P. Hratchian, 
 J. V. Ortiz, A. F. Izmaylov, J. L. Sonnenberg, D. Williams-Young, 
 F. Ding, F. Lipparini, F. Egidi, J. Goings, B. Peng, A. Petrone, 
 T. Henderson, D. Ranasinghe, V. G. Zakrzewski, J. Gao, N. Rega, 
 G. Zheng, W. Liang, M. Hada, M. Ehara, K. Toyota, R. Fukuda, 
 J. Hasegawa, M. Ishida, T. Nakajima, Y. Honda, O. Kitao, H. Nakai, 
 T. Vreven, K. Throssell, J. A. Montgomery, Jr., J. E. Peralta, 
 F. Ogliaro, M. J. Bearpark, J. J. Heyd, E. N. Brothers, K. N. Kudin, 
 V. N. Staroverov, T. A. Keith, R. Kobayashi, J. Normand, 
 K. Raghavachari, A. P. Rendell, J. C. Burant, S. S. Iyengar, 
 J. Tomasi, M. Cossi, J. M. Millam, M. Klene, C. Adamo, R. Cammi, 
 J. W. Ochterski, R. L. Martin, K. Morokuma, O. Farkas, 
 J. B. Foresman, and D. J. Fox, Gaussian, Inc., Wallingford CT, 2016.
 
 ******************************************
 Gaussian 16:  AM64L-G16RevA.03 25-Dec-2016
                20-Jul-2023 
 ******************************************
 %nprocshared=12
 Will use up to   12 processors via shared memory.
 %mem=22GB
 %chk=prod.chk
 ----------------------------------------------------------------------
 #p opt=(maxstep=5) freq pseudo=read WB97XD gen scrf(smd,solvent=toluen
 e)
 ----------------------------------------------------------------------
 1/8=5,18=20,19=15,26=3,38=1/1,3;
 2/9=110,12=2,17=6,18=5,40=1/2;
 3/5=7,11=2,16=1,17=8,25=1,30=1,70=32201,71=1,72=13,74=-58/1,2,3;
 4//1;
 5/5=2,38=5,53=13/2;
 6/7=2,8=2,9=2,10=2,28=1/1;
 7//1,2,3,16;
 1/8=5,18=20,19=15,26=3/3(2);
 2/9=110/2;
 99//99;
 2/9=110/2;
 3/5=7,6=1,11=2,16=1,17=8,25=1,30=1,70=32205,71=1,72=13,74=-58,82=7/1,2,3;
 4/5=5,16=3,69=1/1;
 5/5=2,38=5,53=13/2;
 7//1,2,3,16;
 1/8=5,18=20,19=15,26=3/3(-5);
 2/9=110/2;
 6/7=2,8=2,9=2,10=2,19=2,28=1/1;
 99/9=1/99;
 Leave Link    1 at Thu Jul 20 11:13:47 2023, MaxMem=  2952790016 cpu:               0.6 elap:               0.1
 (Enter /mnt/data/applications/G16/g16/l101.exe)
 ---------------------------
 Auto-generated job for prod
 ---------------------------
 Symbolic Z-matrix:
 Charge =  0 Multiplicity = 1
 C                    -0.92626   0.41815  -0.00059 
 H                    -1.58372   1.31222   0.00085 
 C                     0.54132   0.72154   0.00013 
 H                     0.72672   1.36442  -0.86848 
 H                     0.72608   1.3637    0.86941 
 C                     1.4444   -0.49661  -0.00003 
 H                     2.49239  -0.19474   0.00043 
 H                     1.26777  -1.11667   0.87953 
 H                     1.26835  -1.116    -0.88017 
 O                    -1.4068   -0.68392   0.00018 
 
 ITRead=  0  0  0  0  0  0  0  0  0  0
 MicOpt= -1 -1 -1 -1 -1 -1 -1 -1 -1 -1
 NAtoms=     10 NQM=       10 NQMF=       0 NMMI=      0 NMMIF=      0
                NMic=       0 NMicF=      0.
                    Isotopes and Nuclear Properties:
 (Nuclear quadrupole moments (NQMom) in fm**2, nuclear magnetic moments (NMagM)
  in nuclear magnetons)

  Atom         1           2           3           4           5           6           7           8           9          10
 IAtWgt=          12           1          12           1           1          12           1           1           1          16
 AtmWgt=  12.0000000   1.0078250  12.0000000   1.0078250   1.0078250  12.0000000   1.0078250   1.0078250   1.0078250  15.9949146
 NucSpn=           0           1           0           1           1           0           1           1           1           0
 AtZEff=  -0.0000000  -0.0000000  -0.0000000  -0.0000000  -0.0000000  -0.0000000  -0.0000000  -0.0000000  -0.0000000  -0.0000000
 NQMom=    0.0000000   0.0000000   0.0000000   0.0000000   0.0000000   0.0000000   0.0000000   0.0000000   0.0000000   0.0000000
 NMagM=    0.0000000   2.7928460   0.0000000   2.7928460   2.7928460   0.0000000   2.7928460   2.7928460   2.7928460   0.0000000
 AtZNuc=   6.0000000   1.0000000   6.0000000   1.0000000   1.0000000   6.0000000   1.0000000   1.0000000   1.0000000   8.0000000
 Leave Link  101 at Thu Jul 20 11:13:47 2023, MaxMem=  2952790016 cpu:               4.5 elap:               0.4
 (Enter /mnt/data/applications/G16/g16/l103.exe)

 GradGradGradGradGradGradGradGradGradGradGradGradGradGradGradGradGradGrad
 Berny optimization.
 Initialization pass.
                           ----------------------------
                           !    Initial Parameters    !
                           ! (Angstroms and Degrees)  !
 --------------------------                            --------------------------
 ! Name  Definition              Value          Derivative Info.                !
 --------------------------------------------------------------------------------
 ! R1    R(1,2)                  1.1098         estimate D2E/DX2                !
 ! R2    R(1,3)                  1.4986         estimate D2E/DX2                !
 ! R3    R(1,10)                 1.2023         estimate D2E/DX2                !
 ! R4    R(3,4)                  1.0964         estimate D2E/DX2                !
 ! R5    R(3,5)                  1.0964         estimate D2E/DX2                !
 ! R6    R(3,6)                  1.5164         estimate D2E/DX2                !
 ! R7    R(6,7)                  1.0906         estimate D2E/DX2                !
 ! R8    R(6,8)                  1.0905         estimate D2E/DX2                !
 ! R9    R(6,9)                  1.0905         estimate D2E/DX2                !
 ! A1    A(2,1,3)              114.6486         estimate D2E/DX2                !
 ! A2    A(2,1,10)             120.1126         estimate D2E/DX2                !
 ! A3    A(3,1,10)             125.2386         estimate D2E/DX2                !
 ! A4    A(1,3,4)              106.4938         estimate D2E/DX2                !
 ! A5    A(1,3,5)              106.4973         estimate D2E/DX2                !
 ! A6    A(1,3,6)              114.8715         estimate D2E/DX2                !
 ! A7    A(4,3,5)              104.8442         estimate D2E/DX2                !
 ! A8    A(4,3,6)              111.7303         estimate D2E/DX2                !
 ! A9    A(5,3,6)              111.7292         estimate D2E/DX2                !
 ! A10   A(3,6,7)              110.4829         estimate D2E/DX2                !
 ! A11   A(3,6,8)              111.113          estimate D2E/DX2                !
 ! A12   A(3,6,9)              111.1126         estimate D2E/DX2                !
 ! A13   A(7,6,8)              108.2207         estimate D2E/DX2                !
 ! A14   A(7,6,9)              108.2208         estimate D2E/DX2                !
 ! A15   A(8,6,9)              107.5676         estimate D2E/DX2                !
 ! D1    D(2,1,3,4)            -55.8211         estimate D2E/DX2                !
 ! D2    D(2,1,3,5)             55.6696         estimate D2E/DX2                !
 ! D3    D(2,1,3,6)            179.9249         estimate D2E/DX2                !
 ! D4    D(10,1,3,4)           124.3378         estimate D2E/DX2                !
 ! D5    D(10,1,3,5)          -124.1715         estimate D2E/DX2                !
 ! D6    D(10,1,3,6)             0.0838         estimate D2E/DX2                !
 ! D7    D(1,3,6,7)            179.9949         estimate D2E/DX2                !
 ! D8    D(1,3,6,8)            -59.8704         estimate D2E/DX2                !
 ! D9    D(1,3,6,9)             59.8603         estimate D2E/DX2                !
 ! D10   D(4,3,6,7)             58.5526         estimate D2E/DX2                !
 ! D11   D(4,3,6,8)            178.6873         estimate D2E/DX2                !
 ! D12   D(4,3,6,9)            -61.582          estimate D2E/DX2                !
 ! D13   D(5,3,6,7)            -58.559          estimate D2E/DX2                !
 ! D14   D(5,3,6,8)             61.5757         estimate D2E/DX2                !
 ! D15   D(5,3,6,9)           -178.6936         estimate D2E/DX2                !
 --------------------------------------------------------------------------------
 Trust Radius=5.00D-02 FncErr=1.00D-07 GrdErr=1.00D-06 EigMax=2.50D+02 EigMin=1.00D-04
 Number of steps in this run=     49 maximum allowed number of steps=    100.
 GradGradGradGradGradGradGradGradGradGradGradGradGradGradGradGradGradGrad

 Leave Link  103 at Thu Jul 20 11:13:48 2023, MaxMem=  2952790016 cpu:               0.1 elap:               0.0
 (Enter /mnt/data/applications/G16/g16/l202.exe)
                          Input orientation:                          
 ---------------------------------------------------------------------
 Center     Atomic      Atomic             Coordinates (Angstroms)
 Number     Number       Type             X           Y           Z
 ---------------------------------------------------------------------
      1          6           0       -0.926264    0.418145   -0.000594
      2          1           0       -1.583716    1.312215    0.000847
      3          6           0        0.541324    0.721538    0.000128
      4          1           0        0.726720    1.364420   -0.868481
      5          1           0        0.726081    1.363699    0.869413
      6          6           0        1.444402   -0.496605   -0.000030
      7          1           0        2.492394   -0.194737    0.000431
      8          1           0        1.267766   -1.116670    0.879525
      9          1           0        1.268346   -1.116003   -0.880171
     10          8           0       -1.406796   -0.683924    0.000176
 ---------------------------------------------------------------------
                    Distance matrix (angstroms):
                    1          2          3          4          5
     1  C    0.000000
     2  H    1.109778   0.000000
     3  C    1.498620   2.205605   0.000000
     4  H    2.093089   2.469124   1.096426   0.000000
     5  H    2.093138   2.468242   1.096432   1.737894   0.000000
     6  C    2.541028   3.527227   1.516385   2.175474   2.175465
     7  H    3.473161   4.345754   2.155512   2.510694   2.510720
     8  H    2.818516   3.847403   2.163346   3.082866   2.538849
     9  H    2.818436   3.847947   2.163341   2.538896   3.082859
    10  O    1.202276   2.003964   2.402185   3.082559   3.081801
                    6          7          8          9         10
     6  C    0.000000
     7  H    1.090602   0.000000
     8  H    1.090549   1.767054   0.000000
     9  H    1.090549   1.767055   1.759696   0.000000
    10  O    2.857345   3.929757   2.848474   2.849226   0.000000
 Stoichiometry    C3H6O
 Framework group  C1[X(C3H6O)]
 Deg. of freedom    24
 Full point group                 C1      NOp   1
 Largest Abelian subgroup         C1      NOp   1
 Largest concise Abelian subgroup C1      NOp   1
                         Standard orientation:                         
 ---------------------------------------------------------------------
 Center     Atomic      Atomic             Coordinates (Angstroms)
 Number     Number       Type             X           Y           Z
 ---------------------------------------------------------------------
      1          6           0       -0.926264    0.418145   -0.000594
      2          1           0       -1.583716    1.312215    0.000847
      3          6           0        0.541324    0.721538    0.000128
      4          1           0        0.726720    1.364420   -0.868481
      5          1           0        0.726081    1.363699    0.869413
      6          6           0        1.444402   -0.496605   -0.000030
      7          1           0        2.492394   -0.194737    0.000431
      8          1           0        1.267766   -1.116670    0.879525
      9          1           0        1.268346   -1.116003   -0.880171
     10          8           0       -1.406796   -0.683924    0.000176
 ---------------------------------------------------------------------
 Rotational constants (GHZ):          17.0307029           5.8453125           4.5956601
 Leave Link  202 at Thu Jul 20 11:13:48 2023, MaxMem=  2952790016 cpu:               0.1 elap:               0.0
 (Enter /mnt/data/applications/G16/g16/l301.exe)
 General basis read from cards:  (5D, 7F)
 Centers:      10      2      4      5      7      8      9      1      3      6
 def2tzvp
 ****
 ======================================================================================================
                                       Pseudopotential Parameters
 ======================================================================================================
  Center     Atomic      Valence      Angular      Power
  Number     Number     Electrons     Momentum     of R      Exponent        Coefficient   SO-Coeffient
 ======================================================================================================
    1          6
                                   No pseudopotential on this center.
    2          1
                                   No pseudopotential on this center.
    3          6
                                   No pseudopotential on this center.
    4          1
                                   No pseudopotential on this center.
    5          1
                                   No pseudopotential on this center.
    6          6
                                   No pseudopotential on this center.
    7          1
                                   No pseudopotential on this center.
    8          1
                                   No pseudopotential on this center.
    9          1
                                   No pseudopotential on this center.
   10          8
                                   No pseudopotential on this center.
 ======================================================================================================
 Ernie: Thresh=  0.10000D-02 Tol=  0.10000D-05 Strict=F.
 There are   180 symmetry adapted cartesian basis functions of A   symmetry.
 There are   160 symmetry adapted basis functions of A   symmetry.
   160 basis functions,   252 primitive gaussians,   180 cartesian basis functions
    16 alpha electrons       16 beta electrons
       nuclear repulsion energy       118.7376253344 Hartrees.
 IExCor= 4639 DFT=T Ex+Corr=wB97XD ExCW=0 ScaHFX=  1.000000
 ScaDFX=  1.000000  1.000000  1.000000  1.000000 ScalE2=  1.000000  1.000000
 IRadAn=      5 IRanWt=     -1 IRanGd=            0 ICorTp=0 IEmpDi=121
 HFx  wShort=  0.000000 wLong=  0.200000 cFull=  0.222036 cShort=  0.000000 cLong=  0.777964
 DFx  wShort=  0.000000 wLong=  0.200000 cFull=  0.000000 cShort=  0.000000 cLong=  1.000000
 NAtoms=   10 NActive=   10 NUniq=   10 SFac= 1.00D+00 NAtFMM=   60 NAOKFM=F Big=F
 Integral buffers will be    131072 words long.
 Raffenetti 2 integral format.
 Two-electron integral symmetry is turned on.
 R6Disp:  Grimme-D2 Dispersion energy=       -0.0032573284 Hartrees.
 Nuclear repulsion after empirical dispersion term =      118.7343680060 Hartrees.
 ------------------------------------------------------------------------------
 Polarizable Continuum Model (PCM)
 =================================
 Model                : PCM.
 Atomic radii         : SMD-Coulomb.
 Polarization charges : Total charges.
 Charge compensation  : None.
 Solution method      : On-the-fly selection.
 Cavity type          : VdW (van der Waals Surface) (Alpha=1.000).
 Cavity algorithm     : GePol (No added spheres)
                        Default sphere list used, NSphG=   10.
                        Lebedev-Laikov grids with approx.  5.0 points / Ang**2.
                        Smoothing algorithm: York/Karplus (Gamma=1.0000).
                        Polarization charges: spherical gaussians, with
                                              point-specific exponents (IZeta= 3).
                        Self-potential: point-specific (ISelfS= 7).
                        Self-field    : sphere-specific E.n sum rule (ISelfD= 2).
 1st derivatives      : Analytical E(r).r(x)/FMM algorithm (CHGder, D1EAlg=3).
                        Cavity 1st derivative terms included.
 Solvent              : Toluene, Eps=   2.374100 Eps(inf)=   2.238315
 ------------------------------------------------------------------------------
 Spheres list:
 ISph  on   Nord     Re0    Alpha      Xe            Ye            Ze
    1   C      1    1.8500  1.000     -0.926264      0.418145     -0.000594
    2   H      2    1.2000  1.000     -1.583716      1.312215      0.000847
    3   C      3    1.8500  1.000      0.541324      0.721538      0.000128
    4   H      4    1.2000  1.000      0.726720      1.364420     -0.868481
    5   H      5    1.2000  1.000      0.726081      1.363699      0.869413
    6   C      6    1.8500  1.000      1.444402     -0.496605     -0.000030
    7   H      7    1.2000  1.000      2.492394     -0.194737      0.000431
    8   H      8    1.2000  1.000      1.267766     -1.116670      0.879525
    9   H      9    1.2000  1.000      1.268346     -1.116003     -0.880171
   10   O     10    2.2940  1.000     -1.406796     -0.683924      0.000176
 ------------------------------------------------------------------------------
 GePol: Number of generator spheres                  =      10
 GePol: Total number of spheres                      =      10
 GePol: Number of exposed spheres                    =      10 (100.00%)
 GePol: Number of points                             =     922
 GePol: Average weight of points                     =       0.12
 GePol: Minimum weight of points                     =   0.11D-08
 GePol: Maximum weight of points                     =    0.17992
 GePol: Number of points with low weight             =      56
 GePol: Fraction of low-weight points (<1% of avg)   =       6.07%
 GePol: Cavity surface area                          =    111.295 Ang**2
 GePol: Cavity volume                                =     92.309 Ang**3
 ------------------------------------------------------------------------------
 Atomic radii for non-electrostatic terms: SMD-CDS.
 ------------------------------------------------------------------------------
 PCM non-electrostatic energy =        -0.0029663405 Hartrees.
 Nuclear repulsion after PCM non-electrostatic terms =      118.7314016655 Hartrees.
 Leave Link  301 at Thu Jul 20 11:13:49 2023, MaxMem=  2952790016 cpu:               1.4 elap:               0.1
 (Enter /mnt/data/applications/G16/g16/l302.exe)
 NPDir=0 NMtPBC=     1 NCelOv=     1 NCel=       1 NClECP=     1 NCelD=      1
         NCelK=      1 NCelE2=     1 NClLst=     1 CellRange=     0.0.
 One-electron integrals computed using PRISM.
 One-electron integral symmetry used in STVInt
   1 Symmetry operations used in ECPInt.
 ECPInt:  NShTT=    2346 NPrTT=    6892 LenC2=    2338 LenP2D=    5955.
 LDataN:  DoStor=T MaxTD1= 6 Len=  172
 NBasis=   160 RedAO= T EigKep=  3.28D-04  NBF=   160
 NBsUse=   160 1.00D-06 EigRej= -1.00D+00 NBFU=   160
 Precomputing XC quadrature grid using
 IXCGrd= 4 IRadAn=           5 IRanWt=          -1 IRanGd=           0 AccXCQ= 0.00D+00.
 Generated NRdTot=       0 NPtTot=           0 NUsed=           0 NTot=          32
 NSgBfM=   179   179   179   179   179 MxSgAt=    10 MxSgA2=    10.
 Leave Link  302 at Thu Jul 20 11:13:49 2023, MaxMem=  2952790016 cpu:               3.3 elap:               0.3
 (Enter /mnt/data/applications/G16/g16/l303.exe)
 DipDrv:  MaxL=1.
 Leave Link  303 at Thu Jul 20 11:13:49 2023, MaxMem=  2952790016 cpu:               0.4 elap:               0.1
 (Enter /mnt/data/applications/G16/g16/l401.exe)
 ExpMin= 9.52D-02 ExpMax= 2.70D+04 ExpMxC= 9.22D+02 IAcc=3 IRadAn=         5 AccDes= 0.00D+00
 Harris functional with IExCor= 4639 and IRadAn=       5 diagonalized for initial guess.
 HarFok:  IExCor= 4639 AccDes= 0.00D+00 IRadAn=         5 IDoV= 1 UseB2=F ITyADJ=14
 ICtDFT=  3500011 ScaDFX=  1.000000  1.000000  1.000000  1.000000
 FoFCou: FMM=F IPFlag=           0 FMFlag=      100000 FMFlg1=           0
         NFxFlg=           0 DoJE=T BraDBF=F KetDBF=T FulRan=T
         wScrn=  0.000000 ICntrl=       500 IOpCl=  0 I1Cent=   200000004 NGrid=           0
         NMat0=    1 NMatS0=      1 NMatT0=    0 NMatD0=    1 NMtDS0=    0 NMtDT0=    0
 Petite list used in FoFCou.
 Harris En= -184.803484887043    
 JPrj=0 DoOrth=F DoCkMO=F.
 Leave Link  401 at Thu Jul 20 11:13:51 2023, MaxMem=  2952790016 cpu:              12.6 elap:               1.1
 (Enter /mnt/data/applications/G16/g16/l502.exe)
 Keep R1 ints in memory in canonical form, NReq=178007602.
 FoFCou: FMM=F IPFlag=           0 FMFlag=           0 FMFlg1=           0
         NFxFlg=           0 DoJE=F BraDBF=F KetDBF=F FulRan=T
         wScrn=  0.000000 ICntrl=       600 IOpCl=  0 I1Cent=           0 NGrid=           0
         NMat0=    1 NMatS0=  12880 NMatT0=    0 NMatD0=    1 NMtDS0=    0 NMtDT0=    0
 Symmetry not used in FoFCou.
 Two-electron integral symmetry not used.
 Closed shell SCF:
 Using DIIS extrapolation, IDIIS=  1040.
 NGot=  2952790016 LenX=  2786813986 LenY=  2786781145
 Requested convergence on RMS density matrix=1.00D-08 within 128 cycles.
 Requested convergence on MAX density matrix=1.00D-06.
 Requested convergence on             energy=1.00D-06.
 No special actions if energy rises.

 Cycle   1  Pass 1  IDiag  1:
 Inv3:  Mode=1 IEnd=     2550252.
 Iteration    1 A*A^-1 deviation from unit magnitude is 1.78D-15 for     57.
 Iteration    1 A*A^-1 deviation from orthogonality  is 1.00D-15 for    337    221.
 Iteration    1 A^-1*A deviation from unit magnitude is 1.78D-15 for     57.
 Iteration    1 A^-1*A deviation from orthogonality  is 1.06D-15 for    353    248.
 E= -193.107380845972    
 DIIS: error= 4.65D-02 at cycle   1 NSaved=   1.
 NSaved= 1 IEnMin= 1 EnMin= -193.107380845972     IErMin= 1 ErrMin= 4.65D-02
 ErrMax= 4.65D-02  0.00D+00 EMaxC= 1.00D-01 BMatC= 4.13D-01 BMatP= 4.13D-01
 IDIUse=3 WtCom= 5.35D-01 WtEn= 4.65D-01
 Coeff-Com:  0.100D+01
 Coeff-En:   0.100D+01
 Coeff:      0.100D+01
 Gap=     0.402 Goal=   None    Shift=    0.000
 GapD=    0.402 DampG=2.000 DampE=0.500 DampFc=1.0000 IDamp=-1.
 RMSDP=3.37D-03 MaxDP=2.22D-01              OVMax= 7.42D-02

 Cycle   2  Pass 1  IDiag  1:
 E= -193.140407948944     Delta-E=       -0.033027102972 Rises=F Damp=F
 DIIS: error= 1.29D-02 at cycle   2 NSaved=   2.
 NSaved= 2 IEnMin= 2 EnMin= -193.140407948944     IErMin= 2 ErrMin= 1.29D-02
 ErrMax= 1.29D-02  0.00D+00 EMaxC= 1.00D-01 BMatC= 3.56D-02 BMatP= 4.13D-01
 IDIUse=3 WtCom= 8.71D-01 WtEn= 1.29D-01
 Coeff-Com:  0.160D+00 0.840D+00
 Coeff-En:   0.166D+00 0.834D+00
 Coeff:      0.160D+00 0.840D+00
 Gap=     0.411 Goal=   None    Shift=    0.000
 RMSDP=1.38D-03 MaxDP=6.57D-02 DE=-3.30D-02 OVMax= 8.56D-02

 Cycle   3  Pass 1  IDiag  1:
 E= -193.147582493844     Delta-E=       -0.007174544900 Rises=F Damp=F
 DIIS: error= 1.10D-02 at cycle   3 NSaved=   3.
 NSaved= 3 IEnMin= 3 EnMin= -193.147582493844     IErMin= 3 ErrMin= 1.10D-02
 ErrMax= 1.10D-02  0.00D+00 EMaxC= 1.00D-01 BMatC= 2.59D-02 BMatP= 3.56D-02
 IDIUse=3 WtCom= 8.90D-01 WtEn= 1.10D-01
 Coeff-Com:  0.320D-01 0.465D+00 0.503D+00
 Coeff-En:   0.000D+00 0.420D+00 0.580D+00
 Coeff:      0.285D-01 0.460D+00 0.512D+00
 Gap=     0.401 Goal=   None    Shift=    0.000
 RMSDP=9.71D-04 MaxDP=5.67D-02 DE=-7.17D-03 OVMax= 4.07D-02

 Cycle   4  Pass 1  IDiag  1:
 E= -193.164941345611     Delta-E=       -0.017358851767 Rises=F Damp=F
 DIIS: error= 2.34D-03 at cycle   4 NSaved=   4.
 NSaved= 4 IEnMin= 4 EnMin= -193.164941345611     IErMin= 4 ErrMin= 2.34D-03
 ErrMax= 2.34D-03  0.00D+00 EMaxC= 1.00D-01 BMatC= 7.95D-04 BMatP= 2.59D-02
 IDIUse=3 WtCom= 9.77D-01 WtEn= 2.34D-02
 Coeff-Com:  0.114D-01 0.200D+00 0.261D+00 0.528D+00
 Coeff-En:   0.000D+00 0.000D+00 0.000D+00 0.100D+01
 Coeff:      0.111D-01 0.195D+00 0.255D+00 0.539D+00
 Gap=     0.393 Goal=   None    Shift=    0.000
 RMSDP=8.68D-05 MaxDP=2.83D-03 DE=-1.74D-02 OVMax= 7.02D-03

 Cycle   5  Pass 1  IDiag  1:
 E= -193.165534029378     Delta-E=       -0.000592683767 Rises=F Damp=F
 DIIS: error= 1.71D-04 at cycle   5 NSaved=   5.
 NSaved= 5 IEnMin= 5 EnMin= -193.165534029378     IErMin= 5 ErrMin= 1.71D-04
 ErrMax= 1.71D-04  0.00D+00 EMaxC= 1.00D-01 BMatC= 5.99D-06 BMatP= 7.95D-04
 IDIUse=3 WtCom= 9.98D-01 WtEn= 1.71D-03
 Coeff-Com: -0.176D-02-0.221D-01-0.188D-01 0.342D-01 0.101D+01
 Coeff-En:   0.000D+00 0.000D+00 0.000D+00 0.000D+00 0.100D+01
 Coeff:     -0.176D-02-0.220D-01-0.188D-01 0.342D-01 0.101D+01
 Gap=     0.394 Goal=   None    Shift=    0.000
 RMSDP=8.04D-05 MaxDP=4.67D-03 DE=-5.93D-04 OVMax= 1.14D-03

 Cycle   6  Pass 1  IDiag  1:
 E= -193.165543266480     Delta-E=       -0.000009237102 Rises=F Damp=F
 DIIS: error= 7.22D-05 at cycle   6 NSaved=   6.
 NSaved= 6 IEnMin= 6 EnMin= -193.165543266480     IErMin= 6 ErrMin= 7.22D-05
 ErrMax= 7.22D-05  0.00D+00 EMaxC= 1.00D-01 BMatC= 5.03D-07 BMatP= 5.99D-06
 IDIUse=1 WtCom= 1.00D+00 WtEn= 0.00D+00
 Coeff-Com: -0.780D-03-0.142D-01-0.167D-01-0.122D-01 0.230D+00 0.814D+00
 Coeff:     -0.780D-03-0.142D-01-0.167D-01-0.122D-01 0.230D+00 0.814D+00
 Gap=     0.394 Goal=   None    Shift=    0.000
 RMSDP=1.57D-05 MaxDP=8.63D-04 DE=-9.24D-06 OVMax= 3.42D-04

 Cycle   7  Pass 1  IDiag  1:
 E= -193.165544016723     Delta-E=       -0.000000750243 Rises=F Damp=F
 DIIS: error= 1.82D-05 at cycle   7 NSaved=   7.
 NSaved= 7 IEnMin= 7 EnMin= -193.165544016723     IErMin= 7 ErrMin= 1.82D-05
 ErrMax= 1.82D-05  0.00D+00 EMaxC= 1.00D-01 BMatC= 5.12D-08 BMatP= 5.03D-07
 IDIUse=1 WtCom= 1.00D+00 WtEn= 0.00D+00
 Coeff-Com:  0.160D-04-0.154D-03-0.107D-02-0.457D-02-0.762D-01 0.161D+00
 Coeff-Com:  0.921D+00
 Coeff:      0.160D-04-0.154D-03-0.107D-02-0.457D-02-0.762D-01 0.161D+00
 Coeff:      0.921D+00
 Gap=     0.394 Goal=   None    Shift=    0.000
 RMSDP=8.35D-06 MaxDP=4.82D-04 DE=-7.50D-07 OVMax= 1.62D-04

 Cycle   8  Pass 1  IDiag  1:
 E= -193.165544110721     Delta-E=       -0.000000093998 Rises=F Damp=F
 DIIS: error= 4.69D-06 at cycle   8 NSaved=   8.
 NSaved= 8 IEnMin= 8 EnMin= -193.165544110721     IErMin= 8 ErrMin= 4.69D-06
 ErrMax= 4.69D-06  0.00D+00 EMaxC= 1.00D-01 BMatC= 1.37D-09 BMatP= 5.12D-08
 IDIUse=1 WtCom= 1.00D+00 WtEn= 0.00D+00
 Coeff-Com:  0.322D-04 0.591D-03 0.692D-03 0.590D-03-0.127D-01-0.364D-01
 Coeff-Com:  0.309D-01 0.102D+01
 Coeff:      0.322D-04 0.591D-03 0.692D-03 0.590D-03-0.127D-01-0.364D-01
 Coeff:      0.309D-01 0.102D+01
 Gap=     0.394 Goal=   None    Shift=    0.000
 RMSDP=1.32D-06 MaxDP=6.55D-05 DE=-9.40D-08 OVMax= 4.58D-05

 Cycle   9  Pass 1  IDiag  1:
 E= -193.165544114884     Delta-E=       -0.000000004163 Rises=F Damp=F
 DIIS: error= 9.45D-07 at cycle   9 NSaved=   9.
 NSaved= 9 IEnMin= 9 EnMin= -193.165544114884     IErMin= 9 ErrMin= 9.45D-07
 ErrMax= 9.45D-07  0.00D+00 EMaxC= 1.00D-01 BMatC= 1.77D-10 BMatP= 1.37D-09
 IDIUse=1 WtCom= 1.00D+00 WtEn= 0.00D+00
 Coeff-Com:  0.368D-05 0.885D-04 0.153D-03 0.506D-03 0.357D-02-0.179D-01
 Coeff-Com: -0.563D-01 0.158D+00 0.912D+00
 Coeff:      0.368D-05 0.885D-04 0.153D-03 0.506D-03 0.357D-02-0.179D-01
 Coeff:     -0.563D-01 0.158D+00 0.912D+00
 Gap=     0.394 Goal=   None    Shift=    0.000
 RMSDP=2.49D-07 MaxDP=9.06D-06 DE=-4.16D-09 OVMax= 1.08D-05

 Cycle  10  Pass 1  IDiag  1:
 E= -193.165544115178     Delta-E=       -0.000000000293 Rises=F Damp=F
 DIIS: error= 4.42D-07 at cycle  10 NSaved=  10.
 NSaved=10 IEnMin=10 EnMin= -193.165544115178     IErMin=10 ErrMin= 4.42D-07
 ErrMax= 4.42D-07  0.00D+00 EMaxC= 1.00D-01 BMatC= 2.89D-11 BMatP= 1.77D-10
 IDIUse=1 WtCom= 1.00D+00 WtEn= 0.00D+00
 Coeff-Com: -0.164D-05-0.219D-04-0.163D-04 0.155D-03 0.226D-02-0.283D-02
 Coeff-Com: -0.213D-01-0.392D-01 0.294D+00 0.767D+00
 Coeff:     -0.164D-05-0.219D-04-0.163D-04 0.155D-03 0.226D-02-0.283D-02
 Coeff:     -0.213D-01-0.392D-01 0.294D+00 0.767D+00
 Gap=     0.394 Goal=   None    Shift=    0.000
 RMSDP=5.44D-08 MaxDP=1.40D-06 DE=-2.93D-10 OVMax= 2.32D-06

 Cycle  11  Pass 1  IDiag  1:
 E= -193.165544115212     Delta-E=       -0.000000000035 Rises=F Damp=F
 DIIS: error= 7.79D-08 at cycle  11 NSaved=  11.
 NSaved=11 IEnMin=11 EnMin= -193.165544115212     IErMin=11 ErrMin= 7.79D-08
 ErrMax= 7.79D-08  0.00D+00 EMaxC= 1.00D-01 BMatC= 1.14D-12 BMatP= 2.89D-11
 IDIUse=1 WtCom= 1.00D+00 WtEn= 0.00D+00
 Coeff-Com: -0.264D-06-0.542D-05-0.113D-04-0.749D-05-0.121D-03 0.933D-03
 Coeff-Com:  0.218D-02-0.952D-02-0.491D-01 0.231D-01 0.103D+01
 Coeff:     -0.264D-06-0.542D-05-0.113D-04-0.749D-05-0.121D-03 0.933D-03
 Coeff:      0.218D-02-0.952D-02-0.491D-01 0.231D-01 0.103D+01
 Gap=     0.394 Goal=   None    Shift=    0.000
 RMSDP=1.80D-08 MaxDP=4.77D-07 DE=-3.47D-11 OVMax= 7.22D-07

 Cycle  12  Pass 1  IDiag  1:
 E= -193.165544115212     Delta-E=        0.000000000001 Rises=F Damp=F
 DIIS: error= 1.27D-08 at cycle  12 NSaved=  12.
 NSaved=12 IEnMin=11 EnMin= -193.165544115212     IErMin=12 ErrMin= 1.27D-08
 ErrMax= 1.27D-08  0.00D+00 EMaxC= 1.00D-01 BMatC= 3.07D-14 BMatP= 1.14D-12
 IDIUse=1 WtCom= 1.00D+00 WtEn= 0.00D+00
 Coeff-Com:  0.320D-07 0.183D-06-0.773D-06-0.834D-05-0.120D-03 0.210D-03
 Coeff-Com:  0.135D-02 0.136D-02-0.196D-01-0.393D-01 0.714D-01 0.985D+00
 Coeff:      0.320D-07 0.183D-06-0.773D-06-0.834D-05-0.120D-03 0.210D-03
 Coeff:      0.135D-02 0.136D-02-0.196D-01-0.393D-01 0.714D-01 0.985D+00
 Gap=     0.394 Goal=   None    Shift=    0.000
 RMSDP=5.32D-09 MaxDP=1.29D-07 DE= 8.53D-13 OVMax= 1.67D-07

 Error on total polarization charges =  0.01587
 SCF Done:  E(RwB97XD) =  -193.165544115     A.U. after   12 cycles
            NFock= 12  Conv=0.53D-08     -V/T= 2.0048
 KE= 1.922462382111D+02 PE=-6.883997716915D+02 EE= 1.842565876997D+02
 SMD-CDS (non-electrostatic) energy       (kcal/mol) =      -1.86
 (included in total energy above)
 Leave Link  502 at Thu Jul 20 11:14:14 2023, MaxMem=  2952790016 cpu:             254.9 elap:              23.3
 (Enter /mnt/data/applications/G16/g16/l601.exe)
 Copying SCF densities to generalized density rwf, IOpCl= 0 IROHF=0.

 **********************************************************************

            Population analysis using the SCF density.

 **********************************************************************

 Orbital symmetries:
       Occupied  (A) (A) (A) (A) (A) (A) (A) (A) (A) (A) (A) (A)
                 (A) (A) (A) (A)
       Virtual   (A) (A) (A) (A) (A) (A) (A) (A) (A) (A) (A) (A)
                 (A) (A) (A) (A) (A) (A) (A) (A) (A) (A) (A) (A)
                 (A) (A) (A) (A) (A) (A) (A) (A) (A) (A) (A) (A)
                 (A) (A) (A) (A) (A) (A) (A) (A) (A) (A) (A) (A)
                 (A) (A) (A) (A) (A) (A) (A) (A) (A) (A) (A) (A)
                 (A) (A) (A) (A) (A) (A) (A) (A) (A) (A) (A) (A)
                 (A) (A) (A) (A) (A) (A) (A) (A) (A) (A) (A) (A)
                 (A) (A) (A) (A) (A) (A) (A) (A) (A) (A) (A) (A)
                 (A) (A) (A) (A) (A) (A) (A) (A) (A) (A) (A) (A)
                 (A) (A) (A) (A) (A) (A) (A) (A) (A) (A) (A) (A)
                 (A) (A) (A) (A) (A) (A) (A) (A) (A) (A) (A) (A)
                 (A) (A) (A) (A) (A) (A) (A) (A) (A) (A) (A) (A)
 The electronic state is 1-A.
 Alpha  occ. eigenvalues --  -19.24511 -10.36990 -10.29054 -10.27138  -1.15174
 Alpha  occ. eigenvalues --   -0.88266  -0.76196  -0.64532  -0.57733  -0.55222
 Alpha  occ. eigenvalues --   -0.52827  -0.46991  -0.46483  -0.44772  -0.42753
 Alpha  occ. eigenvalues --   -0.33897
 Alpha virt. eigenvalues --    0.05518   0.11895   0.14909   0.17289   0.17932
 Alpha virt. eigenvalues --    0.19406   0.21404   0.23195   0.25429   0.27603
 Alpha virt. eigenvalues --    0.29694   0.31150   0.33671   0.35961   0.37157
 Alpha virt. eigenvalues --    0.39358   0.43398   0.45974   0.48283   0.49812
 Alpha virt. eigenvalues --    0.50744   0.50968   0.51946   0.55104   0.57438
 Alpha virt. eigenvalues --    0.57450   0.61853   0.62224   0.64765   0.69548
 Alpha virt. eigenvalues --    0.74714   0.76384   0.83180   0.84326   0.90186
 Alpha virt. eigenvalues --    0.94234   0.95051   1.02328   1.06753   1.08024
 Alpha virt. eigenvalues --    1.14154   1.16210   1.17066   1.19950   1.22502
 Alpha virt. eigenvalues --    1.25695   1.39699   1.50788   1.50872   1.56801
 Alpha virt. eigenvalues --    1.58752   1.60063   1.63179   1.63892   1.64252
 Alpha virt. eigenvalues --    1.65483   1.68771   1.76575   1.79203   1.87847
 Alpha virt. eigenvalues --    1.90778   1.90863   1.93174   1.99424   2.01413
 Alpha virt. eigenvalues --    2.09405   2.13713   2.17044   2.19113   2.26503
 Alpha virt. eigenvalues --    2.26932   2.33460   2.38958   2.41523   2.41558
 Alpha virt. eigenvalues --    2.46703   2.53273   2.58743   2.61286   2.64524
 Alpha virt. eigenvalues --    2.65338   2.69294   2.71101   2.73111   2.75883
 Alpha virt. eigenvalues --    2.79407   2.84385   2.88508   2.95014   2.95613
 Alpha virt. eigenvalues --    3.03424   3.07846   3.09735   3.12957   3.14668
 Alpha virt. eigenvalues --    3.17784   3.18245   3.18760   3.25859   3.30025
 Alpha virt. eigenvalues --    3.30379   3.35194   3.36824   3.41590   3.47904
 Alpha virt. eigenvalues --    3.51483   3.53509   3.57759   3.60059   3.63560
 Alpha virt. eigenvalues --    3.73302   3.81740   3.86209   3.96640   3.98040
 Alpha virt. eigenvalues --    4.03987   4.07427   4.09772   4.18323   4.32427
 Alpha virt. eigenvalues --    4.38635   4.46889   4.49072   4.61340   4.65130
 Alpha virt. eigenvalues --    4.74460   4.82949   4.90630   5.27256   5.28256
 Alpha virt. eigenvalues --    5.65960   5.75078   6.21709   6.42452   6.43596
 Alpha virt. eigenvalues --    6.50134   6.55937   6.87977   7.02149   7.14567
 Alpha virt. eigenvalues --   22.44044  22.55915  22.83763  43.85307
          Condensed to atoms (all electrons):
               1          2          3          4          5          6
     1  C    4.625608   0.452947   0.221768  -0.018762  -0.018739  -0.010582
     2  H    0.452947   0.653868  -0.165071   0.004909   0.004903   0.015657
     3  C    0.221768  -0.165071   5.321260   0.381985   0.382018   0.238868
     4  H   -0.018762   0.004909   0.381985   0.557222  -0.026683  -0.025463
     5  H   -0.018739   0.004903   0.382018  -0.026683   0.557099  -0.025436
     6  C   -0.010582   0.015657   0.238868  -0.025463  -0.025436   4.915566
     7  H    0.007795  -0.000036  -0.039370  -0.004302  -0.004304   0.415358
     8  H   -0.005381   0.000238  -0.030909   0.006368  -0.005167   0.410490
     9  H   -0.005349   0.000237  -0.030942  -0.005163   0.006364   0.410524
    10  O    0.628036  -0.057551  -0.133073   0.002525   0.002495   0.026280
               7          8          9         10
     1  C    0.007795  -0.005381  -0.005349   0.628036
     2  H   -0.000036   0.000238   0.000237  -0.057551
     3  C   -0.039370  -0.030909  -0.030942  -0.133073
     4  H   -0.004302   0.006368  -0.005163   0.002525
     5  H   -0.004304  -0.005167   0.006364   0.002495
     6  C    0.415358   0.410490   0.410524   0.026280
     7  H    0.544106  -0.023836  -0.023838   0.000738
     8  H   -0.023836   0.542727  -0.023357   0.002619
     9  H   -0.023838  -0.023357   0.542728   0.002589
    10  O    0.000738   0.002619   0.002589   7.855027
 Mulliken charges:
               1
     1  C    0.122660
     2  H    0.089900
     3  C   -0.146533
     4  H    0.127364
     5  H    0.127449
     6  C   -0.371261
     7  H    0.127688
     8  H    0.126210
     9  H    0.126208
    10  O   -0.329684
 Sum of Mulliken charges =  -0.00000
 Mulliken charges with hydrogens summed into heavy atoms:
               1
     1  C    0.212560
     3  C    0.108279
     6  C    0.008845
    10  O   -0.329684
 Electronic spatial extent (au):  <R**2>=            302.3159
 Charge=             -0.0000 electrons
 Dipole moment (field-independent basis, Debye):
    X=              1.7909    Y=              2.5742    Z=             -0.0002  Tot=              3.1359
 Quadrupole moment (field-independent basis, Debye-Ang):
   XX=            -27.4294   YY=            -25.2301   ZZ=            -24.1092
   XY=             -2.7691   XZ=              0.0008   YZ=              0.0011
 Traceless Quadrupole moment (field-independent basis, Debye-Ang):
   XX=             -1.8399   YY=              0.3595   ZZ=              1.4803
   XY=             -2.7691   XZ=              0.0008   YZ=              0.0011
 Octapole moment (field-independent basis, Debye-Ang**2):
  XXX=              1.3250  YYY=              0.6220  ZZZ=              0.0014  XYY=             -0.4700
  XXY=              4.7805  XXZ=              0.0013  XZZ=             -1.3991  YZZ=             -0.2135
  YYZ=              0.0026  XYZ=             -0.0008
 Hexadecapole moment (field-independent basis, Debye-Ang**3):
 XXXX=           -255.3663 YYYY=           -106.9096 ZZZZ=            -36.6099 XXXY=             -2.4139
 XXXZ=              0.0006 YYYX=              1.6522 YYYZ=              0.0001 ZZZX=             -0.0012
 ZZZY=              0.0025 XXYY=            -60.7825 XXZZ=            -48.4173 YYZZ=            -21.4164
 XXYZ=              0.0038 YYXZ=             -0.0033 ZZXY=              1.4110
 N-N= 1.187314016655D+02 E-N=-6.883997719428D+02  KE= 1.922462382111D+02
 No NMR shielding tensors so no spin-rotation constants.
 Leave Link  601 at Thu Jul 20 11:14:15 2023, MaxMem=  2952790016 cpu:               2.5 elap:               0.2
 (Enter /mnt/data/applications/G16/g16/l701.exe)
 ... and contract with generalized density number  0.
 Compute integral first derivatives.
 R6Disp: Adding Grimme-D2 dispersion energy 1st derivatives to the gradient.
   1 Symmetry operations used in ECPInt.
 ECPInt:  NShTT=    2346 NPrTT=    6892 LenC2=    2338 LenP2D=    5955.
 LDataN:  DoStor=T MaxTD1= 7 Len=  274
 D1PCM: PCM CHGder 1st derivatives, ID1Alg=3 FixD1E=F DoIter=F DoCFld=F I1PDM=0.
 GePol: Maximum number of non-zero 1st derivatives   =     364
 Leave Link  701 at Thu Jul 20 11:14:17 2023, MaxMem=  2952790016 cpu:              17.3 elap:               1.5
 (Enter /mnt/data/applications/G16/g16/l702.exe)
 L702 exits ... SP integral derivatives will be done elsewhere.
 Leave Link  702 at Thu Jul 20 11:14:17 2023, MaxMem=  2952790016 cpu:               0.2 elap:               0.0
 (Enter /mnt/data/applications/G16/g16/l703.exe)
 Integral derivatives from FoFJK, PRISM(SPDF).
 Compute integral first derivatives, UseDBF=F ICtDFT=           0.
 Calling FoFJK, ICntrl=      2127 FMM=F ISym2X=0 I1Cent= 0 IOpClX= 0 NMat=1 NMatS=1 NMatT=0.
 FoFJK:  IHMeth= 1 ICntrl=    2127 DoSepK=T KAlg= 0 I1Cent=           0 FoldK=F
 IRaf=         1 NMat=       1 IRICut=       1 DoRegI=T DoRafI=F ISym2E= 0 IDoP0=0 IntGTp=1.
 FoFCou: FMM=F IPFlag=           0 FMFlag=      100000 FMFlg1=         800
         NFxFlg=           0 DoJE=F BraDBF=F KetDBF=F FulRan=T
         wScrn=  0.000000 ICntrl=      2527 IOpCl=  0 I1Cent=           0 NGrid=           0
         NMat0=    1 NMatS0=      1 NMatT0=    0 NMatD0=    1 NMtDS0=    0 NMtDT0=    0
 Symmetry not used in FoFCou.
 Leave Link  703 at Thu Jul 20 11:14:26 2023, MaxMem=  2952790016 cpu:             107.4 elap:               9.0
 (Enter /mnt/data/applications/G16/g16/l716.exe)
 Dipole        = 7.04600051D-01 1.01275899D+00-6.48478229D-05
 ***** Axes restored to original set *****
 -------------------------------------------------------------------
 Center     Atomic                   Forces (Hartrees/Bohr)
 Number     Number              X              Y              Z
 -------------------------------------------------------------------
      1        6           0.000200218    0.000276248    0.000345352
      2        1          -0.000042518    0.000057249   -0.000115312
      3        6           0.000027935   -0.000107122   -0.000114685
      4        1           0.000003040    0.000032063   -0.000066845
      5        1          -0.000044199    0.000021236    0.000067799
      6        6          -0.000051026    0.000055899   -0.000000775
      7        1           0.000059778    0.000029947   -0.000000568
      8        1          -0.000021581   -0.000020822    0.000054198
      9        1          -0.000018735   -0.000022410   -0.000055448
     10        8          -0.000112913   -0.000322288   -0.000113715
 -------------------------------------------------------------------
 Cartesian Forces:  Max     0.000345352 RMS     0.000121034
 Leave Link  716 at Thu Jul 20 11:14:27 2023, MaxMem=  2952790016 cpu:               0.3 elap:               0.0
 (Enter /mnt/data/applications/G16/g16/l103.exe)

 GradGradGradGradGradGradGradGradGradGradGradGradGradGradGradGradGradGrad
 Berny optimization.
 FormGI is forming the generalized inverse of G from B-inverse, IUseBI=4.
 Internal  Forces:  Max     0.000337215 RMS     0.000068507
 Search for a local minimum.
 Step number   1 out of a maximum of   49
 All quantities printed in internal units (Hartrees-Bohrs-Radians)
 RMS Force = .68507D-04 SwitMx=.10000D-02 MixMth= 2
 Mixed Optimization -- En-DIIS/RFO-DIIS
 Second derivative matrix not updated -- first step.
 ITU=  0
     Eigenvalues ---    0.00549   0.00784   0.00784   0.03926   0.05240
     Eigenvalues ---    0.05645   0.05683   0.10028   0.13149   0.16000
     Eigenvalues ---    0.16000   0.16000   0.16000   0.21898   0.22000
     Eigenvalues ---    0.30717   0.32523   0.32624   0.34080   0.34080
     Eigenvalues ---    0.34743   0.34749   0.34749   1.03688
 RFO step:  Lambda=-4.23460154D-06 EMin= 5.49210625D-03
 Linear search not attempted -- first point.
 Iteration  1 RMS(Cart)=  0.00238019 RMS(Int)=  0.00001909
 Iteration  2 RMS(Cart)=  0.00001457 RMS(Int)=  0.00001331
 Iteration  3 RMS(Cart)=  0.00000000 RMS(Int)=  0.00001331
 ITry= 1 IFail=0 DXMaxC= 8.41D-03 DCOld= 1.00D+10 DXMaxT= 5.00D-02 DXLimC= 3.00D+00 Rises=F
 Variable       Old X    -DE/DX   Delta X   Delta X   Delta X     New X
                                 (Linear)    (Quad)   (Total)
    R1        2.09718   0.00007   0.00000   0.00023   0.00023   2.09740
    R2        2.83198  -0.00005   0.00000  -0.00015  -0.00015   2.83183
    R3        2.27197   0.00034   0.00000   0.00033   0.00033   2.27230
    R4        2.07195   0.00007   0.00000   0.00021   0.00021   2.07216
    R5        2.07196   0.00006   0.00000   0.00017   0.00017   2.07213
    R6        2.86555  -0.00005   0.00000  -0.00016  -0.00016   2.86539
    R7        2.06094   0.00006   0.00000   0.00018   0.00018   2.06112
    R8        2.06084   0.00006   0.00000   0.00017   0.00017   2.06101
    R9        2.06084   0.00006   0.00000   0.00018   0.00018   2.06102
    A1        2.00100   0.00001   0.00000   0.00005   0.00001   2.00100
    A2        2.09636   0.00002   0.00000   0.00011   0.00007   2.09643
    A3        2.18583  -0.00003   0.00000  -0.00012  -0.00017   2.18566
    A4        1.85867   0.00001   0.00000   0.00008   0.00008   1.85875
    A5        1.85873  -0.00004   0.00000  -0.00048  -0.00048   1.85825
    A6        2.00489  -0.00001   0.00000  -0.00014  -0.00014   2.00474
    A7        1.82988   0.00001   0.00000   0.00029   0.00029   1.83016
    A8        1.95006  -0.00000   0.00000   0.00011   0.00011   1.95017
    A9        1.95004   0.00003   0.00000   0.00016   0.00016   1.95020
   A10        1.92829  -0.00000   0.00000   0.00000   0.00000   1.92829
   A11        1.93929  -0.00002   0.00000  -0.00015  -0.00015   1.93914
   A12        1.93928  -0.00002   0.00000  -0.00012  -0.00012   1.93916
   A13        1.88881   0.00001   0.00000   0.00010   0.00010   1.88891
   A14        1.88881   0.00001   0.00000   0.00009   0.00009   1.88890
   A15        1.87741   0.00002   0.00000   0.00009   0.00009   1.87750
    D1       -0.97426   0.00007   0.00000   0.00932   0.00932  -0.96494
    D2        0.97162   0.00007   0.00000   0.00947   0.00947   0.98109
    D3        3.14028   0.00007   0.00000   0.00921   0.00921  -3.13369
    D4        2.17010  -0.00007   0.00000  -0.00899  -0.00899   2.16111
    D5       -2.16720  -0.00007   0.00000  -0.00884  -0.00884  -2.17605
    D6        0.00146  -0.00007   0.00000  -0.00910  -0.00910  -0.00764
    D7        3.14150   0.00001   0.00000   0.00028   0.00028  -3.14140
    D8       -1.04494   0.00001   0.00000   0.00031   0.00031  -1.04462
    D9        1.04476   0.00001   0.00000   0.00025   0.00025   1.04501
   D10        1.02194   0.00001   0.00000   0.00019   0.00019   1.02213
   D11        3.11868   0.00001   0.00000   0.00023   0.00023   3.11891
   D12       -1.07481   0.00001   0.00000   0.00016   0.00016  -1.07465
   D13       -1.02205  -0.00002   0.00000  -0.00034  -0.00034  -1.02239
   D14        1.07470  -0.00002   0.00000  -0.00031  -0.00031   1.07439
   D15       -3.11879  -0.00002   0.00000  -0.00038  -0.00038  -3.11917
         Item               Value     Threshold  Converged?
 Maximum Force            0.000337     0.000450     YES
 RMS     Force            0.000069     0.000300     YES
 Maximum Displacement     0.008408     0.001800     NO 
 RMS     Displacement     0.002381     0.001200     NO 
 Predicted change in Energy=-2.116433D-06
 Lowest energy point so far.  Saving SCF results.
 GradGradGradGradGradGradGradGradGradGradGradGradGradGradGradGradGradGrad

 Leave Link  103 at Thu Jul 20 11:14:27 2023, MaxMem=  2952790016 cpu:               0.2 elap:               0.0
 (Enter /mnt/data/applications/G16/g16/l202.exe)
                          Input orientation:                          
 ---------------------------------------------------------------------
 Center     Atomic      Atomic             Coordinates (Angstroms)
 Number     Number       Type             X           Y           Z
 ---------------------------------------------------------------------
      1          6           0       -0.926061    0.418144    0.003855
      2          1           0       -1.583630    1.312250   -0.003098
      3          6           0        0.541433    0.721580    0.001473
      4          1           0        0.725134    1.364216   -0.867820
      5          1           0        0.727465    1.363980    0.870425
      6          6           0        1.444337   -0.496586    0.000075
      7          1           0        2.492452   -0.194798   -0.001438
      8          1           0        1.269063   -1.116326    0.880246
      9          1           0        1.266508   -1.116224   -0.879658
     10          8           0       -1.406445   -0.684158   -0.002818
 ---------------------------------------------------------------------
                    Distance matrix (angstroms):
                    1          2          3          4          5
     1  C    0.000000
     2  H    1.109897   0.000000
     3  C    1.498539   2.205630   0.000000
     4  H    2.093159   2.465935   1.096539   0.000000
     5  H    2.092773   2.471210   1.096523   1.738247   0.000000
     6  C    2.540773   3.527106   1.516300   2.175564   2.175573
     7  H    3.473033   4.345761   2.155512   2.510887   2.510998
     8  H    2.818019   3.849173   2.163235   3.082966   2.538768
     9  H    2.818197   3.845663   2.163249   2.538859   3.082980
    10  O    1.202448   2.004255   2.402154   3.080209   3.083989
                    6          7          8          9         10
     6  C    0.000000
     7  H    1.090698   0.000000
     8  H    1.090642   1.767274   0.000000
     9  H    1.090644   1.767267   1.759905   0.000000
    10  O    2.856947   3.929487   2.850423   2.846085   0.000000
 Stoichiometry    C3H6O
 Framework group  C1[X(C3H6O)]
 Deg. of freedom    24
 Full point group                 C1      NOp   1
 RotChk:  IX=2 Diff= 3.07D-03
 Largest Abelian subgroup         C1      NOp   1
 Largest concise Abelian subgroup C1      NOp   1
                         Standard orientation:                         
 ---------------------------------------------------------------------
 Center     Atomic      Atomic             Coordinates (Angstroms)
 Number     Number       Type             X           Y           Z
 ---------------------------------------------------------------------
      1          6           0       -0.926138    0.418273    0.003201
      2          1           0       -1.583634    1.312419   -0.005282
      3          6           0        0.541380    0.721576   -0.000597
      4          1           0        0.724675    1.362368   -0.871335
      5          1           0        0.727928    1.365783    0.866905
      6          6           0        1.444179   -0.496669    0.000086
      7          1           0        2.492319   -0.194976   -0.002617
      8          1           0        1.269319   -1.114544    0.881649
      9          1           0        1.265830   -1.118138   -0.878249
     10          8           0       -1.406620   -0.683999   -0.000902
 ---------------------------------------------------------------------
 Rotational constants (GHZ):          17.0271746           5.8466436           4.5963214
 Leave Link  202 at Thu Jul 20 11:14:27 2023, MaxMem=  2952790016 cpu:               0.1 elap:               0.0
 (Enter /mnt/data/applications/G16/g16/l301.exe)
 Basis read from rwf:  (5D, 7F)
 Pseudo-potential data read from rwf file.
 There are   180 symmetry adapted cartesian basis functions of A   symmetry.
 There are   160 symmetry adapted basis functions of A   symmetry.
   160 basis functions,   252 primitive gaussians,   180 cartesian basis functions
    16 alpha electrons       16 beta electrons
       nuclear repulsion energy       118.7373689618 Hartrees.
 IExCor= 4639 DFT=T Ex+Corr=wB97XD ExCW=0 ScaHFX=  1.000000
 ScaDFX=  1.000000  1.000000  1.000000  1.000000 ScalE2=  1.000000  1.000000
 IRadAn=      5 IRanWt=     -1 IRanGd=            0 ICorTp=0 IEmpDi=121
 HFx  wShort=  0.000000 wLong=  0.200000 cFull=  0.222036 cShort=  0.000000 cLong=  0.777964
 DFx  wShort=  0.000000 wLong=  0.200000 cFull=  0.000000 cShort=  0.000000 cLong=  1.000000
 NAtoms=   10 NActive=   10 NUniq=   10 SFac= 1.00D+00 NAtFMM=   60 NAOKFM=F Big=F
 Integral buffers will be    131072 words long.
 Raffenetti 2 integral format.
 Two-electron integral symmetry is turned on.
 R6Disp:  Grimme-D2 Dispersion energy=       -0.0032575027 Hartrees.
 Nuclear repulsion after empirical dispersion term =      118.7341114591 Hartrees.
 No density basis found on file   724.
 ------------------------------------------------------------------------------
 Polarizable Continuum Model (PCM)
 =================================
 Model                : PCM.
 Atomic radii         : SMD-Coulomb.
 Polarization charges : Total charges.
 Charge compensation  : None.
 Solution method      : On-the-fly selection.
 Cavity type          : VdW (van der Waals Surface) (Alpha=1.000).
 Cavity algorithm     : GePol (No added spheres)
                        Default sphere list used, NSphG=   10.
                        Lebedev-Laikov grids with approx.  5.0 points / Ang**2.
                        Smoothing algorithm: York/Karplus (Gamma=1.0000).
                        Polarization charges: spherical gaussians, with
                                              point-specific exponents (IZeta= 3).
                        Self-potential: point-specific (ISelfS= 7).
                        Self-field    : sphere-specific E.n sum rule (ISelfD= 2).
 1st derivatives      : Analytical E(r).r(x)/FMM algorithm (CHGder, D1EAlg=3).
                        Cavity 1st derivative terms included.
 Solvent              : Toluene, Eps=   2.374100 Eps(inf)=   2.238315
 ------------------------------------------------------------------------------
 Spheres list:
 ISph  on   Nord     Re0    Alpha      Xe            Ye            Ze
    1   C      1    1.8500  1.000     -0.926138      0.418273      0.003201
    2   H      2    1.2000  1.000     -1.583634      1.312419     -0.005282
    3   C      3    1.8500  1.000      0.541380      0.721576     -0.000597
    4   H      4    1.2000  1.000      0.724675      1.362368     -0.871335
    5   H      5    1.2000  1.000      0.727928      1.365783      0.866905
    6   C      6    1.8500  1.000      1.444179     -0.496669      0.000086
    7   H      7    1.2000  1.000      2.492319     -0.194976     -0.002617
    8   H      8    1.2000  1.000      1.269319     -1.114544      0.881649
    9   H      9    1.2000  1.000      1.265830     -1.118138     -0.878249
   10   O     10    2.2940  1.000     -1.406620     -0.683999     -0.000902
 ------------------------------------------------------------------------------
 GePol: Number of generator spheres                  =      10
 GePol: Total number of spheres                      =      10
 GePol: Number of exposed spheres                    =      10 (100.00%)
 GePol: Number of points                             =     924
 GePol: Average weight of points                     =       0.12
 GePol: Minimum weight of points                     =   0.84D-11
 GePol: Maximum weight of points                     =    0.17992
 GePol: Number of points with low weight             =      58
 GePol: Fraction of low-weight points (<1% of avg)   =       6.28%
 GePol: Cavity surface area                          =    111.294 Ang**2
 GePol: Cavity volume                                =     92.311 Ang**3
 ------------------------------------------------------------------------------
 Atomic radii for non-electrostatic terms: SMD-CDS.
 ------------------------------------------------------------------------------
 PCM non-electrostatic energy =        -0.0029662538 Hartrees.
 Nuclear repulsion after PCM non-electrostatic terms =      118.7311452053 Hartrees.
 Leave Link  301 at Thu Jul 20 11:14:27 2023, MaxMem=  2952790016 cpu:               1.4 elap:               0.1
 (Enter /mnt/data/applications/G16/g16/l302.exe)
 NPDir=0 NMtPBC=     1 NCelOv=     1 NCel=       1 NClECP=     1 NCelD=      1
         NCelK=      1 NCelE2=     1 NClLst=     1 CellRange=     0.0.
 One-electron integrals computed using PRISM.
 One-electron integral symmetry used in STVInt
   1 Symmetry operations used in ECPInt.
 ECPInt:  NShTT=    2346 NPrTT=    6892 LenC2=    2338 LenP2D=    5955.
 LDataN:  DoStor=T MaxTD1= 6 Len=  172
 NBasis=   160 RedAO= T EigKep=  3.28D-04  NBF=   160
 NBsUse=   160 1.00D-06 EigRej= -1.00D+00 NBFU=   160
 Precomputing XC quadrature grid using
 IXCGrd= 4 IRadAn=           5 IRanWt=          -1 IRanGd=           0 AccXCQ= 0.00D+00.
 Generated NRdTot=       0 NPtTot=           0 NUsed=           0 NTot=          32
 NSgBfM=   179   179   179   179   179 MxSgAt=    10 MxSgA2=    10.
 Leave Link  302 at Thu Jul 20 11:14:27 2023, MaxMem=  2952790016 cpu:               3.4 elap:               0.3
 (Enter /mnt/data/applications/G16/g16/l303.exe)
 DipDrv:  MaxL=1.
 Leave Link  303 at Thu Jul 20 11:14:27 2023, MaxMem=  2952790016 cpu:               0.4 elap:               0.0
 (Enter /mnt/data/applications/G16/g16/l401.exe)
 Initial guess from the checkpoint file:  "prod.chk"
 B after Tr=     0.000000   -0.000000    0.000000
         Rot=    1.000000    0.000359   -0.000136    0.000018 Ang=   0.04 deg.
 Guess basis will be translated and rotated to current coordinates.
 JPrj=2 DoOrth=T DoCkMO=T.
 Leave Link  401 at Thu Jul 20 11:14:27 2023, MaxMem=  2952790016 cpu:               1.7 elap:               0.2
 (Enter /mnt/data/applications/G16/g16/l502.exe)
 Keep R1 ints in memory in canonical form, NReq=178007602.
 FoFCou: FMM=F IPFlag=           0 FMFlag=           0 FMFlg1=           0
         NFxFlg=           0 DoJE=F BraDBF=F KetDBF=F FulRan=T
         wScrn=  0.000000 ICntrl=       600 IOpCl=  0 I1Cent=           0 NGrid=           0
         NMat0=    1 NMatS0=  12880 NMatT0=    0 NMatD0=    1 NMtDS0=    0 NMtDT0=    0
 Symmetry not used in FoFCou.
 Two-electron integral symmetry not used.
 Closed shell SCF:
 Using DIIS extrapolation, IDIIS=  1040.
 NGot=  2952790016 LenX=  2786813986 LenY=  2786781145
 Requested convergence on RMS density matrix=1.00D-08 within 128 cycles.
 Requested convergence on MAX density matrix=1.00D-06.
 Requested convergence on             energy=1.00D-06.
 No special actions if energy rises.

 Cycle   1  Pass 1  IDiag  1:
 Inv3:  Mode=1 IEnd=     2561328.
 Iteration    1 A*A^-1 deviation from unit magnitude is 2.00D-15 for    128.
 Iteration    1 A*A^-1 deviation from orthogonality  is 1.15D-15 for    565    503.
 Iteration    1 A^-1*A deviation from unit magnitude is 1.55D-15 for    122.
 Iteration    1 A^-1*A deviation from orthogonality  is 2.07D-15 for    353    248.
 E= -193.165514242211    
 DIIS: error= 2.63D-04 at cycle   1 NSaved=   1.
 NSaved= 1 IEnMin= 1 EnMin= -193.165514242211     IErMin= 1 ErrMin= 2.63D-04
 ErrMax= 2.63D-04  0.00D+00 EMaxC= 1.00D-01 BMatC= 1.55D-05 BMatP= 1.55D-05
 IDIUse=3 WtCom= 9.97D-01 WtEn= 2.63D-03
 Coeff-Com:  0.100D+01
 Coeff-En:   0.100D+01
 Coeff:      0.100D+01
 Gap=     0.820 Goal=   None    Shift=    0.000
 RMSDP=2.48D-05 MaxDP=7.25D-04              OVMax= 1.26D-03

 Cycle   2  Pass 1  IDiag  1:
 E= -193.165533537391     Delta-E=       -0.000019295180 Rises=F Damp=F
 DIIS: error= 4.73D-05 at cycle   2 NSaved=   2.
 NSaved= 2 IEnMin= 2 EnMin= -193.165533537391     IErMin= 2 ErrMin= 4.73D-05
 ErrMax= 4.73D-05  0.00D+00 EMaxC= 1.00D-01 BMatC= 5.28D-07 BMatP= 1.55D-05
 IDIUse=1 WtCom= 1.00D+00 WtEn= 0.00D+00
 Coeff-Com: -0.137D+00 0.114D+01
 Coeff:     -0.137D+00 0.114D+01
 Gap=     0.394 Goal=   None    Shift=    0.000
 RMSDP=7.17D-06 MaxDP=1.56D-04 DE=-1.93D-05 OVMax= 4.92D-04

 Cycle   3  Pass 1  IDiag  1:
 E= -193.165534898928     Delta-E=       -0.000001361537 Rises=F Damp=F
 DIIS: error= 1.55D-05 at cycle   3 NSaved=   3.
 NSaved= 3 IEnMin= 3 EnMin= -193.165534898928     IErMin= 3 ErrMin= 1.55D-05
 ErrMax= 1.55D-05  0.00D+00 EMaxC= 1.00D-01 BMatC= 3.35D-08 BMatP= 5.28D-07
 IDIUse=1 WtCom= 1.00D+00 WtEn= 0.00D+00
 Coeff-Com: -0.170D-01 0.859D-02 0.101D+01
 Coeff:     -0.170D-01 0.859D-02 0.101D+01
 Gap=     0.394 Goal=   None    Shift=    0.000
 RMSDP=2.18D-06 MaxDP=4.69D-05 DE=-1.36D-06 OVMax= 2.20D-04

 Cycle   4  Pass 1  IDiag  1:
 E= -193.165535008906     Delta-E=       -0.000000109978 Rises=F Damp=F
 DIIS: error= 8.63D-06 at cycle   4 NSaved=   4.
 NSaved= 4 IEnMin= 4 EnMin= -193.165535008906     IErMin= 4 ErrMin= 8.63D-06
 ErrMax= 8.63D-06  0.00D+00 EMaxC= 1.00D-01 BMatC= 1.63D-08 BMatP= 3.35D-08
 IDIUse=1 WtCom= 1.00D+00 WtEn= 0.00D+00
 Coeff-Com:  0.592D-02-0.106D+00 0.398D+00 0.702D+00
 Coeff:      0.592D-02-0.106D+00 0.398D+00 0.702D+00
 Gap=     0.394 Goal=   None    Shift=    0.000
 RMSDP=1.08D-06 MaxDP=3.58D-05 DE=-1.10D-07 OVMax= 1.06D-04

 Cycle   5  Pass 1  IDiag  1:
 E= -193.165535034691     Delta-E=       -0.000000025785 Rises=F Damp=F
 DIIS: error= 4.85D-06 at cycle   5 NSaved=   5.
 NSaved= 5 IEnMin= 5 EnMin= -193.165535034691     IErMin= 5 ErrMin= 4.85D-06
 ErrMax= 4.85D-06  0.00D+00 EMaxC= 1.00D-01 BMatC= 4.76D-09 BMatP= 1.63D-08
 IDIUse=1 WtCom= 1.00D+00 WtEn= 0.00D+00
 Coeff-Com:  0.750D-02-0.605D-01-0.442D-01 0.363D+00 0.735D+00
 Coeff:      0.750D-02-0.605D-01-0.442D-01 0.363D+00 0.735D+00
 Gap=     0.394 Goal=   None    Shift=    0.000
 RMSDP=6.35D-07 MaxDP=1.38D-05 DE=-2.58D-08 OVMax= 7.90D-05

 Cycle   6  Pass 1  IDiag  1:
 E= -193.165535044592     Delta-E=       -0.000000009901 Rises=F Damp=F
 DIIS: error= 2.71D-06 at cycle   6 NSaved=   6.
 NSaved= 6 IEnMin= 6 EnMin= -193.165535044592     IErMin= 6 ErrMin= 2.71D-06
 ErrMax= 2.71D-06  0.00D+00 EMaxC= 1.00D-01 BMatC= 3.88D-10 BMatP= 4.76D-09
 IDIUse=1 WtCom= 1.00D+00 WtEn= 0.00D+00
 Coeff-Com: -0.981D-03 0.232D-01-0.856D-01-0.144D+00 0.177D-01 0.119D+01
 Coeff:     -0.981D-03 0.232D-01-0.856D-01-0.144D+00 0.177D-01 0.119D+01
 Gap=     0.394 Goal=   None    Shift=    0.000
 RMSDP=4.18D-07 MaxDP=9.99D-06 DE=-9.90D-09 OVMax= 5.93D-05

 Cycle   7  Pass 1  IDiag  1:
 E= -193.165535047026     Delta-E=       -0.000000002434 Rises=F Damp=F
 DIIS: error= 7.81D-07 at cycle   7 NSaved=   7.
 NSaved= 7 IEnMin= 7 EnMin= -193.165535047026     IErMin= 7 ErrMin= 7.81D-07
 ErrMax= 7.81D-07  0.00D+00 EMaxC= 1.00D-01 BMatC= 4.63D-11 BMatP= 3.88D-10
 IDIUse=1 WtCom= 1.00D+00 WtEn= 0.00D+00
 Coeff-Com: -0.101D-02 0.108D-01-0.118D-01-0.609D-01-0.742D-01 0.180D+00
 Coeff-Com:  0.957D+00
 Coeff:     -0.101D-02 0.108D-01-0.118D-01-0.609D-01-0.742D-01 0.180D+00
 Coeff:      0.957D+00
 Gap=     0.394 Goal=   None    Shift=    0.000
 RMSDP=1.26D-07 MaxDP=2.86D-06 DE=-2.43D-09 OVMax= 1.74D-05

 Cycle   8  Pass 1  IDiag  1:
 E= -193.165535047263     Delta-E=       -0.000000000237 Rises=F Damp=F
 DIIS: error= 2.46D-07 at cycle   8 NSaved=   8.
 NSaved= 8 IEnMin= 8 EnMin= -193.165535047263     IErMin= 8 ErrMin= 2.46D-07
 ErrMax= 2.46D-07  0.00D+00 EMaxC= 1.00D-01 BMatC= 7.45D-12 BMatP= 4.63D-11
 IDIUse=1 WtCom= 1.00D+00 WtEn= 0.00D+00
 Coeff-Com:  0.193D-04-0.250D-02 0.113D-01 0.173D-01-0.943D-02-0.189D+00
 Coeff-Com:  0.160D+00 0.101D+01
 Coeff:      0.193D-04-0.250D-02 0.113D-01 0.173D-01-0.943D-02-0.189D+00
 Coeff:      0.160D+00 0.101D+01
 Gap=     0.394 Goal=   None    Shift=    0.000
 RMSDP=5.37D-08 MaxDP=1.35D-06 DE=-2.37D-10 OVMax= 6.84D-06

 Cycle   9  Pass 1  IDiag  1:
 E= -193.165535047296     Delta-E=       -0.000000000033 Rises=F Damp=F
 DIIS: error= 4.71D-08 at cycle   9 NSaved=   9.
 NSaved= 9 IEnMin= 9 EnMin= -193.165535047296     IErMin= 9 ErrMin= 4.71D-08
 ErrMax= 4.71D-08  0.00D+00 EMaxC= 1.00D-01 BMatC= 4.44D-13 BMatP= 7.45D-12
 IDIUse=1 WtCom= 1.00D+00 WtEn= 0.00D+00
 Coeff-Com:  0.923D-04-0.118D-02 0.223D-02 0.765D-02 0.632D-02-0.360D-01
 Coeff-Com: -0.806D-01 0.825D-01 0.102D+01
 Coeff:      0.923D-04-0.118D-02 0.223D-02 0.765D-02 0.632D-02-0.360D-01
 Coeff:     -0.806D-01 0.825D-01 0.102D+01
 Gap=     0.394 Goal=   None    Shift=    0.000
 RMSDP=1.30D-08 MaxDP=3.55D-07 DE=-3.33D-11 OVMax= 1.35D-06

 Cycle  10  Pass 1  IDiag  1:
 E= -193.165535047300     Delta-E=       -0.000000000004 Rises=F Damp=F
 DIIS: error= 1.10D-08 at cycle  10 NSaved=  10.
 NSaved=10 IEnMin=10 EnMin= -193.165535047300     IErMin=10 ErrMin= 1.10D-08
 ErrMax= 1.10D-08  0.00D+00 EMaxC= 1.00D-01 BMatC= 3.96D-14 BMatP= 4.44D-13
 IDIUse=1 WtCom= 1.00D+00 WtEn= 0.00D+00
 Coeff-Com:  0.239D-04-0.167D-03-0.151D-04 0.103D-02 0.202D-02 0.196D-02
 Coeff-Com: -0.300D-01-0.400D-01 0.250D+00 0.815D+00
 Coeff:      0.239D-04-0.167D-03-0.151D-04 0.103D-02 0.202D-02 0.196D-02
 Coeff:     -0.300D-01-0.400D-01 0.250D+00 0.815D+00
 Gap=     0.394 Goal=   None    Shift=    0.000
 RMSDP=2.00D-09 MaxDP=4.49D-08 DE=-3.81D-12 OVMax= 1.31D-07

 Error on total polarization charges =  0.01587
 SCF Done:  E(RwB97XD) =  -193.165535047     A.U. after   10 cycles
            NFock= 10  Conv=0.20D-08     -V/T= 2.0048
 KE= 1.922450810533D+02 PE=-6.883985377667D+02 EE= 1.842567764607D+02
 SMD-CDS (non-electrostatic) energy       (kcal/mol) =      -1.86
 (included in total energy above)
 Leave Link  502 at Thu Jul 20 11:14:48 2023, MaxMem=  2952790016 cpu:             225.6 elap:              20.6
 (Enter /mnt/data/applications/G16/g16/l701.exe)
 ... and contract with generalized density number  0.
 Compute integral first derivatives.
 R6Disp: Adding Grimme-D2 dispersion energy 1st derivatives to the gradient.
   1 Symmetry operations used in ECPInt.
 ECPInt:  NShTT=    2346 NPrTT=    6892 LenC2=    2338 LenP2D=    5955.
 LDataN:  DoStor=T MaxTD1= 7 Len=  274
 D1PCM: PCM CHGder 1st derivatives, ID1Alg=3 FixD1E=F DoIter=F DoCFld=F I1PDM=0.
 GePol: Maximum number of non-zero 1st derivatives   =     365
 Leave Link  701 at Thu Jul 20 11:14:50 2023, MaxMem=  2952790016 cpu:              17.3 elap:               1.5
 (Enter /mnt/data/applications/G16/g16/l702.exe)
 L702 exits ... SP integral derivatives will be done elsewhere.
 Leave Link  702 at Thu Jul 20 11:14:50 2023, MaxMem=  2952790016 cpu:               0.2 elap:               0.0
 (Enter /mnt/data/applications/G16/g16/l703.exe)
 Integral derivatives from FoFJK, PRISM(SPDF).
 Compute integral first derivatives, UseDBF=F ICtDFT=           0.
 Calling FoFJK, ICntrl=      2127 FMM=F ISym2X=0 I1Cent= 0 IOpClX= 0 NMat=1 NMatS=1 NMatT=0.
 FoFJK:  IHMeth= 1 ICntrl=    2127 DoSepK=T KAlg= 0 I1Cent=           0 FoldK=F
 IRaf=         1 NMat=       1 IRICut=       1 DoRegI=T DoRafI=F ISym2E= 0 IDoP0=0 IntGTp=1.
 FoFCou: FMM=F IPFlag=           0 FMFlag=      100000 FMFlg1=         800
         NFxFlg=           0 DoJE=F BraDBF=F KetDBF=F FulRan=T
         wScrn=  0.000000 ICntrl=      2527 IOpCl=  0 I1Cent=           0 NGrid=           0
         NMat0=    1 NMatS0=      1 NMatT0=    0 NMatD0=    1 NMtDS0=    0 NMtDT0=    0
 Symmetry not used in FoFCou.
 Leave Link  703 at Thu Jul 20 11:14:59 2023, MaxMem=  2952790016 cpu:             107.5 elap:               9.0
 (Enter /mnt/data/applications/G16/g16/l716.exe)
 Dipole        = 7.04600548D-01 1.01303305D+00 2.85116155D-04
 ***** Axes restored to original set *****
 -------------------------------------------------------------------
 Center     Atomic                   Forces (Hartrees/Bohr)
 Number     Number              X              Y              Z
 -------------------------------------------------------------------
      1        6           0.000040416    0.000065008   -0.001942589
      2        1          -0.000013300   -0.000016366    0.000650996
      3        6           0.000009589   -0.000012209    0.000650872
      4        1          -0.000140671   -0.000029073   -0.000006069
      5        1           0.000127052    0.000035139   -0.000004468
      6        6           0.000005578    0.000005256    0.000003376
      7        1          -0.000000041    0.000001741    0.000004881
      8        1           0.000009678   -0.000001466    0.000000878
      9        1          -0.000004342    0.000008039    0.000004851
     10        8          -0.000033960   -0.000056068    0.000637272
 -------------------------------------------------------------------
 Cartesian Forces:  Max     0.001942589 RMS     0.000411356
 Leave Link  716 at Thu Jul 20 11:14:59 2023, MaxMem=  2952790016 cpu:               0.2 elap:               0.0
 (Enter /mnt/data/applications/G16/g16/l103.exe)

 GradGradGradGradGradGradGradGradGradGradGradGradGradGradGradGradGradGrad
 Berny optimization.
 Using GEDIIS/GDIIS optimizer.
 FormGI is forming the generalized inverse of G from B-inverse, IUseBI=4.
 Internal  Forces:  Max     0.000418651 RMS     0.000164822
 Search for a local minimum.
 Step number   2 out of a maximum of   49
 All quantities printed in internal units (Hartrees-Bohrs-Radians)
 RMS Force = .16482D-03 SwitMx=.10000D-02 MixMth= 2
 Mixed Optimization -- En-DIIS/RFO-DIIS
 Swapping is turned off.
 Update second derivatives using D2CorX and points    1    2
 DE=  9.07D-06 DEPred=-2.12D-06 R=-4.28D+00
 Trust test=-4.28D+00 RLast= 2.25D-02 DXMaxT set to 5.00D-02
 ITU= -1  0
     Eigenvalues ---    0.00549   0.00784   0.03751   0.05205   0.05284
     Eigenvalues ---    0.05645   0.05683   0.10009   0.13525   0.15967
     Eigenvalues ---    0.16000   0.16000   0.16008   0.21896   0.21972
     Eigenvalues ---    0.30656   0.32389   0.32568   0.33876   0.34095
     Eigenvalues ---    0.34585   0.34745   0.34749   1.01318
 En-DIIS/RFO-DIIS/Sim-DIIS IScMMF=       -3 using points:     2    1
 RFO step:  Lambda=-1.89736085D-05.
 NNeg= 0 NGDIIS= 2 SimSw=  2.50D-03 Rises=T DC=  9.07D-06 SmlDif=  1.00D-05
 NRisDI= 1 DoIntr=F SqrtH=F CThrHd= 10.0 CDAdj=  3.0
 RMS Error=  0.3049318045D-02 NUsed= 2 OKEnD=T EnDIS=T
 InvSVX:  RCond= 5.67D-04 Info=           0 Equed=N FErr=  1.03D-15 BErr=  7.83D-17
 IWarn =    0
 DidBck=T Rises=T En-DIIS coefs:    0.32936    0.67064
 Iteration  1 RMS(Cart)=  0.00201692 RMS(Int)=  0.00000990
 Iteration  2 RMS(Cart)=  0.00001050 RMS(Int)=  0.00000066
 Iteration  3 RMS(Cart)=  0.00000000 RMS(Int)=  0.00000066
 ITry= 1 IFail=0 DXMaxC= 7.13D-03 DCOld= 1.00D+10 DXMaxT= 5.00D-02 DXLimC= 3.00D+00 Rises=F
 Variable       Old X    -DE/DX   Delta X   Delta X   Delta X     New X
                                 (Linear)    (Quad)   (Total)
    R1        2.09740  -0.00001  -0.00015   0.00016   0.00001   2.09741
    R2        2.83183   0.00000   0.00010  -0.00011  -0.00001   2.83182
    R3        2.27230   0.00006  -0.00022   0.00024   0.00002   2.27232
    R4        2.07216  -0.00004  -0.00014   0.00014  -0.00001   2.07215
    R5        2.07213   0.00004  -0.00012   0.00014   0.00003   2.07215
    R6        2.86539  -0.00000   0.00011  -0.00012  -0.00001   2.86538
    R7        2.06112  -0.00000  -0.00012   0.00013   0.00001   2.06113
    R8        2.06101   0.00000  -0.00012   0.00013   0.00001   2.06102
    R9        2.06102  -0.00001  -0.00012   0.00013   0.00001   2.06102
    A1        2.00100   0.00002  -0.00000   0.00006   0.00005   2.00105
    A2        2.09643  -0.00002  -0.00004   0.00006   0.00002   2.09644
    A3        2.18566   0.00002   0.00011  -0.00008   0.00004   2.18569
    A4        1.85875  -0.00014  -0.00005  -0.00020  -0.00026   1.85849
    A5        1.85825   0.00013   0.00032  -0.00010   0.00022   1.85847
    A6        2.00474   0.00001   0.00009  -0.00010  -0.00000   2.00474
    A7        1.83016  -0.00000  -0.00019   0.00020   0.00001   1.83017
    A8        1.95017   0.00009  -0.00007   0.00010   0.00003   1.95020
    A9        1.95020  -0.00008  -0.00011   0.00010  -0.00001   1.95019
   A10        1.92829   0.00000  -0.00000   0.00001   0.00001   1.92830
   A11        1.93914   0.00001   0.00010  -0.00010   0.00000   1.93914
   A12        1.93916  -0.00001   0.00008  -0.00010  -0.00002   1.93914
   A13        1.88891  -0.00001  -0.00007   0.00007  -0.00000   1.88891
   A14        1.88890   0.00001  -0.00006   0.00007   0.00001   1.88891
   A15        1.87750   0.00000  -0.00006   0.00006   0.00000   1.87750
    D1       -0.96494  -0.00041  -0.00625  -0.00176  -0.00801  -0.97295
    D2        0.98109  -0.00041  -0.00635  -0.00166  -0.00801   0.97308
    D3       -3.13369  -0.00042  -0.00618  -0.00167  -0.00785  -3.14154
    D4        2.16111   0.00040   0.00603   0.00151   0.00754   2.16865
    D5       -2.17605   0.00040   0.00593   0.00161   0.00754  -2.16851
    D6       -0.00764   0.00039   0.00610   0.00159   0.00769   0.00006
    D7       -3.14140  -0.00007  -0.00019  -0.00003  -0.00022   3.14156
    D8       -1.04462  -0.00007  -0.00021  -0.00001  -0.00022  -1.04484
    D9        1.04501  -0.00007  -0.00017  -0.00006  -0.00022   1.04478
   D10        1.02213   0.00004  -0.00013   0.00023   0.00010   1.02223
   D11        3.11891   0.00004  -0.00015   0.00026   0.00010   3.11901
   D12       -1.07465   0.00004  -0.00011   0.00020   0.00010  -1.07455
   D13       -1.02239   0.00004   0.00023  -0.00016   0.00007  -1.02232
   D14        1.07439   0.00004   0.00021  -0.00013   0.00007   1.07446
   D15       -3.11917   0.00003   0.00025  -0.00019   0.00007  -3.11910
         Item               Value     Threshold  Converged?
 Maximum Force            0.000419     0.000450     YES
 RMS     Force            0.000165     0.000300     YES
 Maximum Displacement     0.007130     0.001800     NO 
 RMS     Displacement     0.002017     0.001200     NO 
 Predicted change in Energy=-9.488763D-06
 GradGradGradGradGradGradGradGradGradGradGradGradGradGradGradGradGradGrad

 Leave Link  103 at Thu Jul 20 11:14:59 2023, MaxMem=  2952790016 cpu:               0.2 elap:               0.0
 (Enter /mnt/data/applications/G16/g16/l202.exe)
                          Input orientation:                          
 ---------------------------------------------------------------------
 Center     Atomic      Atomic             Coordinates (Angstroms)
 Number     Number       Type             X           Y           Z
 ---------------------------------------------------------------------
      1          6           0       -0.926046    0.418148    0.000082
      2          1           0       -1.583656    1.312256    0.000278
      3          6           0        0.541447    0.721581    0.000328
      4          1           0        0.726389    1.364415   -0.868551
      5          1           0        0.726210    1.363786    0.869712
      6          6           0        1.444344   -0.496585   -0.000012
      7          1           0        2.492467   -0.194807    0.000163
      8          1           0        1.267718   -1.116565    0.879725
      9          1           0        1.267843   -1.115979   -0.880188
     10          8           0       -1.406461   -0.684174   -0.000293
 ---------------------------------------------------------------------
                    Distance matrix (angstroms):
                    1          2          3          4          5
     1  C    0.000000
     2  H    1.109900   0.000000
     3  C    1.498536   2.205665   0.000000
     4  H    2.092962   2.468581   1.096535   0.000000
     5  H    2.092949   2.468613   1.096537   1.738263   0.000000
     6  C    2.540765   3.527136   1.516296   2.175578   2.175573
     7  H    3.473032   4.345805   2.155515   2.510950   2.510975
     8  H    2.818105   3.847458   2.163236   3.082980   2.538793
     9  H    2.818080   3.847414   2.163235   2.538831   3.082978
    10  O    1.202461   2.004278   2.402185   3.082148   3.082099
                    6          7          8          9         10
     6  C    0.000000
     7  H    1.090702   0.000000
     8  H    1.090646   1.767280   0.000000
     9  H    1.090647   1.767280   1.759913   0.000000
    10  O    2.856970   3.929519   2.848267   2.848258   0.000000
 Stoichiometry    C3H6O
 Framework group  C1[X(C3H6O)]
 Deg. of freedom    24
 Full point group                 C1      NOp   1
 RotChk:  IX=0 Diff= 2.59D-03
 Largest Abelian subgroup         C1      NOp   1
 Largest concise Abelian subgroup C1      NOp   1
                         Standard orientation:                         
 ---------------------------------------------------------------------
 Center     Atomic      Atomic             Coordinates (Angstroms)
 Number     Number       Type             X           Y           Z
 ---------------------------------------------------------------------
      1          6           0       -0.926124    0.418280   -0.000013
      2          1           0       -1.583649    1.312450   -0.000053
      3          6           0        0.541398    0.721575    0.000012
      4          1           0        0.726329    1.364109   -0.869090
      5          1           0        0.726293    1.364043    0.869173
      6          6           0        1.444180   -0.496677   -0.000008
      7          1           0        2.492331   -0.194998   -0.000018
      8          1           0        1.267568   -1.116355    0.879945
      9          1           0        1.267547   -1.116339   -0.879969
     10          8           0       -1.406643   -0.683997    0.000009
 ---------------------------------------------------------------------
 Rotational constants (GHZ):          17.0271201           5.8465812           4.5962691
 Leave Link  202 at Thu Jul 20 11:14:59 2023, MaxMem=  2952790016 cpu:               0.1 elap:               0.0
 (Enter /mnt/data/applications/G16/g16/l301.exe)
 Basis read from rwf:  (5D, 7F)
 Pseudo-potential data read from rwf file.
 There are   180 symmetry adapted cartesian basis functions of A   symmetry.
 There are   160 symmetry adapted basis functions of A   symmetry.
   160 basis functions,   252 primitive gaussians,   180 cartesian basis functions
    16 alpha electrons       16 beta electrons
       nuclear repulsion energy       118.7368603923 Hartrees.
 IExCor= 4639 DFT=T Ex+Corr=wB97XD ExCW=0 ScaHFX=  1.000000
 ScaDFX=  1.000000  1.000000  1.000000  1.000000 ScalE2=  1.000000  1.000000
 IRadAn=      5 IRanWt=     -1 IRanGd=            0 ICorTp=0 IEmpDi=121
 HFx  wShort=  0.000000 wLong=  0.200000 cFull=  0.222036 cShort=  0.000000 cLong=  0.777964
 DFx  wShort=  0.000000 wLong=  0.200000 cFull=  0.000000 cShort=  0.000000 cLong=  1.000000
 NAtoms=   10 NActive=   10 NUniq=   10 SFac= 1.00D+00 NAtFMM=   60 NAOKFM=F Big=F
 Integral buffers will be    131072 words long.
 Raffenetti 2 integral format.
 Two-electron integral symmetry is turned on.
 R6Disp:  Grimme-D2 Dispersion energy=       -0.0032575034 Hartrees.
 Nuclear repulsion after empirical dispersion term =      118.7336028889 Hartrees.
 No density basis found on file   724.
 ------------------------------------------------------------------------------
 Polarizable Continuum Model (PCM)
 =================================
 Model                : PCM.
 Atomic radii         : SMD-Coulomb.
 Polarization charges : Total charges.
 Charge compensation  : None.
 Solution method      : On-the-fly selection.
 Cavity type          : VdW (van der Waals Surface) (Alpha=1.000).
 Cavity algorithm     : GePol (No added spheres)
                        Default sphere list used, NSphG=   10.
                        Lebedev-Laikov grids with approx.  5.0 points / Ang**2.
                        Smoothing algorithm: York/Karplus (Gamma=1.0000).
                        Polarization charges: spherical gaussians, with
                                              point-specific exponents (IZeta= 3).
                        Self-potential: point-specific (ISelfS= 7).
                        Self-field    : sphere-specific E.n sum rule (ISelfD= 2).
 1st derivatives      : Analytical E(r).r(x)/FMM algorithm (CHGder, D1EAlg=3).
                        Cavity 1st derivative terms included.
 Solvent              : Toluene, Eps=   2.374100 Eps(inf)=   2.238315
 ------------------------------------------------------------------------------
 Spheres list:
 ISph  on   Nord     Re0    Alpha      Xe            Ye            Ze
    1   C      1    1.8500  1.000     -0.926124      0.418280     -0.000013
    2   H      2    1.2000  1.000     -1.583649      1.312450     -0.000053
    3   C      3    1.8500  1.000      0.541398      0.721575      0.000012
    4   H      4    1.2000  1.000      0.726329      1.364109     -0.869090
    5   H      5    1.2000  1.000      0.726293      1.364043      0.869173
    6   C      6    1.8500  1.000      1.444180     -0.496677     -0.000008
    7   H      7    1.2000  1.000      2.492331     -0.194998     -0.000018
    8   H      8    1.2000  1.000      1.267568     -1.116355      0.879945
    9   H      9    1.2000  1.000      1.267547     -1.116339     -0.879969
   10   O     10    2.2940  1.000     -1.406643     -0.683997      0.000009
 ------------------------------------------------------------------------------
 GePol: Number of generator spheres                  =      10
 GePol: Total number of spheres                      =      10
 GePol: Number of exposed spheres                    =      10 (100.00%)
 GePol: Number of points                             =     921
 GePol: Average weight of points                     =       0.12
 GePol: Minimum weight of points                     =   0.32D-09
 GePol: Maximum weight of points                     =    0.17992
 GePol: Number of points with low weight             =      55
 GePol: Fraction of low-weight points (<1% of avg)   =       5.97%
 GePol: Cavity surface area                          =    111.294 Ang**2
 GePol: Cavity volume                                =     92.311 Ang**3
 ------------------------------------------------------------------------------
 Atomic radii for non-electrostatic terms: SMD-CDS.
 ------------------------------------------------------------------------------
 PCM non-electrostatic energy =        -0.0029663000 Hartrees.
 Nuclear repulsion after PCM non-electrostatic terms =      118.7306365889 Hartrees.
 Leave Link  301 at Thu Jul 20 11:14:59 2023, MaxMem=  2952790016 cpu:               1.4 elap:               0.1
 (Enter /mnt/data/applications/G16/g16/l302.exe)
 NPDir=0 NMtPBC=     1 NCelOv=     1 NCel=       1 NClECP=     1 NCelD=      1
         NCelK=      1 NCelE2=     1 NClLst=     1 CellRange=     0.0.
 One-electron integrals computed using PRISM.
 One-electron integral symmetry used in STVInt
   1 Symmetry operations used in ECPInt.
 ECPInt:  NShTT=    2346 NPrTT=    6892 LenC2=    2338 LenP2D=    5955.
 LDataN:  DoStor=T MaxTD1= 6 Len=  172
 NBasis=   160 RedAO= T EigKep=  3.28D-04  NBF=   160
 NBsUse=   160 1.00D-06 EigRej= -1.00D+00 NBFU=   160
 Precomputing XC quadrature grid using
 IXCGrd= 4 IRadAn=           5 IRanWt=          -1 IRanGd=           0 AccXCQ= 0.00D+00.
 Generated NRdTot=       0 NPtTot=           0 NUsed=           0 NTot=          32
 NSgBfM=   179   179   179   179   179 MxSgAt=    10 MxSgA2=    10.
 Leave Link  302 at Thu Jul 20 11:14:59 2023, MaxMem=  2952790016 cpu:               3.3 elap:               0.3
 (Enter /mnt/data/applications/G16/g16/l303.exe)
 DipDrv:  MaxL=1.
 Leave Link  303 at Thu Jul 20 11:14:59 2023, MaxMem=  2952790016 cpu:               0.4 elap:               0.0
 (Enter /mnt/data/applications/G16/g16/l401.exe)
 Initial guess from the checkpoint file:  "prod.chk"
 B after Tr=    -0.000000    0.000000   -0.000000
         Rot=    1.000000   -0.000304    0.000115    0.000004 Ang=  -0.04 deg.
 Guess basis will be translated and rotated to current coordinates.
 JPrj=2 DoOrth=T DoCkMO=T.
 Leave Link  401 at Thu Jul 20 11:14:59 2023, MaxMem=  2952790016 cpu:               1.7 elap:               0.2
 (Enter /mnt/data/applications/G16/g16/l502.exe)
 Keep R1 ints in memory in canonical form, NReq=178007602.
 FoFCou: FMM=F IPFlag=           0 FMFlag=           0 FMFlg1=           0
         NFxFlg=           0 DoJE=F BraDBF=F KetDBF=F FulRan=T
         wScrn=  0.000000 ICntrl=       600 IOpCl=  0 I1Cent=           0 NGrid=           0
         NMat0=    1 NMatS0=  12880 NMatT0=    0 NMatD0=    1 NMtDS0=    0 NMtDT0=    0
 Symmetry not used in FoFCou.
 Two-electron integral symmetry not used.
 Closed shell SCF:
 Using DIIS extrapolation, IDIIS=  1040.
 NGot=  2952790016 LenX=  2786813986 LenY=  2786781145
 Requested convergence on RMS density matrix=1.00D-08 within 128 cycles.
 Requested convergence on MAX density matrix=1.00D-06.
 Requested convergence on             energy=1.00D-06.
 No special actions if energy rises.

 Cycle   1  Pass 1  IDiag  1:
 Inv3:  Mode=1 IEnd=     2544723.
 Iteration    1 A*A^-1 deviation from unit magnitude is 3.11D-15 for    240.
 Iteration    1 A*A^-1 deviation from orthogonality  is 1.11D-15 for    442    117.
 Iteration    1 A^-1*A deviation from unit magnitude is 2.89D-15 for    240.
 Iteration    1 A^-1*A deviation from orthogonality  is 9.92D-16 for    640     86.
 E= -193.165529655867    
 DIIS: error= 2.23D-04 at cycle   1 NSaved=   1.
 NSaved= 1 IEnMin= 1 EnMin= -193.165529655867     IErMin= 1 ErrMin= 2.23D-04
 ErrMax= 2.23D-04  0.00D+00 EMaxC= 1.00D-01 BMatC= 1.11D-05 BMatP= 1.11D-05
 IDIUse=3 WtCom= 9.98D-01 WtEn= 2.23D-03
 Coeff-Com:  0.100D+01
 Coeff-En:   0.100D+01
 Coeff:      0.100D+01
 Gap=     0.820 Goal=   None    Shift=    0.000
 RMSDP=2.10D-05 MaxDP=6.14D-04              OVMax= 1.07D-03

 Cycle   2  Pass 1  IDiag  1:
 E= -193.165543459898     Delta-E=       -0.000013804031 Rises=F Damp=F
 DIIS: error= 4.00D-05 at cycle   2 NSaved=   2.
 NSaved= 2 IEnMin= 2 EnMin= -193.165543459898     IErMin= 2 ErrMin= 4.00D-05
 ErrMax= 4.00D-05  0.00D+00 EMaxC= 1.00D-01 BMatC= 3.76D-07 BMatP= 1.11D-05
 IDIUse=1 WtCom= 1.00D+00 WtEn= 0.00D+00
 Coeff-Com: -0.138D+00 0.114D+01
 Coeff:     -0.138D+00 0.114D+01
 Gap=     0.394 Goal=   None    Shift=    0.000
 RMSDP=6.05D-06 MaxDP=1.32D-04 DE=-1.38D-05 OVMax= 4.19D-04

 Cycle   3  Pass 1  IDiag  1:
 E= -193.165544438535     Delta-E=       -0.000000978637 Rises=F Damp=F
 DIIS: error= 1.32D-05 at cycle   3 NSaved=   3.
 NSaved= 3 IEnMin= 3 EnMin= -193.165544438535     IErMin= 3 ErrMin= 1.32D-05
 ErrMax= 1.32D-05  0.00D+00 EMaxC= 1.00D-01 BMatC= 1.97D-08 BMatP= 3.76D-07
 IDIUse=1 WtCom= 1.00D+00 WtEn= 0.00D+00
 Coeff-Com: -0.108D-01-0.419D-01 0.105D+01
 Coeff:     -0.108D-01-0.419D-01 0.105D+01
 Gap=     0.394 Goal=   None    Shift=    0.000
 RMSDP=1.79D-06 MaxDP=4.15D-05 DE=-9.79D-07 OVMax= 1.94D-04

 Cycle   4  Pass 1  IDiag  1:
 E= -193.165544521499     Delta-E=       -0.000000082965 Rises=F Damp=F
 DIIS: error= 7.30D-06 at cycle   4 NSaved=   4.
 NSaved= 4 IEnMin= 4 EnMin= -193.165544521499     IErMin= 4 ErrMin= 7.30D-06
 ErrMax= 7.30D-06  0.00D+00 EMaxC= 1.00D-01 BMatC= 3.99D-09 BMatP= 1.97D-08
 IDIUse=1 WtCom= 1.00D+00 WtEn= 0.00D+00
 Coeff-Com:  0.107D-01-0.109D+00 0.949D-01 0.100D+01
 Coeff:      0.107D-01-0.109D+00 0.949D-01 0.100D+01
 Gap=     0.394 Goal=   None    Shift=    0.000
 RMSDP=9.12D-07 MaxDP=2.06D-05 DE=-8.30D-08 OVMax= 1.14D-04

 Cycle   5  Pass 1  IDiag  1:
 E= -193.165544538005     Delta-E=       -0.000000016506 Rises=F Damp=F
 DIIS: error= 3.15D-06 at cycle   5 NSaved=   5.
 NSaved= 5 IEnMin= 5 EnMin= -193.165544538005     IErMin= 5 ErrMin= 3.15D-06
 ErrMax= 3.15D-06  0.00D+00 EMaxC= 1.00D-01 BMatC= 1.20D-09 BMatP= 3.99D-09
 IDIUse=1 WtCom= 1.00D+00 WtEn= 0.00D+00
 Coeff-Com:  0.514D-02-0.344D-01-0.740D-01 0.359D+00 0.745D+00
 Coeff:      0.514D-02-0.344D-01-0.740D-01 0.359D+00 0.745D+00
 Gap=     0.394 Goal=   None    Shift=    0.000
 RMSDP=3.72D-07 MaxDP=9.04D-06 DE=-1.65D-08 OVMax= 4.56D-05

 Cycle   6  Pass 1  IDiag  1:
 E= -193.165544541047     Delta-E=       -0.000000003042 Rises=F Damp=F
 DIIS: error= 1.92D-06 at cycle   6 NSaved=   6.
 NSaved= 6 IEnMin= 6 EnMin= -193.165544541047     IErMin= 6 ErrMin= 1.92D-06
 ErrMax= 1.92D-06  0.00D+00 EMaxC= 1.00D-01 BMatC= 4.80D-10 BMatP= 1.20D-09
 IDIUse=1 WtCom= 1.00D+00 WtEn= 0.00D+00
 Coeff-Com: -0.160D-02 0.281D-01-0.835D-01-0.224D+00 0.418D+00 0.863D+00
 Coeff:     -0.160D-02 0.281D-01-0.835D-01-0.224D+00 0.418D+00 0.863D+00
 Gap=     0.394 Goal=   None    Shift=    0.000
 RMSDP=2.98D-07 MaxDP=6.89D-06 DE=-3.04D-09 OVMax= 4.12D-05

 Cycle   7  Pass 1  IDiag  1:
 E= -193.165544542429     Delta-E=       -0.000000001382 Rises=F Damp=F
 DIIS: error= 5.68D-07 at cycle   7 NSaved=   7.
 NSaved= 7 IEnMin= 7 EnMin= -193.165544542429     IErMin= 7 ErrMin= 5.68D-07
 ErrMax= 5.68D-07  0.00D+00 EMaxC= 1.00D-01 BMatC= 1.76D-11 BMatP= 4.80D-10
 IDIUse=1 WtCom= 1.00D+00 WtEn= 0.00D+00
 Coeff-Com: -0.392D-03 0.584D-03 0.130D-01-0.586D-02-0.138D+00-0.106D+00
 Coeff-Com:  0.124D+01
 Coeff:     -0.392D-03 0.584D-03 0.130D-01-0.586D-02-0.138D+00-0.106D+00
 Coeff:      0.124D+01
 Gap=     0.394 Goal=   None    Shift=    0.000
 RMSDP=1.10D-07 MaxDP=2.59D-06 DE=-1.38D-09 OVMax= 1.52D-05

 Cycle   8  Pass 1  IDiag  1:
 E= -193.165544542559     Delta-E=       -0.000000000130 Rises=F Damp=F
 DIIS: error= 1.12D-07 at cycle   8 NSaved=   8.
 NSaved= 8 IEnMin= 8 EnMin= -193.165544542559     IErMin= 8 ErrMin= 1.12D-07
 ErrMax= 1.12D-07  0.00D+00 EMaxC= 1.00D-01 BMatC= 1.26D-12 BMatP= 1.76D-11
 IDIUse=1 WtCom= 1.00D+00 WtEn= 0.00D+00
 Coeff-Com:  0.169D-03-0.256D-02 0.613D-02 0.234D-01-0.299D-01-0.780D-01
 Coeff-Com: -0.929D-01 0.117D+01
 Coeff:      0.169D-03-0.256D-02 0.613D-02 0.234D-01-0.299D-01-0.780D-01
 Coeff:     -0.929D-01 0.117D+01
 Gap=     0.394 Goal=   None    Shift=    0.000
 RMSDP=2.91D-08 MaxDP=7.76D-07 DE=-1.30D-10 OVMax= 3.36D-06

 Cycle   9  Pass 1  IDiag  1:
 E= -193.165544542569     Delta-E=       -0.000000000010 Rises=F Damp=F
 DIIS: error= 1.79D-08 at cycle   9 NSaved=   9.
 NSaved= 9 IEnMin= 9 EnMin= -193.165544542569     IErMin= 9 ErrMin= 1.79D-08
 ErrMax= 1.79D-08  0.00D+00 EMaxC= 1.00D-01 BMatC= 6.69D-14 BMatP= 1.26D-12
 IDIUse=1 WtCom= 1.00D+00 WtEn= 0.00D+00
 Coeff-Com:  0.441D-04-0.365D-03 0.327D-03 0.346D-02 0.308D-02-0.433D-02
 Coeff-Com: -0.766D-01 0.133D+00 0.941D+00
 Coeff:      0.441D-04-0.365D-03 0.327D-03 0.346D-02 0.308D-02-0.433D-02
 Coeff:     -0.766D-01 0.133D+00 0.941D+00
 Gap=     0.394 Goal=   None    Shift=    0.000
 RMSDP=3.72D-09 MaxDP=9.47D-08 DE=-1.01D-11 OVMax= 2.89D-07

 Error on total polarization charges =  0.01587
 SCF Done:  E(RwB97XD) =  -193.165544543     A.U. after    9 cycles
            NFock=  9  Conv=0.37D-08     -V/T= 2.0048
 KE= 1.922449925091D+02 PE=-6.883974641871D+02 EE= 1.842562905465D+02
 SMD-CDS (non-electrostatic) energy       (kcal/mol) =      -1.86
 (included in total energy above)
 Leave Link  502 at Thu Jul 20 11:15:19 2023, MaxMem=  2952790016 cpu:             210.6 elap:              19.2
 (Enter /mnt/data/applications/G16/g16/l701.exe)
 ... and contract with generalized density number  0.
 Compute integral first derivatives.
 R6Disp: Adding Grimme-D2 dispersion energy 1st derivatives to the gradient.
   1 Symmetry operations used in ECPInt.
 ECPInt:  NShTT=    2346 NPrTT=    6892 LenC2=    2338 LenP2D=    5955.
 LDataN:  DoStor=T MaxTD1= 7 Len=  274
 D1PCM: PCM CHGder 1st derivatives, ID1Alg=3 FixD1E=F DoIter=F DoCFld=F I1PDM=0.
 GePol: Maximum number of non-zero 1st derivatives   =     363
 Leave Link  701 at Thu Jul 20 11:15:20 2023, MaxMem=  2952790016 cpu:              17.3 elap:               1.5
 (Enter /mnt/data/applications/G16/g16/l702.exe)
 L702 exits ... SP integral derivatives will be done elsewhere.
 Leave Link  702 at Thu Jul 20 11:15:20 2023, MaxMem=  2952790016 cpu:               0.2 elap:               0.0
 (Enter /mnt/data/applications/G16/g16/l703.exe)
 Integral derivatives from FoFJK, PRISM(SPDF).
 Compute integral first derivatives, UseDBF=F ICtDFT=           0.
 Calling FoFJK, ICntrl=      2127 FMM=F ISym2X=0 I1Cent= 0 IOpClX= 0 NMat=1 NMatS=1 NMatT=0.
 FoFJK:  IHMeth= 1 ICntrl=    2127 DoSepK=T KAlg= 0 I1Cent=           0 FoldK=F
 IRaf=         1 NMat=       1 IRICut=       1 DoRegI=T DoRafI=F ISym2E= 0 IDoP0=0 IntGTp=1.
 FoFCou: FMM=F IPFlag=           0 FMFlag=      100000 FMFlg1=         800
         NFxFlg=           0 DoJE=F BraDBF=F KetDBF=F FulRan=T
         wScrn=  0.000000 ICntrl=      2527 IOpCl=  0 I1Cent=           0 NGrid=           0
         NMat0=    1 NMatS0=      1 NMatT0=    0 NMatD0=    1 NMtDS0=    0 NMtDT0=    0
 Symmetry not used in FoFCou.
 Leave Link  703 at Thu Jul 20 11:15:29 2023, MaxMem=  2952790016 cpu:             107.4 elap:               9.0
 (Enter /mnt/data/applications/G16/g16/l716.exe)
 Dipole        = 7.04650468D-01 1.01307160D+00-7.42293076D-06
 ***** Axes restored to original set *****
 -------------------------------------------------------------------
 Center     Atomic                   Forces (Hartrees/Bohr)
 Number     Number              X              Y              Z
 -------------------------------------------------------------------
      1        6           0.000021654    0.000044093   -0.000000499
      2        1          -0.000004976   -0.000020471    0.000000366
      3        6           0.000002744   -0.000007524    0.000000996
      4        1          -0.000006134    0.000001468    0.000001877
      5        1          -0.000005780    0.000001812   -0.000002559
      6        6           0.000007304    0.000002557   -0.000000135
      7        1          -0.000002843    0.000000877    0.000000103
      8        1           0.000003627    0.000004133   -0.000004298
      9        1           0.000003822    0.000004293    0.000004272
     10        8          -0.000019417   -0.000031237   -0.000000124
 -------------------------------------------------------------------
 Cartesian Forces:  Max     0.000044093 RMS     0.000012289
 Leave Link  716 at Thu Jul 20 11:15:29 2023, MaxMem=  2952790016 cpu:               0.3 elap:               0.0
 (Enter /mnt/data/applications/G16/g16/l103.exe)

 GradGradGradGradGradGradGradGradGradGradGradGradGradGradGradGradGradGrad
 Berny optimization.
 Using GEDIIS/GDIIS optimizer.
 FormGI is forming the generalized inverse of G from B-inverse, IUseBI=4.
 Internal  Forces:  Max     0.000033127 RMS     0.000006648
 Search for a local minimum.
 Step number   3 out of a maximum of   49
 All quantities printed in internal units (Hartrees-Bohrs-Radians)
 RMS Force = .66484D-05 SwitMx=.10000D-02 MixMth= 2
 Mixed Optimization -- En-DIIS/RFO-DIIS
 Swapping is turned off.
 Update second derivatives using D2CorX and points    1    2    3
 DE= -9.50D-06 DEPred=-9.49D-06 R= 1.00D+00
 TightC=F SS=  1.41D+00  RLast= 1.90D-02 DXNew= 8.4090D-02 5.7147D-02
 Trust test= 1.00D+00 RLast= 1.90D-02 DXMaxT set to 5.71D-02
 ITU=  1 -1  0
     Eigenvalues ---    0.00549   0.00784   0.03752   0.05213   0.05284
     Eigenvalues ---    0.05643   0.05683   0.09963   0.13525   0.15911
     Eigenvalues ---    0.16000   0.16002   0.16074   0.21904   0.22034
     Eigenvalues ---    0.30682   0.32472   0.32713   0.33953   0.34095
     Eigenvalues ---    0.34734   0.34749   0.34750   0.98788
 En-DIIS/RFO-DIIS/Sim-DIIS IScMMF=       -3 using points:     3    2    1
 RFO step:  Lambda=-3.67292053D-09.
 NNeg= 0 NGDIIS= 3 SimSw=  2.50D-03 Rises=F DC= -9.50D-06 SmlDif=  1.00D-05
 NRisDI= 0 DoIntr=F SqrtH=F CThrHd= 10.0 CDAdj=  3.0
 RMS Error=  0.2542782484D-04 NUsed= 3 OKEnD=F EnDIS=F
 InvSVX:  RCond= 3.90D-07 Info=           0 Equed=N FErr=  1.52D-15 BErr=  8.94D-17
 DidBck=F Rises=F RFO-DIIS coefs:    0.98658    0.00191    0.01151
 Iteration  1 RMS(Cart)=  0.00002711 RMS(Int)=  0.00000002
 Iteration  2 RMS(Cart)=  0.00000000 RMS(Int)=  0.00000002
 ITry= 1 IFail=0 DXMaxC= 9.25D-05 DCOld= 1.00D+10 DXMaxT= 5.71D-02 DXLimC= 3.00D+00 Rises=F
 Variable       Old X    -DE/DX   Delta X   Delta X   Delta X     New X
                                 (Linear)    (Quad)   (Total)
    R1        2.09741  -0.00001  -0.00000  -0.00003  -0.00003   2.09737
    R2        2.83182   0.00000   0.00000  -0.00000   0.00000   2.83182
    R3        2.27232   0.00003  -0.00000   0.00004   0.00003   2.27236
    R4        2.07215  -0.00000  -0.00000  -0.00000  -0.00000   2.07215
    R5        2.07215  -0.00000  -0.00000  -0.00000  -0.00000   2.07215
    R6        2.86538   0.00000   0.00000   0.00000   0.00000   2.86539
    R7        2.06113  -0.00000  -0.00000  -0.00001  -0.00001   2.06112
    R8        2.06102  -0.00000  -0.00000  -0.00001  -0.00001   2.06101
    R9        2.06102  -0.00000  -0.00000  -0.00001  -0.00001   2.06101
    A1        2.00105   0.00001  -0.00000   0.00006   0.00006   2.00111
    A2        2.09644  -0.00001  -0.00000  -0.00008  -0.00008   2.09636
    A3        2.18569   0.00001   0.00000   0.00002   0.00003   2.18572
    A4        1.85849  -0.00000   0.00000  -0.00003  -0.00003   1.85846
    A5        1.85847  -0.00000   0.00000  -0.00003  -0.00003   1.85845
    A6        2.00474   0.00001   0.00000   0.00002   0.00003   2.00477
    A7        1.83017  -0.00000  -0.00000  -0.00001  -0.00002   1.83016
    A8        1.95020   0.00000  -0.00000   0.00002   0.00002   1.95022
    A9        1.95019   0.00000  -0.00000   0.00002   0.00002   1.95021
   A10        1.92830   0.00000  -0.00000   0.00003   0.00003   1.92833
   A11        1.93914  -0.00000   0.00000  -0.00001  -0.00001   1.93913
   A12        1.93914  -0.00000   0.00000  -0.00001  -0.00001   1.93913
   A13        1.88891  -0.00000  -0.00000  -0.00000  -0.00000   1.88890
   A14        1.88891  -0.00000  -0.00000  -0.00000  -0.00000   1.88891
   A15        1.87750  -0.00000  -0.00000  -0.00001  -0.00001   1.87749
    D1       -0.97295   0.00000   0.00000   0.00000   0.00000  -0.97295
    D2        0.97308  -0.00000  -0.00000  -0.00004  -0.00004   0.97304
    D3       -3.14154  -0.00000  -0.00000  -0.00002  -0.00002  -3.14156
    D4        2.16865   0.00000   0.00000  -0.00000   0.00000   2.16865
    D5       -2.16851  -0.00000   0.00000  -0.00004  -0.00004  -2.16855
    D6        0.00006   0.00000   0.00000  -0.00002  -0.00002   0.00004
    D7        3.14156  -0.00000  -0.00000   0.00001   0.00001   3.14157
    D8       -1.04484   0.00000  -0.00000   0.00002   0.00002  -1.04482
    D9        1.04478  -0.00000   0.00000  -0.00000  -0.00000   1.04478
   D10        1.02223   0.00000  -0.00000   0.00002   0.00002   1.02225
   D11        3.11901   0.00000  -0.00000   0.00003   0.00003   3.11904
   D12       -1.07455  -0.00000  -0.00000   0.00001   0.00001  -1.07455
   D13       -1.02232  -0.00000   0.00000   0.00001   0.00001  -1.02231
   D14        1.07446   0.00000   0.00000   0.00002   0.00002   1.07449
   D15       -3.11910  -0.00000   0.00000  -0.00000   0.00000  -3.11910
         Item               Value     Threshold  Converged?
 Maximum Force            0.000033     0.000450     YES
 RMS     Force            0.000007     0.000300     YES
 Maximum Displacement     0.000092     0.001800     YES
 RMS     Displacement     0.000027     0.001200     YES
 Predicted change in Energy=-2.216824D-09
 Optimization completed.
    -- Stationary point found.
                           ----------------------------
                           !   Optimized Parameters   !
                           ! (Angstroms and Degrees)  !
 --------------------------                            --------------------------
 ! Name  Definition              Value          Derivative Info.                !
 --------------------------------------------------------------------------------
 ! R1    R(1,2)                  1.1099         -DE/DX =    0.0                 !
 ! R2    R(1,3)                  1.4985         -DE/DX =    0.0                 !
 ! R3    R(1,10)                 1.2025         -DE/DX =    0.0                 !
 ! R4    R(3,4)                  1.0965         -DE/DX =    0.0                 !
 ! R5    R(3,5)                  1.0965         -DE/DX =    0.0                 !
 ! R6    R(3,6)                  1.5163         -DE/DX =    0.0                 !
 ! R7    R(6,7)                  1.0907         -DE/DX =    0.0                 !
 ! R8    R(6,8)                  1.0906         -DE/DX =    0.0                 !
 ! R9    R(6,9)                  1.0906         -DE/DX =    0.0                 !
 ! A1    A(2,1,3)              114.6518         -DE/DX =    0.0                 !
 ! A2    A(2,1,10)             120.1173         -DE/DX =    0.0                 !
 ! A3    A(3,1,10)             125.2309         -DE/DX =    0.0                 !
 ! A4    A(1,3,4)              106.4837         -DE/DX =    0.0                 !
 ! A5    A(1,3,5)              106.4827         -DE/DX =    0.0                 !
 ! A6    A(1,3,6)              114.8632         -DE/DX =    0.0                 !
 ! A7    A(4,3,5)              104.8613         -DE/DX =    0.0                 !
 ! A8    A(4,3,6)              111.7383         -DE/DX =    0.0                 !
 ! A9    A(5,3,6)              111.7378         -DE/DX =    0.0                 !
 ! A10   A(3,6,7)              110.4833         -DE/DX =    0.0                 !
 ! A11   A(3,6,8)              111.1045         -DE/DX =    0.0                 !
 ! A12   A(3,6,9)              111.1044         -DE/DX =    0.0                 !
 ! A13   A(7,6,8)              108.2265         -DE/DX =    0.0                 !
 ! A14   A(7,6,9)              108.2266         -DE/DX =    0.0                 !
 ! A15   A(8,6,9)              107.573          -DE/DX =    0.0                 !
 ! D1    D(2,1,3,4)            -55.7458         -DE/DX =    0.0                 !
 ! D2    D(2,1,3,5)             55.7534         -DE/DX =    0.0                 !
 ! D3    D(2,1,3,6)           -179.9969         -DE/DX =    0.0                 !
 ! D4    D(10,1,3,4)           124.2544         -DE/DX =    0.0                 !
 ! D5    D(10,1,3,5)          -124.2464         -DE/DX =    0.0                 !
 ! D6    D(10,1,3,6)             0.0033         -DE/DX =    0.0                 !
 ! D7    D(1,3,6,7)            179.9983         -DE/DX =    0.0                 !
 ! D8    D(1,3,6,8)            -59.8649         -DE/DX =    0.0                 !
 ! D9    D(1,3,6,9)             59.8615         -DE/DX =    0.0                 !
 ! D10   D(4,3,6,7)             58.5695         -DE/DX =    0.0                 !
 ! D11   D(4,3,6,8)            178.7063         -DE/DX =    0.0                 !
 ! D12   D(4,3,6,9)            -61.5673         -DE/DX =    0.0                 !
 ! D13   D(5,3,6,7)            -58.5746         -DE/DX =    0.0                 !
 ! D14   D(5,3,6,8)             61.5622         -DE/DX =    0.0                 !
 ! D15   D(5,3,6,9)           -178.7113         -DE/DX =    0.0                 !
 --------------------------------------------------------------------------------
 Lowest energy point so far.  Saving SCF results.
 Largest change from initial coordinates is atom    2       0.000 Angstoms.
 GradGradGradGradGradGradGradGradGradGradGradGradGradGradGradGradGradGrad

 Leave Link  103 at Thu Jul 20 11:15:29 2023, MaxMem=  2952790016 cpu:               0.2 elap:               0.0
 (Enter /mnt/data/applications/G16/g16/l202.exe)
                          Input orientation:                          
 ---------------------------------------------------------------------
 Center     Atomic      Atomic             Coordinates (Angstroms)
 Number     Number       Type             X           Y           Z
 ---------------------------------------------------------------------
      1          6           0       -0.926046    0.418148    0.000082
      2          1           0       -1.583656    1.312256    0.000278
      3          6           0        0.541447    0.721581    0.000328
      4          1           0        0.726389    1.364415   -0.868551
      5          1           0        0.726210    1.363786    0.869712
      6          6           0        1.444344   -0.496585   -0.000012
      7          1           0        2.492467   -0.194807    0.000163
      8          1           0        1.267718   -1.116565    0.879725
      9          1           0        1.267843   -1.115979   -0.880188
     10          8           0       -1.406461   -0.684174   -0.000293
 ---------------------------------------------------------------------
                    Distance matrix (angstroms):
                    1          2          3          4          5
     1  C    0.000000
     2  H    1.109900   0.000000
     3  C    1.498536   2.205665   0.000000
     4  H    2.092962   2.468581   1.096535   0.000000
     5  H    2.092949   2.468613   1.096537   1.738263   0.000000
     6  C    2.540765   3.527136   1.516296   2.175578   2.175573
     7  H    3.473032   4.345805   2.155515   2.510950   2.510975
     8  H    2.818105   3.847458   2.163236   3.082980   2.538793
     9  H    2.818080   3.847414   2.163235   2.538831   3.082978
    10  O    1.202461   2.004278   2.402185   3.082148   3.082099
                    6          7          8          9         10
     6  C    0.000000
     7  H    1.090702   0.000000
     8  H    1.090646   1.767280   0.000000
     9  H    1.090647   1.767280   1.759913   0.000000
    10  O    2.856970   3.929519   2.848267   2.848258   0.000000
 Stoichiometry    C3H6O
 Framework group  C1[X(C3H6O)]
 Deg. of freedom    24
 Full point group                 C1      NOp   1
 RotChk:  IX=0 Diff= 1.38D-15
 Largest Abelian subgroup         C1      NOp   1
 Largest concise Abelian subgroup C1      NOp   1
                         Standard orientation:                         
 ---------------------------------------------------------------------
 Center     Atomic      Atomic             Coordinates (Angstroms)
 Number     Number       Type             X           Y           Z
 ---------------------------------------------------------------------
      1          6           0       -0.926124    0.418280   -0.000013
      2          1           0       -1.583649    1.312450   -0.000053
      3          6           0        0.541398    0.721575    0.000012
      4          1           0        0.726329    1.364109   -0.869090
      5          1           0        0.726293    1.364043    0.869173
      6          6           0        1.444180   -0.496677   -0.000008
      7          1           0        2.492331   -0.194998   -0.000018
      8          1           0        1.267568   -1.116355    0.879945
      9          1           0        1.267547   -1.116339   -0.879969
     10          8           0       -1.406643   -0.683997    0.000009
 ---------------------------------------------------------------------
 Rotational constants (GHZ):          17.0271201           5.8465812           4.5962691
 Leave Link  202 at Thu Jul 20 11:15:29 2023, MaxMem=  2952790016 cpu:               0.1 elap:               0.0
 (Enter /mnt/data/applications/G16/g16/l601.exe)
 Copying SCF densities to generalized density rwf, IOpCl= 0 IROHF=0.

 **********************************************************************

            Population analysis using the SCF density.

 **********************************************************************

 Orbital symmetries:
       Occupied  (A) (A) (A) (A) (A) (A) (A) (A) (A) (A) (A) (A)
                 (A) (A) (A) (A)
       Virtual   (A) (A) (A) (A) (A) (A) (A) (A) (A) (A) (A) (A)
                 (A) (A) (A) (A) (A) (A) (A) (A) (A) (A) (A) (A)
                 (A) (A) (A) (A) (A) (A) (A) (A) (A) (A) (A) (A)
                 (A) (A) (A) (A) (A) (A) (A) (A) (A) (A) (A) (A)
                 (A) (A) (A) (A) (A) (A) (A) (A) (A) (A) (A) (A)
                 (A) (A) (A) (A) (A) (A) (A) (A) (A) (A) (A) (A)
                 (A) (A) (A) (A) (A) (A) (A) (A) (A) (A) (A) (A)
                 (A) (A) (A) (A) (A) (A) (A) (A) (A) (A) (A) (A)
                 (A) (A) (A) (A) (A) (A) (A) (A) (A) (A) (A) (A)
                 (A) (A) (A) (A) (A) (A) (A) (A) (A) (A) (A) (A)
                 (A) (A) (A) (A) (A) (A) (A) (A) (A) (A) (A) (A)
                 (A) (A) (A) (A) (A) (A) (A) (A) (A) (A) (A) (A)
 The electronic state is 1-A.
 Alpha  occ. eigenvalues --  -19.24512 -10.36993 -10.29056 -10.27141  -1.15163
 Alpha  occ. eigenvalues --   -0.88268  -0.76195  -0.64529  -0.57731  -0.55224
 Alpha  occ. eigenvalues --   -0.52824  -0.46986  -0.46481  -0.44769  -0.42752
 Alpha  occ. eigenvalues --   -0.33898
 Alpha virt. eigenvalues --    0.05514   0.11894   0.14907   0.17285   0.17931
 Alpha virt. eigenvalues --    0.19404   0.21402   0.23195   0.25428   0.27601
 Alpha virt. eigenvalues --    0.29693   0.31148   0.33673   0.35960   0.37159
 Alpha virt. eigenvalues --    0.39358   0.43398   0.45972   0.48282   0.49810
 Alpha virt. eigenvalues --    0.50740   0.50967   0.51945   0.55102   0.57432
 Alpha virt. eigenvalues --    0.57447   0.61843   0.62224   0.64762   0.69543
 Alpha virt. eigenvalues --    0.74715   0.76380   0.83181   0.84327   0.90188
 Alpha virt. eigenvalues --    0.94235   0.95054   1.02327   1.06755   1.08025
 Alpha virt. eigenvalues --    1.14154   1.16207   1.17062   1.19946   1.22506
 Alpha virt. eigenvalues --    1.25693   1.39694   1.50794   1.50871   1.56801
 Alpha virt. eigenvalues --    1.58763   1.60067   1.63168   1.63892   1.64247
 Alpha virt. eigenvalues --    1.65488   1.68769   1.76573   1.79196   1.87843
 Alpha virt. eigenvalues --    1.90769   1.90866   1.93165   1.99422   2.01402
 Alpha virt. eigenvalues --    2.09407   2.13715   2.17044   2.19106   2.26507
 Alpha virt. eigenvalues --    2.26934   2.33450   2.38958   2.41509   2.41549
 Alpha virt. eigenvalues --    2.46695   2.53260   2.58744   2.61285   2.64517
 Alpha virt. eigenvalues --    2.65330   2.69289   2.71100   2.73091   2.75859
 Alpha virt. eigenvalues --    2.79400   2.84363   2.88494   2.95008   2.95616
 Alpha virt. eigenvalues --    3.03417   3.07843   3.09734   3.12951   3.14670
 Alpha virt. eigenvalues --    3.17787   3.18241   3.18761   3.25864   3.30032
 Alpha virt. eigenvalues --    3.30378   3.35189   3.36829   3.41592   3.47906
 Alpha virt. eigenvalues --    3.51471   3.53511   3.57771   3.60048   3.63558
 Alpha virt. eigenvalues --    3.73285   3.81725   3.86207   3.96653   3.98031
 Alpha virt. eigenvalues --    4.03980   4.07429   4.09775   4.18331   4.32448
 Alpha virt. eigenvalues --    4.38630   4.46866   4.49059   4.61312   4.65137
 Alpha virt. eigenvalues --    4.74444   4.82942   4.90635   5.27254   5.28255
 Alpha virt. eigenvalues --    5.65934   5.75047   6.21664   6.42396   6.43593
 Alpha virt. eigenvalues --    6.50105   6.55909   6.87977   7.02149   7.14544
 Alpha virt. eigenvalues --   22.44013  22.55898  22.83718  43.85296
          Condensed to atoms (all electrons):
               1          2          3          4          5          6
     1  C    4.625787   0.452920   0.221748  -0.018765  -0.018763  -0.010612
     2  H    0.452920   0.653740  -0.165015   0.004903   0.004903   0.015656
     3  C    0.221748  -0.165015   5.321191   0.381985   0.381978   0.238912
     4  H   -0.018765   0.004903   0.381985   0.557173  -0.026663  -0.025446
     5  H   -0.018763   0.004903   0.381978  -0.026663   0.557174  -0.025444
     6  C   -0.010612   0.015656   0.238912  -0.025446  -0.025444   4.915544
     7  H    0.007803  -0.000036  -0.039392  -0.004302  -0.004302   0.415346
     8  H   -0.005373   0.000237  -0.030926   0.006366  -0.005166   0.410492
     9  H   -0.005372   0.000237  -0.030929  -0.005165   0.006366   0.410494
    10  O    0.627925  -0.057515  -0.133101   0.002511   0.002510   0.026283
               7          8          9         10
     1  C    0.007803  -0.005373  -0.005372   0.627925
     2  H   -0.000036   0.000237   0.000237  -0.057515
     3  C   -0.039392  -0.030926  -0.030929  -0.133101
     4  H   -0.004302   0.006366  -0.005165   0.002511
     5  H   -0.004302  -0.005166   0.006366   0.002510
     6  C    0.415346   0.410492   0.410494   0.026283
     7  H    0.544125  -0.023833  -0.023833   0.000739
     8  H   -0.023833   0.542736  -0.023348   0.002605
     9  H   -0.023833  -0.023348   0.542737   0.002605
    10  O    0.000739   0.002605   0.002605   7.855342
 Mulliken charges:
               1
     1  C    0.122703
     2  H    0.089969
     3  C   -0.146450
     4  H    0.127404
     5  H    0.127405
     6  C   -0.371227
     7  H    0.127684
     8  H    0.126208
     9  H    0.126208
    10  O   -0.329905
 Sum of Mulliken charges =  -0.00000
 Mulliken charges with hydrogens summed into heavy atoms:
               1
     1  C    0.212673
     3  C    0.108359
     6  C    0.008873
    10  O   -0.329905
 Electronic spatial extent (au):  <R**2>=            302.2904
 Charge=             -0.0000 electrons
 Dipole moment (field-independent basis, Debye):
    X=              1.7910    Y=              2.5750    Z=             -0.0000  Tot=              3.1366
 Quadrupole moment (field-independent basis, Debye-Ang):
   XX=            -27.4312   YY=            -25.2306   ZZ=            -24.1091
   XY=             -2.7699   XZ=              0.0001   YZ=              0.0000
 Traceless Quadrupole moment (field-independent basis, Debye-Ang):
   XX=             -1.8409   YY=              0.3597   ZZ=              1.4812
   XY=             -2.7699   XZ=              0.0001   YZ=              0.0000
 Octapole moment (field-independent basis, Debye-Ang**2):
  XXX=              1.3254  YYY=              0.6232  ZZZ=              0.0002  XYY=             -0.4727
  XXY=              4.7815  XXZ=             -0.0001  XZZ=             -1.3980  YZZ=             -0.2127
  YYZ=             -0.0001  XYZ=             -0.0000
 Hexadecapole moment (field-independent basis, Debye-Ang**3):
 XXXX=           -255.3206 YYYY=           -106.9286 ZZZZ=            -36.6143 XXXY=             -2.4153
 XXXZ=             -0.0000 YYYX=              1.6497 YYYZ=             -0.0002 ZZZX=              0.0001
 ZZZY=              0.0002 XXYY=            -60.7795 XXZZ=            -48.4124 YYZZ=            -21.4189
 XXYZ=             -0.0002 YYXZ=              0.0000 ZZXY=              1.4116
 N-N= 1.187306365889D+02 E-N=-6.883974667590D+02  KE= 1.922449925091D+02
 No NMR shielding tensors so no spin-rotation constants.
 Leave Link  601 at Thu Jul 20 11:15:30 2023, MaxMem=  2952790016 cpu:               2.5 elap:               0.2
 (Enter /mnt/data/applications/G16/g16/l9999.exe)
 1\1\GINC-KIMIK2157\FOpt\RwB97XD\Gen\C3H6O1\DGARAY\20-Jul-2023\0\\#p op
 t=(maxstep=5) freq pseudo=read WB97XD gen scrf(smd,solvent=toluene)\\A
 uto-generated job for prod\\0,1\C,-0.9260462447,0.4181484295,0.0000823
 476\H,-1.5836556005,1.3122563621,0.0002778355\C,0.5414474069,0.7215814
 639,0.0003278346\H,0.7263893658,1.3644151631,-0.8685510151\H,0.7262099
 282,1.3637861179,0.8697121265\C,1.4443442961,-0.4965852076,-0.00001239
 65\H,2.4924673487,-0.1948071972,0.0001628858\H,1.2677179591,-1.1165645
 563,0.8797252245\H,1.2678431692,-1.1159788504,-0.8801881074\O,-1.40646
 06288,-0.6841737249,-0.0002927354\\Version=AM64L-G16RevA.03\State=1-A\
 HF=-193.1655445\RMSD=3.722e-09\RMSF=1.229e-05\Dipole=0.7045548,1.01313
 81,0.0003793\Quadrupole=-1.3683061,0.2670375,1.1012686,-2.0595437,-0.0
 008234,-0.0004347\PG=C01 [X(C3H6O1)]\\@


 ACTORS ARE SO FORTUNATE.  THEY CAN CHOOSE WHETHER
 THEY WILL APPEAR IN A TRAGEDY OR IN COMEDY,
 WHETHER THEY WILL SUFFER OF MAKE MERRY,
 LAUGH OR SHED TEARS.  BUT IN REAL LIFE IT IS DIFFERENT.
 MOST MEN AND WOMEN ARE FORCED TO PERFORM
 PARTS FOR WHICH THEY HAVE NO QUALIFICATIONS.
 THE WORLD IS A STAGE, BUT THE PLAY IS BADLY CAST.

                                   -- OSCAR WILDE
 Leave Link 9999 at Thu Jul 20 11:15:30 2023, MaxMem=  2952790016 cpu:               0.3 elap:               0.0
 Job cpu time:       0 days  0 hours 18 minutes 29.8 seconds.
 Elapsed time:       0 days  0 hours  1 minutes 38.8 seconds.
 File lengths (MBytes):  RWF=     30 Int=      0 D2E=      0 Chk=      5 Scr=      1
 Normal termination of Gaussian 16 at Thu Jul 20 11:15:30 2023.
 (Enter /mnt/data/applications/G16/g16/l1.exe)
 Link1:  Proceeding to internal job step number  2.
 -------------------------------------------------------------------
 #P Geom=AllCheck Guess=TCheck SCRF=Check GenChk RwB97XD/ChkBas Freq
 -------------------------------------------------------------------
 1/8=5,10=4,29=7,30=1,38=1,40=1/1,3;
 2/12=2,40=1/2;
 3/5=7,6=2,11=2,14=-4,16=1,17=8,25=1,30=1,67=1,70=2,71=2,74=-58,82=7,116=1,140=1/1,2,3;
 4/5=101/1;
 5/5=2,38=6,98=1/2;
 8/6=4,10=90,11=11/1;
 11/6=1,8=1,9=11,15=111,16=1/1,2,10;
 10/6=1/2;
 6/7=2,8=2,9=2,10=2,28=1/1;
 7/8=1,10=1,25=1/1,2,3,16;
 1/8=5,10=4,30=1/3;
 99//99;
 Leave Link    1 at Thu Jul 20 11:15:30 2023, MaxMem=  2952790016 cpu:               0.6 elap:               0.0
 (Enter /mnt/data/applications/G16/g16/l101.exe)
 Structure from the checkpoint file:  "prod.chk"
 ---------------------------
 Auto-generated job for prod
 ---------------------------
 Charge =  0 Multiplicity = 1
 Redundant internal coordinates found in file.  (old form).
 C,0,-0.9260462447,0.4181484295,0.0000823476
 H,0,-1.5836556005,1.3122563621,0.0002778355
 C,0,0.5414474069,0.7215814639,0.0003278346
 H,0,0.7263893658,1.3644151631,-0.8685510151
 H,0,0.7262099282,1.3637861179,0.8697121265
 C,0,1.4443442961,-0.4965852076,-0.0000123965
 H,0,2.4924673487,-0.1948071972,0.0001628858
 H,0,1.2677179591,-1.1165645563,0.8797252245
 H,0,1.2678431692,-1.1159788504,-0.8801881074
 O,0,-1.4064606288,-0.6841737249,-0.0002927354
 Recover connectivity data from disk.
 ITRead=  0  0  0  0  0  0  0  0  0  0
 MicOpt= -1 -1 -1 -1 -1 -1 -1 -1 -1 -1
 NAtoms=     10 NQM=       10 NQMF=       0 NMMI=      0 NMMIF=      0
                NMic=       0 NMicF=      0.
                    Isotopes and Nuclear Properties:
 (Nuclear quadrupole moments (NQMom) in fm**2, nuclear magnetic moments (NMagM)
  in nuclear magnetons)

  Atom         1           2           3           4           5           6           7           8           9          10
 IAtWgt=          12           1          12           1           1          12           1           1           1          16
 AtmWgt=  12.0000000   1.0078250  12.0000000   1.0078250   1.0078250  12.0000000   1.0078250   1.0078250   1.0078250  15.9949146
 NucSpn=           0           1           0           1           1           0           1           1           1           0
 AtZEff=   3.6000000   1.0000000   3.6000000   1.0000000   1.0000000   3.6000000   1.0000000   1.0000000   1.0000000   5.6000000
 NQMom=    0.0000000   0.0000000   0.0000000   0.0000000   0.0000000   0.0000000   0.0000000   0.0000000   0.0000000   0.0000000
 NMagM=    0.0000000   2.7928460   0.0000000   2.7928460   2.7928460   0.0000000   2.7928460   2.7928460   2.7928460   0.0000000
 AtZNuc=   6.0000000   1.0000000   6.0000000   1.0000000   1.0000000   6.0000000   1.0000000   1.0000000   1.0000000   8.0000000
 Leave Link  101 at Thu Jul 20 11:15:30 2023, MaxMem=  2952790016 cpu:               4.5 elap:               0.4
 (Enter /mnt/data/applications/G16/g16/l103.exe)

 GradGradGradGradGradGradGradGradGradGradGradGradGradGradGradGradGradGrad
 Berny optimization.
 Initialization pass.
                           ----------------------------
                           !    Initial Parameters    !
                           ! (Angstroms and Degrees)  !
 --------------------------                            --------------------------
 ! Name  Definition              Value          Derivative Info.                !
 --------------------------------------------------------------------------------
 ! R1    R(1,2)                  1.1099         calculate D2E/DX2 analytically  !
 ! R2    R(1,3)                  1.4985         calculate D2E/DX2 analytically  !
 ! R3    R(1,10)                 1.2025         calculate D2E/DX2 analytically  !
 ! R4    R(3,4)                  1.0965         calculate D2E/DX2 analytically  !
 ! R5    R(3,5)                  1.0965         calculate D2E/DX2 analytically  !
 ! R6    R(3,6)                  1.5163         calculate D2E/DX2 analytically  !
 ! R7    R(6,7)                  1.0907         calculate D2E/DX2 analytically  !
 ! R8    R(6,8)                  1.0906         calculate D2E/DX2 analytically  !
 ! R9    R(6,9)                  1.0906         calculate D2E/DX2 analytically  !
 ! A1    A(2,1,3)              114.6518         calculate D2E/DX2 analytically  !
 ! A2    A(2,1,10)             120.1173         calculate D2E/DX2 analytically  !
 ! A3    A(3,1,10)             125.2309         calculate D2E/DX2 analytically  !
 ! A4    A(1,3,4)              106.4837         calculate D2E/DX2 analytically  !
 ! A5    A(1,3,5)              106.4827         calculate D2E/DX2 analytically  !
 ! A6    A(1,3,6)              114.8632         calculate D2E/DX2 analytically  !
 ! A7    A(4,3,5)              104.8613         calculate D2E/DX2 analytically  !
 ! A8    A(4,3,6)              111.7383         calculate D2E/DX2 analytically  !
 ! A9    A(5,3,6)              111.7378         calculate D2E/DX2 analytically  !
 ! A10   A(3,6,7)              110.4833         calculate D2E/DX2 analytically  !
 ! A11   A(3,6,8)              111.1045         calculate D2E/DX2 analytically  !
 ! A12   A(3,6,9)              111.1044         calculate D2E/DX2 analytically  !
 ! A13   A(7,6,8)              108.2265         calculate D2E/DX2 analytically  !
 ! A14   A(7,6,9)              108.2266         calculate D2E/DX2 analytically  !
 ! A15   A(8,6,9)              107.573          calculate D2E/DX2 analytically  !
 ! D1    D(2,1,3,4)            -55.7458         calculate D2E/DX2 analytically  !
 ! D2    D(2,1,3,5)             55.7534         calculate D2E/DX2 analytically  !
 ! D3    D(2,1,3,6)           -179.9969         calculate D2E/DX2 analytically  !
 ! D4    D(10,1,3,4)           124.2544         calculate D2E/DX2 analytically  !
 ! D5    D(10,1,3,5)          -124.2464         calculate D2E/DX2 analytically  !
 ! D6    D(10,1,3,6)             0.0033         calculate D2E/DX2 analytically  !
 ! D7    D(1,3,6,7)            179.9983         calculate D2E/DX2 analytically  !
 ! D8    D(1,3,6,8)            -59.8649         calculate D2E/DX2 analytically  !
 ! D9    D(1,3,6,9)             59.8615         calculate D2E/DX2 analytically  !
 ! D10   D(4,3,6,7)             58.5695         calculate D2E/DX2 analytically  !
 ! D11   D(4,3,6,8)            178.7063         calculate D2E/DX2 analytically  !
 ! D12   D(4,3,6,9)            -61.5673         calculate D2E/DX2 analytically  !
 ! D13   D(5,3,6,7)            -58.5746         calculate D2E/DX2 analytically  !
 ! D14   D(5,3,6,8)             61.5622         calculate D2E/DX2 analytically  !
 ! D15   D(5,3,6,9)           -178.7113         calculate D2E/DX2 analytically  !
 --------------------------------------------------------------------------------
 Trust Radius=5.00D-02 FncErr=1.00D-07 GrdErr=1.00D-07 EigMax=2.50D+02 EigMin=1.00D-04
 Number of steps in this run=      2 maximum allowed number of steps=      2.
 GradGradGradGradGradGradGradGradGradGradGradGradGradGradGradGradGradGrad

 Leave Link  103 at Thu Jul 20 11:15:30 2023, MaxMem=  2952790016 cpu:               0.1 elap:               0.0
 (Enter /mnt/data/applications/G16/g16/l202.exe)
                          Input orientation:                          
 ---------------------------------------------------------------------
 Center     Atomic      Atomic             Coordinates (Angstroms)
 Number     Number       Type             X           Y           Z
 ---------------------------------------------------------------------
      1          6           0       -0.926046    0.418148    0.000082
      2          1           0       -1.583656    1.312256    0.000278
      3          6           0        0.541447    0.721581    0.000328
      4          1           0        0.726389    1.364415   -0.868551
      5          1           0        0.726210    1.363786    0.869712
      6          6           0        1.444344   -0.496585   -0.000012
      7          1           0        2.492467   -0.194807    0.000163
      8          1           0        1.267718   -1.116565    0.879725
      9          1           0        1.267843   -1.115979   -0.880188
     10          8           0       -1.406461   -0.684174   -0.000293
 ---------------------------------------------------------------------
                    Distance matrix (angstroms):
                    1          2          3          4          5
     1  C    0.000000
     2  H    1.109900   0.000000
     3  C    1.498536   2.205665   0.000000
     4  H    2.092962   2.468581   1.096535   0.000000
     5  H    2.092949   2.468613   1.096537   1.738263   0.000000
     6  C    2.540765   3.527136   1.516296   2.175578   2.175573
     7  H    3.473032   4.345805   2.155515   2.510950   2.510975
     8  H    2.818105   3.847458   2.163236   3.082980   2.538793
     9  H    2.818080   3.847414   2.163235   2.538831   3.082978
    10  O    1.202461   2.004278   2.402185   3.082148   3.082099
                    6          7          8          9         10
     6  C    0.000000
     7  H    1.090702   0.000000
     8  H    1.090646   1.767280   0.000000
     9  H    1.090647   1.767280   1.759913   0.000000
    10  O    2.856970   3.929519   2.848267   2.848258   0.000000
 Stoichiometry    C3H6O
 Framework group  C1[X(C3H6O)]
 Deg. of freedom    24
 Full point group                 C1      NOp   1
 RotChk:  IX=0 Diff= 2.57D-16
 Largest Abelian subgroup         C1      NOp   1
 Largest concise Abelian subgroup C1      NOp   1
                         Standard orientation:                         
 ---------------------------------------------------------------------
 Center     Atomic      Atomic             Coordinates (Angstroms)
 Number     Number       Type             X           Y           Z
 ---------------------------------------------------------------------
      1          6           0       -0.926124    0.418280   -0.000013
      2          1           0       -1.583649    1.312450   -0.000053
      3          6           0        0.541398    0.721575    0.000012
      4          1           0        0.726329    1.364109   -0.869090
      5          1           0        0.726293    1.364043    0.869173
      6          6           0        1.444180   -0.496677   -0.000008
      7          1           0        2.492331   -0.194998   -0.000018
      8          1           0        1.267568   -1.116355    0.879945
      9          1           0        1.267547   -1.116339   -0.879969
     10          8           0       -1.406643   -0.683997    0.000009
 ---------------------------------------------------------------------
 Rotational constants (GHZ):          17.0271201           5.8465812           4.5962691
 Leave Link  202 at Thu Jul 20 11:15:30 2023, MaxMem=  2952790016 cpu:               0.1 elap:               0.0
 (Enter /mnt/data/applications/G16/g16/l301.exe)
 Basis read from chk: "prod.chk" (5D, 7F)
 Pseudo-potential data read from chk file.
 There are   180 symmetry adapted cartesian basis functions of A   symmetry.
 There are   160 symmetry adapted basis functions of A   symmetry.
   160 basis functions,   252 primitive gaussians,   180 cartesian basis functions
    16 alpha electrons       16 beta electrons
       nuclear repulsion energy       118.7368603923 Hartrees.
 IExCor= 4639 DFT=T Ex+Corr=wB97XD ExCW=0 ScaHFX=  1.000000
 ScaDFX=  1.000000  1.000000  1.000000  1.000000 ScalE2=  1.000000  1.000000
 IRadAn=      5 IRanWt=     -1 IRanGd=            0 ICorTp=0 IEmpDi=121
 HFx  wShort=  0.000000 wLong=  0.200000 cFull=  0.222036 cShort=  0.000000 cLong=  0.777964
 DFx  wShort=  0.000000 wLong=  0.200000 cFull=  0.000000 cShort=  0.000000 cLong=  1.000000
 NAtoms=   10 NActive=   10 NUniq=   10 SFac= 1.00D+00 NAtFMM=   60 NAOKFM=F Big=F
 Integral buffers will be    131072 words long.
 Raffenetti 2 integral format.
 Two-electron integral symmetry is turned on.
 R6Disp:  Grimme-D2 Dispersion energy=       -0.0032575034 Hartrees.
 Nuclear repulsion after empirical dispersion term =      118.7336028889 Hartrees.
 No density basis found on file 20724.
 Force inversion solution in PCM.
 ------------------------------------------------------------------------------
 Polarizable Continuum Model (PCM)
 =================================
 Model                : PCM.
 Atomic radii         : SMD-Coulomb.
 Polarization charges : Total charges.
 Charge compensation  : None.
 Solution method      : Matrix inversion.
 Cavity type          : VdW (van der Waals Surface) (Alpha=1.000).
 Cavity algorithm     : GePol (No added spheres)
                        Default sphere list used, NSphG=   10.
                        Lebedev-Laikov grids with approx.  5.0 points / Ang**2.
                        Smoothing algorithm: York/Karplus (Gamma=1.0000).
                        Polarization charges: spherical gaussians, with
                                              point-specific exponents (IZeta= 3).
                        Self-potential: point-specific (ISelfS= 7).
                        Self-field    : sphere-specific E.n sum rule (ISelfD= 2).
 1st derivatives      : Analytical E(r).r(x)/FMM algorithm (CHGder, D1EAlg=3).
                        Cavity 1st derivative terms included.
 2nd derivatives      : Analytical E(r).r(xy)/FMM algorithm (CHGder, D2EAlg=3).
                        Cavity 2nd derivative terms included.
 Solvent              : Toluene, Eps=   2.374100 Eps(inf)=   2.238315
 ------------------------------------------------------------------------------
 Spheres list:
 ISph  on   Nord     Re0    Alpha      Xe            Ye            Ze
    1   C      1    1.8500  1.000     -0.926124      0.418280     -0.000013
    2   H      2    1.2000  1.000     -1.583649      1.312450     -0.000053
    3   C      3    1.8500  1.000      0.541398      0.721575      0.000012
    4   H      4    1.2000  1.000      0.726329      1.364109     -0.869090
    5   H      5    1.2000  1.000      0.726293      1.364043      0.869173
    6   C      6    1.8500  1.000      1.444180     -0.496677     -0.000008
    7   H      7    1.2000  1.000      2.492331     -0.194998     -0.000018
    8   H      8    1.2000  1.000      1.267568     -1.116355      0.879945
    9   H      9    1.2000  1.000      1.267547     -1.116339     -0.879969
   10   O     10    2.2940  1.000     -1.406643     -0.683997      0.000009
 ------------------------------------------------------------------------------
 GePol: Number of generator spheres                  =      10
 GePol: Total number of spheres                      =      10
 GePol: Number of exposed spheres                    =      10 (100.00%)
 GePol: Number of points                             =     921
 GePol: Average weight of points                     =       0.12
 GePol: Minimum weight of points                     =   0.32D-09
 GePol: Maximum weight of points                     =    0.17992
 GePol: Number of points with low weight             =      55
 GePol: Fraction of low-weight points (<1% of avg)   =       5.97%
 GePol: Cavity surface area                          =    111.294 Ang**2
 GePol: Cavity volume                                =     92.311 Ang**3
 ------------------------------------------------------------------------------
 Atomic radii for non-electrostatic terms: SMD-CDS.
 ------------------------------------------------------------------------------
 PCM non-electrostatic energy =        -0.0029663000 Hartrees.
 Nuclear repulsion after PCM non-electrostatic terms =      118.7306365889 Hartrees.
 Leave Link  301 at Thu Jul 20 11:15:31 2023, MaxMem=  2952790016 cpu:               1.4 elap:               0.1
 (Enter /mnt/data/applications/G16/g16/l302.exe)
 NPDir=0 NMtPBC=     1 NCelOv=     1 NCel=       1 NClECP=     1 NCelD=      1
         NCelK=      1 NCelE2=     1 NClLst=     1 CellRange=     0.0.
 One-electron integrals computed using PRISM.
 One-electron integral symmetry used in STVInt
   1 Symmetry operations used in ECPInt.
 ECPInt:  NShTT=    2346 NPrTT=    6892 LenC2=    2338 LenP2D=    5955.
 LDataN:  DoStor=T MaxTD1= 6 Len=  172
 NBasis=   160 RedAO= T EigKep=  3.28D-04  NBF=   160
 NBsUse=   160 1.00D-06 EigRej= -1.00D+00 NBFU=   160
 Precomputing XC quadrature grid using
 IXCGrd= 4 IRadAn=           5 IRanWt=          -1 IRanGd=           0 AccXCQ= 0.00D+00.
 Generated NRdTot=       0 NPtTot=           0 NUsed=           0 NTot=          32
 NSgBfM=   179   179   179   179   179 MxSgAt=    10 MxSgA2=    10.
 Leave Link  302 at Thu Jul 20 11:15:31 2023, MaxMem=  2952790016 cpu:               3.3 elap:               0.3
 (Enter /mnt/data/applications/G16/g16/l303.exe)
 DipDrv:  MaxL=1.
 Leave Link  303 at Thu Jul 20 11:15:31 2023, MaxMem=  2952790016 cpu:               0.3 elap:               0.0
 (Enter /mnt/data/applications/G16/g16/l401.exe)
 Initial guess from the checkpoint file:  "prod.chk"
 B after Tr=    -0.000000   -0.000000   -0.000000
         Rot=    1.000000    0.000000   -0.000000    0.000000 Ang=   0.00 deg.
 Guess basis will be translated and rotated to current coordinates.
 JPrj=2 DoOrth=T DoCkMO=T.
 Leave Link  401 at Thu Jul 20 11:15:31 2023, MaxMem=  2952790016 cpu:               1.9 elap:               0.2
 (Enter /mnt/data/applications/G16/g16/l502.exe)
 Keep R1 ints in memory in canonical form, NReq=178007602.
 FoFCou: FMM=F IPFlag=           0 FMFlag=           0 FMFlg1=           0
         NFxFlg=           0 DoJE=F BraDBF=F KetDBF=F FulRan=T
         wScrn=  0.000000 ICntrl=       600 IOpCl=  0 I1Cent=           0 NGrid=           0
         NMat0=    1 NMatS0=  12880 NMatT0=    0 NMatD0=    1 NMtDS0=    0 NMtDT0=    0
 Symmetry not used in FoFCou.
 Two-electron integral symmetry not used.
 Closed shell SCF:
 Using DIIS extrapolation, IDIIS=  1040.
 NGot=  2952790016 LenX=  2786813986 LenY=  2786781145
 Requested convergence on RMS density matrix=1.00D-08 within 128 cycles.
 Requested convergence on MAX density matrix=1.00D-06.
 Requested convergence on             energy=1.00D-06.
 No special actions if energy rises.

 Cycle   1  Pass 1  IDiag  1:
 Inv3:  Mode=1 IEnd=     2544723.
 Iteration    1 A*A^-1 deviation from unit magnitude is 2.44D-15 for    240.
 Iteration    1 A*A^-1 deviation from orthogonality  is 8.31D-16 for    442    120.
 Iteration    1 A^-1*A deviation from unit magnitude is 2.22D-15 for    240.
 Iteration    1 A^-1*A deviation from orthogonality  is 8.39D-16 for    842    612.
 E= -193.165544542572    
 DIIS: error= 9.14D-09 at cycle   1 NSaved=   1.
 NSaved= 1 IEnMin= 1 EnMin= -193.165544542572     IErMin= 1 ErrMin= 9.14D-09
 ErrMax= 9.14D-09  0.00D+00 EMaxC= 1.00D-01 BMatC= 9.42D-15 BMatP= 9.42D-15
 IDIUse=1 WtCom= 1.00D+00 WtEn= 0.00D+00
 Coeff-Com:  0.100D+01
 Coeff:      0.100D+01
 Gap=     0.394 Goal=   None    Shift=    0.000
 RMSDP=1.04D-09 MaxDP=2.19D-08              OVMax= 4.68D-08

 Error on total polarization charges =  0.01587
 SCF Done:  E(RwB97XD) =  -193.165544543     A.U. after    1 cycles
            NFock=  1  Conv=0.10D-08     -V/T= 2.0048
 KE= 1.922449916233D+02 PE=-6.883974658731D+02 EE= 1.842562931184D+02
 SMD-CDS (non-electrostatic) energy       (kcal/mol) =      -1.86
 (included in total energy above)
 Leave Link  502 at Thu Jul 20 11:15:40 2023, MaxMem=  2952790016 cpu:              96.5 elap:               8.4
 (Enter /mnt/data/applications/G16/g16/l801.exe)
 DoSCS=F DFT=T ScalE2(SS,OS)=  1.000000  1.000000
 Range of M.O.s used for correlation:     1   160
 NBasis=   160 NAE=    16 NBE=    16 NFC=     0 NFV=     0
 NROrb=    160 NOA=    16 NOB=    16 NVA=   144 NVB=   144

 **** Warning!!: The largest alpha MO coefficient is  0.17161747D+02

 Leave Link  801 at Thu Jul 20 11:15:40 2023, MaxMem=  2952790016 cpu:               0.2 elap:               0.0
 (Enter /mnt/data/applications/G16/g16/l1101.exe)
 Using compressed storage, NAtomX=    10.
 Will process     11 centers per pass.
   1 Symmetry operations used in ECPInt.
 ECPInt:  NShTT=    2346 NPrTT=    6892 LenC2=    2338 LenP2D=    5955.
 LDataN:  DoStor=T MaxTD1= 7 Len=  274
 R6Disp: Adding Grimme-D2 dispersion energy 1st derivatives to the gradient.
 Leave Link 1101 at Thu Jul 20 11:15:40 2023, MaxMem=  2952790016 cpu:               3.7 elap:               0.3
 (Enter /mnt/data/applications/G16/g16/l1102.exe)
 Symmetrizing basis deriv contribution to polar:
 IMax=3 JMax=2 DiffMx= 0.00D+00
 Leave Link 1102 at Thu Jul 20 11:15:41 2023, MaxMem=  2952790016 cpu:               0.3 elap:               0.1
 (Enter /mnt/data/applications/G16/g16/l1110.exe)
 Forming Gx(P) for the SCF density, NAtomX=    10.
 Integral derivatives from FoFJK, PRISM(SPDF).
 Do as many integral derivatives as possible in FoFJK.
 G2DrvN: MDV=    2952789160.
 G2DrvN: will do    11 centers at a time, making    1 passes.
 Calling FoFCou, ICntrl=  3107 FMM=F I1Cent=   0 AccDes= 0.00D+00.
 FoFJK:  IHMeth= 1 ICntrl=    3107 DoSepK=T KAlg= 0 I1Cent=           0 FoldK=F
 IRaf=         1 NMat=       1 IRICut=       1 DoRegI=T DoRafI=F ISym2E= 0 IDoP0=0 IntGTp=1.
 FoFCou: FMM=F IPFlag=           0 FMFlag=      100000 FMFlg1=           0
         NFxFlg=           0 DoJE=F BraDBF=F KetDBF=F FulRan=T
         wScrn=  0.000000 ICntrl=      3507 IOpCl=  0 I1Cent=           0 NGrid=           0
         NMat0=    1 NMatS0=      1 NMatT0=    0 NMatD0=    1 NMtDS0=    0 NMtDT0=    0
 Symmetry not used in FoFCou.
 NEqPCM:  Using equilibrium solvation (IEInf=0, Eps=   2.3741, EpsInf=   2.2383)
 G2PCM: DoFxE=T DoFxN=T DoGrad=T DoDP/DQ/DG/TGxP=FFFF NFrqRd=   0 IEInf=0 SqF1=F DoCFld=F IF1Alg=4.
 GePol: Maximum number of non-zero 1st derivatives   =     363
 End of G2Drv F.D. properties file   721 does not exist.
 End of G2Drv F.D. properties file   722 does not exist.
 End of G2Drv F.D. properties file   788 does not exist.
 Leave Link 1110 at Thu Jul 20 11:16:19 2023, MaxMem=  2952790016 cpu:             451.7 elap:              37.8
 (Enter /mnt/data/applications/G16/g16/l1002.exe)
 Minotr:  Closed shell wavefunction.
          IDoAtm=1111111111
 NEqPCM:  Using equilibrium solvation (IEInf=0, Eps=   2.3741, EpsInf=   2.2383)
          Direct CPHF calculation.
          Differentiating once with respect to electric field.
                with respect to dipole field.
          Differentiating once with respect to nuclear coordinates.
          Requested convergence is 1.0D-08 RMS, and 1.0D-07 maximum.
          Secondary convergence is 1.0D-12 RMS, and 1.0D-12 maximum.
          NewPWx=T KeepS1=F KeepF1=F KeepIn=T MapXYZ=F SortEE=F KeepMc=T.
         2967 words used for storage of precomputed grid.
 Keep R1 ints in memory in canonical form, NReq=177975347.
 FoFCou: FMM=F IPFlag=           0 FMFlag=           0 FMFlg1=           0
         NFxFlg=           0 DoJE=F BraDBF=F KetDBF=F FulRan=T
         wScrn=  0.000000 ICntrl=       600 IOpCl=  0 I1Cent=           0 NGrid=           0
         NMat0=    1 NMatS0=  12880 NMatT0=    0 NMatD0=    1 NMtDS0=    0 NMtDT0=    0
 Symmetry not used in FoFCou.
 Two-electron integral symmetry not used.
          MDV=    2952790016 using IRadAn=       1.
          Solving linear equations simultaneously, MaxMat=       0.
          There are    33 degrees of freedom in the 1st order CPHF.  IDoFFX=6 NUNeed=     3.
     30 vectors produced by pass  0 Test12= 6.98D-15 3.03D-09 XBig12= 1.70D+01 1.50D+00.
 AX will form    30 AO Fock derivatives at one time.
     30 vectors produced by pass  1 Test12= 6.98D-15 3.03D-09 XBig12= 1.23D+00 2.21D-01.
     30 vectors produced by pass  2 Test12= 6.98D-15 3.03D-09 XBig12= 2.44D-02 3.22D-02.
     30 vectors produced by pass  3 Test12= 6.98D-15 3.03D-09 XBig12= 1.90D-04 3.13D-03.
     30 vectors produced by pass  4 Test12= 6.98D-15 3.03D-09 XBig12= 1.53D-06 2.71D-04.
     30 vectors produced by pass  5 Test12= 6.98D-15 3.03D-09 XBig12= 9.16D-09 1.74D-05.
     21 vectors produced by pass  6 Test12= 6.98D-15 3.03D-09 XBig12= 4.79D-11 1.34D-06.
      5 vectors produced by pass  7 Test12= 6.98D-15 3.03D-09 XBig12= 2.83D-13 7.04D-08.
      3 vectors produced by pass  8 Test12= 6.98D-15 3.03D-09 XBig12= 1.22D-15 6.12D-09.
 InvSVY:  IOpt=1 It=  1 EMax= 1.33D-15
 Solved reduced A of dimension   209 with    33 vectors.
 FullF1:  Do perturbations      1 to       3.
 Isotropic polarizability for W=    0.000000       44.25 Bohr**3.
 End of Minotr F.D. properties file   721 does not exist.
 End of Minotr F.D. properties file   722 does not exist.
 End of Minotr F.D. properties file   788 does not exist.
 Leave Link 1002 at Thu Jul 20 11:17:02 2023, MaxMem=  2952790016 cpu:             517.7 elap:              43.3
 (Enter /mnt/data/applications/G16/g16/l601.exe)
 Copying SCF densities to generalized density rwf, IOpCl= 0 IROHF=0.

 **********************************************************************

            Population analysis using the SCF density.

 **********************************************************************

 Orbital symmetries:
       Occupied  (A) (A) (A) (A) (A) (A) (A) (A) (A) (A) (A) (A)
                 (A) (A) (A) (A)
       Virtual   (A) (A) (A) (A) (A) (A) (A) (A) (A) (A) (A) (A)
                 (A) (A) (A) (A) (A) (A) (A) (A) (A) (A) (A) (A)
                 (A) (A) (A) (A) (A) (A) (A) (A) (A) (A) (A) (A)
                 (A) (A) (A) (A) (A) (A) (A) (A) (A) (A) (A) (A)
                 (A) (A) (A) (A) (A) (A) (A) (A) (A) (A) (A) (A)
                 (A) (A) (A) (A) (A) (A) (A) (A) (A) (A) (A) (A)
                 (A) (A) (A) (A) (A) (A) (A) (A) (A) (A) (A) (A)
                 (A) (A) (A) (A) (A) (A) (A) (A) (A) (A) (A) (A)
                 (A) (A) (A) (A) (A) (A) (A) (A) (A) (A) (A) (A)
                 (A) (A) (A) (A) (A) (A) (A) (A) (A) (A) (A) (A)
                 (A) (A) (A) (A) (A) (A) (A) (A) (A) (A) (A) (A)
                 (A) (A) (A) (A) (A) (A) (A) (A) (A) (A) (A) (A)
 The electronic state is 1-A.
 Alpha  occ. eigenvalues --  -19.24512 -10.36993 -10.29056 -10.27141  -1.15163
 Alpha  occ. eigenvalues --   -0.88268  -0.76195  -0.64529  -0.57731  -0.55224
 Alpha  occ. eigenvalues --   -0.52824  -0.46986  -0.46481  -0.44769  -0.42752
 Alpha  occ. eigenvalues --   -0.33898
 Alpha virt. eigenvalues --    0.05514   0.11894   0.14907   0.17285   0.17931
 Alpha virt. eigenvalues --    0.19404   0.21402   0.23195   0.25428   0.27601
 Alpha virt. eigenvalues --    0.29693   0.31148   0.33673   0.35960   0.37159
 Alpha virt. eigenvalues --    0.39358   0.43398   0.45972   0.48282   0.49810
 Alpha virt. eigenvalues --    0.50740   0.50967   0.51945   0.55102   0.57432
 Alpha virt. eigenvalues --    0.57447   0.61843   0.62224   0.64762   0.69543
 Alpha virt. eigenvalues --    0.74715   0.76380   0.83181   0.84327   0.90188
 Alpha virt. eigenvalues --    0.94235   0.95054   1.02327   1.06755   1.08025
 Alpha virt. eigenvalues --    1.14154   1.16207   1.17062   1.19946   1.22506
 Alpha virt. eigenvalues --    1.25693   1.39694   1.50794   1.50871   1.56801
 Alpha virt. eigenvalues --    1.58763   1.60067   1.63168   1.63892   1.64247
 Alpha virt. eigenvalues --    1.65488   1.68769   1.76573   1.79196   1.87843
 Alpha virt. eigenvalues --    1.90769   1.90866   1.93165   1.99422   2.01402
 Alpha virt. eigenvalues --    2.09407   2.13715   2.17044   2.19106   2.26507
 Alpha virt. eigenvalues --    2.26934   2.33450   2.38958   2.41509   2.41549
 Alpha virt. eigenvalues --    2.46695   2.53260   2.58744   2.61285   2.64517
 Alpha virt. eigenvalues --    2.65330   2.69289   2.71100   2.73091   2.75859
 Alpha virt. eigenvalues --    2.79400   2.84363   2.88494   2.95008   2.95616
 Alpha virt. eigenvalues --    3.03417   3.07843   3.09734   3.12951   3.14670
 Alpha virt. eigenvalues --    3.17787   3.18241   3.18761   3.25864   3.30032
 Alpha virt. eigenvalues --    3.30378   3.35189   3.36829   3.41592   3.47906
 Alpha virt. eigenvalues --    3.51471   3.53511   3.57771   3.60048   3.63558
 Alpha virt. eigenvalues --    3.73285   3.81725   3.86207   3.96653   3.98031
 Alpha virt. eigenvalues --    4.03980   4.07429   4.09775   4.18331   4.32448
 Alpha virt. eigenvalues --    4.38630   4.46866   4.49059   4.61312   4.65137
 Alpha virt. eigenvalues --    4.74444   4.82942   4.90635   5.27254   5.28255
 Alpha virt. eigenvalues --    5.65934   5.75047   6.21664   6.42396   6.43593
 Alpha virt. eigenvalues --    6.50105   6.55909   6.87977   7.02149   7.14544
 Alpha virt. eigenvalues --   22.44013  22.55898  22.83718  43.85296
          Condensed to atoms (all electrons):
               1          2          3          4          5          6
     1  C    4.625787   0.452920   0.221748  -0.018765  -0.018763  -0.010612
     2  H    0.452920   0.653740  -0.165015   0.004903   0.004903   0.015656
     3  C    0.221748  -0.165015   5.321191   0.381985   0.381978   0.238912
     4  H   -0.018765   0.004903   0.381985   0.557173  -0.026663  -0.025446
     5  H   -0.018763   0.004903   0.381978  -0.026663   0.557174  -0.025444
     6  C   -0.010612   0.015656   0.238912  -0.025446  -0.025444   4.915544
     7  H    0.007803  -0.000036  -0.039392  -0.004302  -0.004302   0.415346
     8  H   -0.005373   0.000237  -0.030926   0.006366  -0.005166   0.410492
     9  H   -0.005372   0.000237  -0.030929  -0.005165   0.006366   0.410494
    10  O    0.627925  -0.057515  -0.133101   0.002511   0.002510   0.026283
               7          8          9         10
     1  C    0.007803  -0.005373  -0.005372   0.627925
     2  H   -0.000036   0.000237   0.000237  -0.057515
     3  C   -0.039392  -0.030926  -0.030929  -0.133101
     4  H   -0.004302   0.006366  -0.005165   0.002511
     5  H   -0.004302  -0.005166   0.006366   0.002510
     6  C    0.415346   0.410492   0.410494   0.026283
     7  H    0.544125  -0.023833  -0.023833   0.000739
     8  H   -0.023833   0.542736  -0.023348   0.002605
     9  H   -0.023833  -0.023348   0.542737   0.002605
    10  O    0.000739   0.002605   0.002605   7.855342
 Mulliken charges:
               1
     1  C    0.122703
     2  H    0.089969
     3  C   -0.146450
     4  H    0.127404
     5  H    0.127405
     6  C   -0.371227
     7  H    0.127684
     8  H    0.126208
     9  H    0.126208
    10  O   -0.329905
 Sum of Mulliken charges =  -0.00000
 Mulliken charges with hydrogens summed into heavy atoms:
               1
     1  C    0.212673
     3  C    0.108359
     6  C    0.008873
    10  O   -0.329905
 APT charges:
               1
     1  C    0.851700
     2  H   -0.086588
     3  C   -0.075445
     4  H    0.007894
     5  H    0.007896
     6  C    0.053564
     7  H   -0.010175
     8  H   -0.003138
     9  H   -0.003139
    10  O   -0.742568
 Sum of APT charges =  -0.00000
 APT charges with hydrogens summed into heavy atoms:
               1
     1  C    0.765111
     3  C   -0.059655
     6  C    0.037112
    10  O   -0.742568
 Electronic spatial extent (au):  <R**2>=            302.2904
 Charge=              0.0000 electrons
 Dipole moment (field-independent basis, Debye):
    X=              1.7910    Y=              2.5750    Z=             -0.0000  Tot=              3.1366
 Quadrupole moment (field-independent basis, Debye-Ang):
   XX=            -27.4312   YY=            -25.2306   ZZ=            -24.1091
   XY=             -2.7699   XZ=              0.0001   YZ=              0.0000
 Traceless Quadrupole moment (field-independent basis, Debye-Ang):
   XX=             -1.8409   YY=              0.3597   ZZ=              1.4812
   XY=             -2.7699   XZ=              0.0001   YZ=              0.0000
 Octapole moment (field-independent basis, Debye-Ang**2):
  XXX=              1.3254  YYY=              0.6232  ZZZ=              0.0002  XYY=             -0.4727
  XXY=              4.7815  XXZ=             -0.0001  XZZ=             -1.3980  YZZ=             -0.2127
  YYZ=             -0.0001  XYZ=             -0.0000
 Hexadecapole moment (field-independent basis, Debye-Ang**3):
 XXXX=           -255.3206 YYYY=           -106.9286 ZZZZ=            -36.6143 XXXY=             -2.4153
 XXXZ=             -0.0000 YYYX=              1.6497 YYYZ=             -0.0002 ZZZX=              0.0001
 ZZZY=              0.0002 XXYY=            -60.7795 XXZZ=            -48.4124 YYZZ=            -21.4189
 XXYZ=             -0.0002 YYXZ=              0.0000 ZZXY=              1.4116
 N-N= 1.187306365889D+02 E-N=-6.883974643091D+02  KE= 1.922449916233D+02
  Exact polarizability:  47.669   0.524  48.940   0.000  -0.000  36.145
 Approx polarizability:  41.004   3.552  47.145   0.000  -0.000  35.622
 No NMR shielding tensors so no spin-rotation constants.
 Leave Link  601 at Thu Jul 20 11:17:03 2023, MaxMem=  2952790016 cpu:               2.7 elap:               0.3
 (Enter /mnt/data/applications/G16/g16/l701.exe)
 ... and contract with generalized density number  0.
 Compute integral second derivatives.
 R6Disp: Adding Grimme-D2 dispersion energy 2nd derivatives to the Hessian.
   1 Symmetry operations used in ECPInt.
 ECPInt:  NShTT=    2346 NPrTT=    6892 LenC2=    2338 LenP2D=    5955.
 LDataN:  DoStor=T MaxTD1= 8 Len=  415
 D2PCM: PCM CHGder 2nd derivatives, FixD1E=F FixD2E=F DoIter=F DoCFld=F I1PDM=0
 GePol: Maximum number of non-zero 2nd derivatives   =     363
 Leave Link  701 at Thu Jul 20 11:17:09 2023, MaxMem=  2952790016 cpu:              79.6 elap:               6.7
 (Enter /mnt/data/applications/G16/g16/l702.exe)
 L702 exits ... SP integral derivatives will be done elsewhere.
 Leave Link  702 at Thu Jul 20 11:17:09 2023, MaxMem=  2952790016 cpu:               0.2 elap:               0.0
 (Enter /mnt/data/applications/G16/g16/l703.exe)
 Integral derivatives from FoFJK, PRISM(SPDF).
 Compute integral second derivatives, UseDBF=F ICtDFT=           0.
 Calling FoFJK, ICntrl=    100127 FMM=F ISym2X=0 I1Cent= 0 IOpClX= 0 NMat=1 NMatS=1 NMatT=0.
 FoFJK:  IHMeth= 1 ICntrl=  100127 DoSepK=T KAlg= 0 I1Cent=           0 FoldK=F
 IRaf=         1 NMat=       1 IRICut=       1 DoRegI=T DoRafI=F ISym2E= 0 IDoP0=0 IntGTp=1.
 FoFCou: FMM=F IPFlag=           0 FMFlag=      100000 FMFlg1=         800
         NFxFlg=           0 DoJE=F BraDBF=F KetDBF=F FulRan=T
         wScrn=  0.000000 ICntrl=    100527 IOpCl=  0 I1Cent=           0 NGrid=           0
         NMat0=    1 NMatS0=      1 NMatT0=    0 NMatD0=    1 NMtDS0=    0 NMtDT0=    0
 Symmetry not used in FoFCou.
 Leave Link  703 at Thu Jul 20 11:18:30 2023, MaxMem=  2952790016 cpu:             958.7 elap:              80.1
 (Enter /mnt/data/applications/G16/g16/l716.exe)
 Dipole        = 7.04650499D-01 1.01307154D+00-7.38581190D-06
 Polarizability= 4.76687750D+01 5.23689937D-01 4.89398898D+01
                 1.30399452D-04-1.61986876D-04 3.61449425D+01
 Full mass-weighted force constant matrix:
 Low frequencies ---   -6.5796   -0.0009   -0.0009    0.0005   12.8439   21.2129
 Low frequencies ---  151.3807  239.5417  259.4186
 Diagonal vibrational polarizability:
        7.2983062       2.4234290       4.9132476
 Harmonic frequencies (cm**-1), IR intensities (KM/Mole), Raman scattering
 activities (A**4/AMU), depolarization ratios for plane and unpolarized
 incident light, reduced masses (AMU), force constants (mDyne/A),
 and normal coordinates:
                      1                      2                      3
                      A                      A                      A
 Frequencies --    150.7701               239.5050               259.4179
 Red. masses --      1.4748                 1.2181                 3.7408
 Frc consts  --      0.0198                 0.0412                 0.1483
 IR Inten    --      3.4200                 0.4549                10.7991
  Atom  AN      X      Y      Z        X      Y      Z        X      Y      Z
     1   6     0.00  -0.00  -0.13     0.00   0.00   0.09     0.03   0.05  -0.00
     2   1     0.00  -0.00  -0.46    -0.00   0.00   0.35    -0.16  -0.09  -0.00
     3   6    -0.00  -0.00   0.04     0.00   0.00  -0.09    -0.01   0.14   0.00
     4   1     0.12   0.17   0.20    -0.09  -0.15  -0.22     0.06   0.10  -0.01
     5   1    -0.12  -0.17   0.20     0.09   0.15  -0.22     0.06   0.10   0.01
     6   6     0.00   0.00  -0.05    -0.00  -0.00   0.03    -0.31  -0.07  -0.00
     7   1     0.00   0.00   0.35    -0.00  -0.00   0.54    -0.22  -0.40  -0.00
     8   1    -0.26  -0.27  -0.29    -0.38  -0.18  -0.17    -0.51  -0.03  -0.01
     9   1     0.26   0.27  -0.29     0.38   0.18  -0.17    -0.51  -0.03   0.01
    10   8    -0.00   0.00   0.12     0.00  -0.00  -0.03     0.30  -0.07   0.00
                      4                      5                      6
                      A                      A                      A
 Frequencies --    668.3382               680.2698               867.7553
 Red. masses --      1.1738                 3.2898                 3.1236
 Frc consts  --      0.3089                 0.8970                 1.3858
 IR Inten    --      5.8271                 8.6634                28.3742
  Atom  AN      X      Y      Z        X      Y      Z        X      Y      Z
     1   6    -0.00   0.00  -0.02    -0.16   0.20   0.00     0.29  -0.07  -0.00
     2   1    -0.00   0.00   0.44    -0.26   0.12  -0.00     0.55   0.13   0.00
     3   6    -0.00  -0.00  -0.12    -0.20  -0.18   0.00    -0.11  -0.19  -0.00
     4   1     0.21   0.43   0.26    -0.02  -0.19   0.02    -0.27  -0.13   0.01
     5   1    -0.21  -0.43   0.26    -0.02  -0.19  -0.03    -0.27  -0.13  -0.01
     6   6     0.00  -0.00   0.00     0.05  -0.10   0.00    -0.18   0.13   0.00
     7   1    -0.00   0.00   0.11    -0.12   0.48  -0.00    -0.27   0.46  -0.00
     8   1    -0.12   0.23   0.14     0.42  -0.17   0.02    -0.01   0.11   0.02
     9   1     0.12  -0.23   0.14     0.42  -0.17  -0.02    -0.01   0.11  -0.02
    10   8     0.00   0.00   0.02     0.20   0.07  -0.00     0.02   0.07   0.00
                      7                      8                      9
                      A                      A                      A
 Frequencies --    919.1635              1016.3099              1123.9521
 Red. masses --      1.1510                 1.4097                 2.2284
 Frc consts  --      0.5729                 0.8579                 1.6586
 IR Inten    --      2.1022                 0.8217                16.5087
  Atom  AN      X      Y      Z        X      Y      Z        X      Y      Z
     1   6    -0.00  -0.00  -0.09    -0.04  -0.01  -0.00     0.12  -0.05   0.00
     2   1    -0.00   0.00   0.52    -0.12  -0.08   0.00     0.05  -0.09  -0.00
     3   6     0.00   0.00  -0.01     0.12  -0.00  -0.00    -0.06   0.22  -0.00
     4   1     0.37  -0.17  -0.05     0.50  -0.15  -0.02    -0.16   0.24  -0.01
     5   1    -0.37   0.17  -0.05     0.50  -0.15   0.02    -0.16   0.24   0.01
     6   6     0.00  -0.00   0.06    -0.13   0.04   0.00    -0.04  -0.20   0.00
     7   1     0.00  -0.00  -0.20    -0.25   0.50  -0.00    -0.20   0.38   0.00
     8   1     0.20  -0.33  -0.13     0.19   0.03   0.05     0.45  -0.23   0.07
     9   1    -0.20   0.33  -0.13     0.19   0.03  -0.05     0.45  -0.23  -0.07
    10   8    -0.00  -0.00   0.03    -0.03  -0.04   0.00    -0.04   0.01  -0.00
                     10                     11                     12
                      A                      A                      A
 Frequencies --   1158.5169              1286.5920              1378.7573
 Red. masses --      1.8184                 1.1900                 1.7375
 Frc consts  --      1.4379                 1.1606                 1.9461
 IR Inten    --      0.3580                 0.3153                15.6185
  Atom  AN      X      Y      Z        X      Y      Z        X      Y      Z
     1   6    -0.00   0.00   0.18     0.00  -0.00  -0.08    -0.09   0.03  -0.00
     2   1     0.00  -0.00  -0.60    -0.00   0.00   0.21    -0.06   0.07  -0.00
     3   6     0.00  -0.00  -0.16    -0.00   0.00  -0.03     0.23  -0.05   0.00
     4   1     0.21   0.23   0.07    -0.57   0.26   0.03    -0.59   0.09  -0.08
     5   1    -0.21  -0.23   0.07     0.57  -0.26   0.03    -0.59   0.09   0.08
     6   6     0.00   0.00   0.11     0.00  -0.00   0.09    -0.05  -0.04   0.00
     7   1     0.00  -0.00  -0.22    -0.00  -0.00  -0.16    -0.14   0.27   0.00
     8   1     0.17  -0.34  -0.11     0.09  -0.24  -0.06     0.03   0.18   0.16
     9   1    -0.17   0.34  -0.11    -0.09   0.24  -0.06     0.03   0.18  -0.16
    10   8    -0.00  -0.00  -0.04     0.00   0.00   0.01     0.01  -0.01   0.00
                     13                     14                     15
                      A                      A                      A
 Frequencies --   1419.3069              1427.4752              1448.6016
 Red. masses --      1.2422                 1.1202                 1.1959
 Frc consts  --      1.4744                 1.3449                 1.4785
 IR Inten    --      2.4208                35.5131                12.0397
  Atom  AN      X      Y      Z        X      Y      Z        X      Y      Z
     1   6     0.06  -0.01   0.00    -0.04   0.02  -0.00    -0.03   0.00   0.00
     2   1    -0.39  -0.36   0.00     0.44   0.39  -0.00     0.44   0.37  -0.00
     3   6    -0.03  -0.01   0.00    -0.01  -0.03  -0.00    -0.03   0.09   0.00
     4   1     0.06   0.02   0.04     0.15   0.39   0.32     0.00  -0.38  -0.33
     5   1     0.06   0.02  -0.04     0.15   0.39  -0.32     0.00  -0.38   0.33
     6   6     0.09  -0.08  -0.00     0.02  -0.04  -0.00     0.05  -0.05   0.00
     7   1    -0.09   0.47  -0.00    -0.05   0.20  -0.00    -0.02   0.18  -0.00
     8   1    -0.40   0.23   0.12    -0.12   0.09   0.06    -0.15   0.14   0.09
     9   1    -0.40   0.23  -0.12    -0.12   0.09  -0.06    -0.15   0.14  -0.09
    10   8    -0.01   0.04  -0.00    -0.00  -0.06   0.00     0.01  -0.04   0.00
                     16                     17                     18
                      A                      A                      A
 Frequencies --   1495.4541              1498.6310              1836.0836
 Red. masses --      1.0364                 1.0554                 9.9205
 Frc consts  --      1.3656                 1.3965                19.7046
 IR Inten    --     11.0545                12.4155               229.7657
  Atom  AN      X      Y      Z        X      Y      Z        X      Y      Z
     1   6    -0.00   0.00  -0.00     0.01  -0.01   0.00     0.33   0.63  -0.00
     2   1     0.00   0.00   0.00    -0.04  -0.05   0.00    -0.43  -0.01  -0.00
     3   6     0.00   0.00  -0.02    -0.04  -0.01  -0.00    -0.03  -0.04   0.00
     4   1    -0.03   0.04  -0.00     0.08  -0.00   0.04    -0.15  -0.09  -0.08
     5   1     0.03  -0.04  -0.00     0.08  -0.00  -0.04    -0.15  -0.09   0.08
     6   6     0.00   0.00  -0.05    -0.03  -0.03  -0.00     0.00   0.01   0.00
     7   1    -0.00   0.00   0.70     0.09  -0.38   0.00     0.04  -0.11  -0.00
     8   1     0.49  -0.04   0.05     0.24   0.45   0.39     0.04   0.01  -0.00
     9   1    -0.49   0.04   0.05     0.24   0.45  -0.39     0.04   0.01   0.00
    10   8    -0.00  -0.00   0.00     0.00   0.01  -0.00    -0.19  -0.43   0.00
                     19                     20                     21
                      A                      A                      A
 Frequencies --   2911.5226              3038.1284              3065.2907
 Red. masses --      1.0831                 1.0627                 1.0361
 Frc consts  --      5.4093                 5.7790                 5.7360
 IR Inten    --    142.1168                27.3481                20.2843
  Atom  AN      X      Y      Z        X      Y      Z        X      Y      Z
     1   6     0.05  -0.06   0.00     0.00  -0.01  -0.00     0.00   0.00  -0.00
     2   1    -0.60   0.79  -0.00    -0.05   0.06  -0.00    -0.01   0.01  -0.00
     3   6    -0.00   0.00   0.00    -0.02  -0.07  -0.00     0.00  -0.00  -0.00
     4   1    -0.00  -0.03   0.05     0.12   0.40  -0.57     0.00   0.01  -0.01
     5   1    -0.00  -0.03  -0.05     0.12   0.40   0.57     0.00   0.01   0.01
     6   6    -0.00   0.00  -0.00     0.00   0.00   0.00    -0.03   0.04   0.00
     7   1    -0.00  -0.00   0.00    -0.06  -0.02   0.00     0.55   0.17  -0.00
     8   1     0.00   0.00  -0.01     0.00  -0.00   0.01    -0.10  -0.32   0.47
     9   1     0.00   0.00   0.01     0.00  -0.00  -0.01    -0.10  -0.32  -0.47
    10   8    -0.00  -0.00   0.00     0.00   0.00  -0.00    -0.00  -0.00  -0.00
                     22                     23                     24
                      A                      A                      A
 Frequencies --   3068.4354              3141.2706              3141.3867
 Red. masses --      1.0984                 1.1028                 1.1029
 Frc consts  --      6.0931                 6.4117                 6.4127
 IR Inten    --      5.9976                25.8618                23.3401
  Atom  AN      X      Y      Z        X      Y      Z        X      Y      Z
     1   6    -0.00   0.00  -0.00     0.00  -0.00  -0.00     0.00  -0.00   0.00
     2   1     0.00  -0.00   0.00    -0.00   0.00  -0.00    -0.00   0.00   0.00
     3   6     0.00   0.00  -0.09    -0.00  -0.00  -0.01    -0.00  -0.00   0.00
     4   1    -0.13  -0.41   0.55    -0.01  -0.05   0.07     0.01   0.03  -0.03
     5   1     0.13   0.41   0.55     0.01   0.06   0.07     0.01   0.02   0.03
     6   6     0.00  -0.00   0.01    -0.00  -0.00  -0.09    -0.07  -0.06   0.00
     7   1    -0.00  -0.00   0.00     0.01   0.00  -0.02     0.78   0.22   0.00
     8   1     0.02   0.05  -0.07    -0.12  -0.40   0.55     0.06   0.23  -0.34
     9   1    -0.02  -0.05  -0.07     0.12   0.40   0.56     0.05   0.22   0.33
    10   8     0.00  -0.00  -0.00     0.00   0.00   0.00     0.00   0.00  -0.00

 -------------------
 - Thermochemistry -
 -------------------
 Temperature   298.150 Kelvin.  Pressure   1.00000 Atm.
 Atom     1 has atomic number  6 and mass  12.00000
 Atom     2 has atomic number  1 and mass   1.00783
 Atom     3 has atomic number  6 and mass  12.00000
 Atom     4 has atomic number  1 and mass   1.00783
 Atom     5 has atomic number  1 and mass   1.00783
 Atom     6 has atomic number  6 and mass  12.00000
 Atom     7 has atomic number  1 and mass   1.00783
 Atom     8 has atomic number  1 and mass   1.00783
 Atom     9 has atomic number  1 and mass   1.00783
 Atom    10 has atomic number  8 and mass  15.99491
 Molecular mass:    58.04186 amu.
 Principal axes and moments of inertia in atomic units:
                           1         2         3
     Eigenvalues --   105.99216 308.68317 392.65351
           X            0.99836  -0.05732   0.00000
           Y            0.05732   0.99836   0.00000
           Z           -0.00000   0.00000   1.00000
 This molecule is an asymmetric top.
 Rotational symmetry number  1.
 Rotational temperatures (Kelvin)      0.81717     0.28059     0.22059
 Rotational constants (GHZ):          17.02712     5.84658     4.59627
 Zero-point vibrational energy     222750.3 (Joules/Mol)
                                   53.23859 (Kcal/Mol)
 Warning -- explicit consideration of   3 degrees of freedom as
           vibrations may cause significant error
 Vibrational temperatures:    216.92   344.59   373.24   961.59   978.76
          (Kelvin)           1248.51  1322.47  1462.24  1617.12  1666.85
                             1851.12  1983.72  2042.07  2053.82  2084.21
                             2151.62  2156.20  2641.71  4189.03  4371.19
                             4410.27  4414.79  4519.59  4519.75
 
 Zero-point correction=                           0.084841 (Hartree/Particle)
 Thermal correction to Energy=                    0.089776
 Thermal correction to Enthalpy=                  0.090720
 Thermal correction to Gibbs Free Energy=         0.057662
 Sum of electronic and zero-point Energies=           -193.080703
 Sum of electronic and thermal Energies=              -193.075768
 Sum of electronic and thermal Enthalpies=            -193.074824
 Sum of electronic and thermal Free Energies=         -193.107883
 
                     E (Thermal)             CV                S
                      KCal/Mol        Cal/Mol-Kelvin    Cal/Mol-Kelvin
 Total                   56.335             15.750             69.578
 Electronic               0.000              0.000              0.000
 Translational            0.889              2.981             38.096
 Rotational               0.889              2.981             24.067
 Vibrational             54.558              9.788              7.415
 Vibration     1          0.618              1.902              2.662
 Vibration     2          0.657              1.780              1.807
 Vibration     3          0.668              1.747              1.666
                       Q            Log10(Q)             Ln(Q)
 Total Bot       0.300235D-26        -26.522539        -61.070404
 Total V=0       0.317409D+13         12.501619         28.786043
 Vib (Bot)       0.425746D-38        -38.370849        -88.352145
 Vib (Bot)    1  0.134459D+01          0.128589          0.296087
 Vib (Bot)    2  0.818875D+00         -0.086782         -0.199823
 Vib (Bot)    3  0.748935D+00         -0.125556         -0.289104
 Vib (V=0)       0.450101D+01          0.653310          1.504302
 Vib (V=0)    1  0.193454D+01          0.286579          0.659871
 Vib (V=0)    2  0.145946D+01          0.164191          0.378064
 Vib (V=0)    3  0.140050D+01          0.146284          0.336830
 Electronic      0.100000D+01          0.000000          0.000000
 Translational   0.173806D+08          7.240066         16.670868
 Rotational      0.405736D+05          4.608244         10.610873
 
                                                     Auto-generated job for prod
                                                             IR Spectrum
 
     33 333    2                                          1            11111 1  1     11   1                                         
     11 000    9                                          8            44444 3  2     11   0   9 8      66                22  1      
     44 663    1                                          3            99421 7  8     52   1   1 6      86                54  5      
     11 858    2                                          6            95979 9  7     94   6   9 8      08                90  1      
 
     XX XXX    X                                          X            XXXXX X  X     XX   X   X X      XX                XX  X      
     XX  XX    X                                          X               X                      X                                   
               X                                          X               X                                                          
               X                                          X                                                                          
               X                                          X                                                                          
               X                                          X                                                                          
               X                                          X                                                                          
               X                                          X                                                                          
               X                                          X                                                                          
               X                                          X                                                                          
               X                                          X                                                                          
               X                                          X                                                                          
                                                          X                                                                          
                                                          X                                                                          
                                                          X                                                                          
                                                          X                                                                          
                                                          X                                                                          
                                                          X                                                                          
                                                          X                                                                          
                                                          X                                                                          
 
 ***** Axes restored to original set *****
 -------------------------------------------------------------------
 Center     Atomic                   Forces (Hartrees/Bohr)
 Number     Number              X              Y              Z
 -------------------------------------------------------------------
      1        6           0.000021665    0.000044073   -0.000000502
      2        1          -0.000004981   -0.000020472    0.000000371
      3        6           0.000002747   -0.000007531    0.000001003
      4        1          -0.000006137    0.000001466    0.000001882
      5        1          -0.000005782    0.000001807   -0.000002566
      6        6           0.000007299    0.000002556   -0.000000134
      7        1          -0.000002852    0.000000874    0.000000105
      8        1           0.000003629    0.000004142   -0.000004311
      9        1           0.000003826    0.000004300    0.000004283
     10        8          -0.000019412   -0.000031217   -0.000000129
 -------------------------------------------------------------------
 Cartesian Forces:  Max     0.000044073 RMS     0.000012286
 Force constants in Cartesian coordinates: 
                1             2             3             4             5 
      1  0.605135D+00
      2  0.138953D+00  0.953310D+00
      3  0.804607D-04  0.231206D-03  0.219424D+00
      4 -0.158403D+00  0.999503D-01  0.195632D-04  0.153658D+00
      5  0.107542D+00 -0.167148D+00 -0.192384D-04 -0.111862D+00  0.216613D+00
      6  0.218159D-04 -0.200180D-04 -0.639476D-01 -0.198025D-04  0.451670D-04
      7 -0.203460D+00  0.563125D-02 -0.100567D-04 -0.144260D-01 -0.415931D-02
      8  0.636095D-02 -0.856204D-01  0.297333D-05  0.262159D-01  0.597616D-02
      9 -0.785344D-05  0.324752D-05 -0.892577D-01  0.505374D-05 -0.334119D-05
     10 -0.250609D-02 -0.212575D-01  0.302785D-01  0.546725D-03  0.149884D-02
     11 -0.400517D-02 -0.933829D-02  0.688957D-02 -0.436933D-03  0.140362D-03
     12 -0.194925D-02 -0.540842D-03 -0.284838D-03  0.856177D-03 -0.149736D-03
     13 -0.250103D-02 -0.212359D-01 -0.302939D-01  0.546133D-03  0.149690D-02
     14 -0.400582D-02 -0.933391D-02 -0.689741D-02 -0.436656D-03  0.139436D-03
     15  0.194495D-02  0.529468D-03 -0.295488D-03 -0.856439D-03  0.149881D-03
     16 -0.282803D-01  0.312838D-01  0.841790D-05 -0.499290D-02 -0.142223D-02
     17  0.328256D-02  0.998944D-02  0.337454D-05 -0.416404D-02  0.466293D-03
     18 -0.207517D-05  0.620819D-05  0.553344D-03 -0.230846D-05  0.000000D+00
     19  0.507844D-04  0.398740D-02  0.135257D-05 -0.121689D-02 -0.191269D-03
     20  0.133316D-02 -0.715727D-02 -0.256104D-05  0.181468D-02  0.141132D-03
     21  0.000000D+00 -0.231973D-05  0.650871D-03  0.000000D+00  0.000000D+00
     22  0.960229D-03  0.112530D-02 -0.819368D-03  0.203536D-03 -0.185813D-03
     23 -0.170511D-02 -0.272766D-03  0.165735D-04  0.430951D-04 -0.601471D-04
     24  0.932820D-03  0.143361D-02  0.282239D-04 -0.177025D-03 -0.144403D-03
     25  0.960373D-03  0.112505D-02  0.820340D-03  0.203684D-03 -0.185574D-03
     26 -0.170477D-02 -0.271697D-03 -0.170157D-04  0.429041D-04 -0.603708D-04
     27 -0.933899D-03 -0.143366D-02  0.273844D-04  0.177125D-03  0.144422D-03
     28 -0.211957D+00 -0.239563D+00 -0.854029D-04  0.238806D-01  0.746851D-02
     29 -0.246051D+00 -0.684157D+00 -0.207465D-03 -0.111669D-01 -0.562074D-01
     30 -0.873200D-04 -0.206898D-03 -0.668981D-01 -0.283176D-05 -0.219384D-04
                6             7             8             9            10 
      6  0.236641D-01
      7 -0.457846D-05  0.481691D+00
      8  0.000000D+00 -0.600804D-02  0.547591D+00
      9  0.169143D-01 -0.105780D-04 -0.386520D-05  0.536125D+00
     10 -0.331509D-02 -0.557526D-01 -0.257079D-01  0.431712D-01  0.596455D-01
     11 -0.117159D-02 -0.227437D-01 -0.127790D+00  0.121550D+00  0.271376D-01
     12  0.275159D-03  0.388068D-01  0.120254D+00 -0.205757D+00 -0.422946D-01
     13  0.331655D-02 -0.557351D-01 -0.256533D-01 -0.431600D-01  0.173480D-02
     14  0.117130D-02 -0.226906D-01 -0.127614D+00 -0.121496D+00  0.436133D-02
     15  0.276585D-03 -0.387917D-01 -0.120201D+00 -0.205947D+00 -0.624416D-02
     16 -0.130994D-05 -0.123430D+00  0.604263D-01  0.177374D-04  0.346602D-02
     17 -0.143636D-05  0.600132D-01 -0.168372D+00 -0.243530D-04  0.125147D-01
     18  0.258208D-02  0.177770D-04 -0.240229D-04 -0.811712D-01 -0.174847D-01
     19  0.000000D+00 -0.176632D-01 -0.645223D-02 -0.333597D-05  0.568562D-03
     20  0.000000D+00  0.300554D-01  0.768470D-02  0.517979D-05 -0.724519D-03
     21  0.124088D-03  0.870962D-05  0.263558D-05 -0.129112D-02 -0.320182D-03
     22  0.413467D-03  0.319665D-02  0.114136D-01 -0.181455D-01 -0.242937D-02
     23 -0.152089D-03 -0.417861D-02 -0.160206D-01  0.221390D-01  0.379836D-02
     24 -0.159084D-03 -0.122147D-02 -0.146999D-02  0.172614D-02  0.337388D-03
     25 -0.413483D-03  0.319347D-02  0.114012D-01  0.181533D-01  0.637543D-03
     26  0.152177D-03 -0.417576D-02 -0.160064D-01 -0.221514D-01 -0.779577D-03
     27 -0.158925D-03  0.121904D-02  0.145959D-02  0.171512D-02  0.447273D-03
     28  0.266425D-05 -0.176149D-01 -0.519965D-01 -0.199659D-04 -0.591107D-02
     29 -0.238043D-04 -0.317438D-01 -0.198288D-01 -0.182036D-04 -0.841383D-03
     30  0.204293D-01 -0.139893D-04 -0.203804D-04  0.269434D-01 -0.457561D-02
               11            12            13            14            15 
     11  0.142557D+00
     12 -0.131623D+00  0.224710D+00
     13  0.435982D-02  0.625217D-02  0.596270D-01
     14  0.968634D-02  0.145264D-01  0.270802D-01  0.142366D+00
     15 -0.145028D-01 -0.217545D-01  0.422804D-01  0.131567D+00  0.224916D+00
     16 -0.487434D-02 -0.792873D-03  0.346266D-02 -0.487077D-02  0.789523D-03
     17 -0.148333D-01 -0.144537D-02  0.125023D-01 -0.148206D-01  0.143610D-02
     18  0.203480D-01  0.166292D-02  0.174939D-01 -0.203609D-01  0.165302D-02
     19 -0.129827D-03 -0.502387D-03  0.568307D-03 -0.130225D-03  0.502336D-03
     20  0.114157D-02  0.260972D-03 -0.724733D-03  0.114147D-02 -0.260358D-03
     21 -0.297177D-03  0.108109D-03  0.319749D-03  0.297885D-03  0.108187D-03
     22  0.336152D-02  0.393139D-04  0.637702D-03 -0.600483D-03  0.281573D-03
     23 -0.360362D-02 -0.551270D-03 -0.779340D-03  0.482364D-03 -0.658720D-04
     24 -0.451891D-03  0.136068D-02 -0.447811D-03  0.219646D-03  0.675826D-03
     25 -0.600205D-03 -0.281998D-03 -0.242937D-02  0.336164D-02 -0.376066D-04
     26  0.482320D-03  0.656386D-04  0.379833D-02 -0.360437D-02  0.548570D-03
     27 -0.219937D-03  0.675568D-03 -0.335402D-03  0.448932D-03  0.136130D-02
     28 -0.206876D-02 -0.133380D-03 -0.591114D-02 -0.206864D-02  0.131061D-03
     29  0.155830D-02 -0.796526D-03 -0.844266D-03  0.155732D-02  0.798347D-03
     30 -0.521282D-03 -0.996255D-03  0.457431D-02  0.523060D-03 -0.994580D-03
               16            17            18            19            20 
     16  0.551868D+00
     17  0.439751D-01  0.521609D+00
     18  0.127424D-04 -0.164391D-04  0.578304D+00
     19 -0.295885D+00 -0.739895D-01 -0.423022D-04  0.320798D+00
     20 -0.764156D-01 -0.691731D-01 -0.125085D-04  0.788245D-01  0.748114D-01
     21 -0.429704D-04 -0.123641D-04 -0.482521D-01  0.458961D-04  0.151662D-04
     22 -0.553468D-01 -0.260652D-01  0.385600D-01 -0.377195D-02 -0.165798D-01
     23 -0.249986D-01 -0.131917D+00  0.122060D+00 -0.984088D-03 -0.522733D-02
     24  0.366840D-01  0.123276D+00 -0.226320D+00 -0.134949D-03 -0.180835D-02
     25 -0.553361D-01 -0.260219D-01 -0.385529D-01 -0.376825D-02 -0.165627D-01
     26 -0.249567D-01 -0.131753D+00 -0.122001D+00 -0.983244D-03 -0.522418D-02
     27 -0.366762D-01 -0.123216D+00 -0.226494D+00  0.133592D-03  0.180173D-02
     28  0.447441D-02 -0.204709D-02  0.000000D+00  0.319134D-03 -0.102040D-02
     29  0.185298D-02 -0.119594D-02  0.000000D+00  0.484751D-04  0.186155D-02
     30  0.000000D+00  0.000000D+00 -0.251859D-02  0.000000D+00  0.000000D+00
               21            22            23            24            25 
     21  0.459884D-01
     22  0.259936D-01  0.566710D-01
     23  0.651765D-02  0.246263D-01  0.144137D+00
     24  0.121105D-02 -0.412610D-01 -0.134884D+00  0.241212D+00
     25 -0.260053D-01  0.169547D-03  0.365934D-02  0.502622D-02  0.566596D-01
     26 -0.652207D-02  0.366058D-02  0.112321D-01  0.150030D-01  0.245793D-01
     27  0.120425D-02 -0.502095D-02 -0.149817D-01 -0.200857D-01  0.412509D-01
     28  0.000000D+00 -0.290560D-03  0.518619D-03  0.261829D-03 -0.290441D-03
     29  0.000000D+00 -0.755973D-03  0.124928D-02 -0.117443D-02 -0.756130D-03
     30  0.148276D-03 -0.410655D-04 -0.990718D-04  0.351334D-03  0.404999D-04
               26            27            28            29            30 
     26  0.143957D+00
     27  0.134822D+00  0.241403D+00
     28  0.518884D-03 -0.261472D-03  0.213301D+00
     29  0.124848D-02  0.117498D-02  0.290258D+00  0.753914D+00
     30  0.996390D-04  0.352092D-03  0.105029D-03  0.245932D-03  0.231831D-01
 FormGI is forming the generalized inverse of G from B-inverse, IUseBI=4.
 Force constants in internal coordinates: 
                1             2             3             4             5 
      1  0.301280D+00
      2  0.695699D-02  0.286266D+00
      3  0.386880D-01  0.467873D-01  0.880282D+00
      4  0.868759D-03  0.544818D-02 -0.452813D-03  0.330738D+00
      5  0.868681D-03  0.544891D-02 -0.453160D-03  0.275172D-02  0.330735D+00
      6 -0.316538D-03  0.104720D-01  0.444926D-03  0.502335D-02  0.502355D-02
      7  0.289806D-03 -0.238428D-03 -0.514878D-03  0.491314D-03  0.491238D-03
      8  0.712137D-04 -0.121415D-02  0.141048D-02 -0.685352D-03  0.417490D-03
      9  0.712362D-04 -0.121417D-02  0.141061D-02  0.417437D-03 -0.685330D-03
     10  0.106635D-01  0.258328D-02 -0.406256D-01 -0.133248D-02 -0.133204D-02
     11  0.376159D-02 -0.233411D-01  0.208079D-01 -0.217058D-02 -0.217039D-02
     12 -0.144251D-01  0.207578D-01  0.198177D-01  0.350306D-02  0.350243D-02
     13 -0.317311D-03 -0.213601D-03  0.497214D-02  0.644887D-02 -0.803470D-03
     14 -0.317156D-03 -0.214239D-03  0.497178D-02 -0.803522D-03  0.644944D-02
     15  0.238397D-02  0.199299D-01 -0.837382D-02 -0.573810D-02 -0.573831D-02
     16  0.359219D-03 -0.202522D-02 -0.104345D-02  0.247259D-02  0.247246D-02
     17 -0.110623D-02 -0.930835D-02  0.216171D-03 -0.412403D-03 -0.996465D-03
     18 -0.110629D-02 -0.930783D-02  0.216453D-03 -0.996638D-03 -0.412698D-03
     19  0.173203D-02  0.214226D-02  0.104771D-02 -0.818093D-03 -0.818025D-03
     20 -0.477670D-03 -0.147061D-02  0.116254D-02  0.340916D-02 -0.953449D-03
     21 -0.477701D-03 -0.147129D-02  0.116248D-02 -0.953286D-03  0.340925D-02
     22 -0.443077D-03  0.826411D-04 -0.128720D-02 -0.914489D-03  0.152774D-03
     23 -0.443048D-03  0.829364D-04 -0.128717D-02  0.152751D-03 -0.914570D-03
     24  0.620884D-04  0.663118D-03 -0.971433D-03 -0.952556D-03 -0.952490D-03
     25 -0.650022D-04  0.123687D-02 -0.157124D-02 -0.651613D-03 -0.459530D-02
     26  0.651147D-04 -0.123712D-02  0.157124D-02  0.459513D-02  0.651673D-03
     27  0.000000D+00  0.000000D+00  0.000000D+00 -0.116896D-02  0.116899D-02
     28 -0.651515D-04  0.123703D-02 -0.157128D-02 -0.177467D-02 -0.347206D-02
     29  0.649654D-04 -0.123696D-02  0.157120D-02  0.347208D-02  0.177491D-02
     30  0.000000D+00  0.000000D+00  0.000000D+00 -0.229202D-02  0.229224D-02
     31  0.000000D+00  0.000000D+00  0.000000D+00  0.289855D-02 -0.289880D-02
     32  0.278374D-03  0.560047D-03 -0.160210D-03  0.344321D-02 -0.387474D-02
     33 -0.278469D-03 -0.559395D-03  0.160231D-03  0.387445D-02 -0.344346D-02
     34 -0.495704D-03 -0.734832D-02 -0.515651D-03 -0.106965D-02  0.326288D-02
     35 -0.217290D-03 -0.678856D-02 -0.675869D-03 -0.524988D-03  0.228694D-02
     36 -0.774132D-03 -0.790800D-02 -0.355428D-03 -0.937436D-04  0.271822D-02
     37  0.495734D-03  0.734796D-02  0.515623D-03 -0.326289D-02  0.106987D-02
     38  0.774148D-03  0.790772D-02  0.355405D-03 -0.271823D-02  0.939328D-04
     39  0.217305D-03  0.678828D-02  0.675846D-03 -0.228699D-02  0.525213D-03
                6             7             8             9            10 
      6  0.301845D+00
      7  0.374519D-02  0.343876D+00
      8  0.501261D-02  0.218266D-02  0.344020D+00
      9  0.501281D-02  0.218265D-02  0.231417D-02  0.344019D+00
     10  0.674970D-02  0.700255D-03  0.709362D-03  0.709194D-03  0.102985D+00
     11  0.199410D-02 -0.585660D-03  0.303386D-03  0.303292D-03 -0.379411D-01
     12 -0.874380D-02 -0.114594D-03 -0.101275D-02 -0.101249D-02 -0.650437D-01
     13 -0.136404D-01 -0.121734D-02  0.169853D-03  0.100048D-02 -0.934188D-02
     14 -0.136402D-01 -0.121738D-02  0.100049D-02  0.169870D-03 -0.934097D-02
     15  0.148914D-01  0.411209D-02 -0.335083D-02 -0.335086D-02  0.171397D-01
     16 -0.460334D-02  0.585609D-03 -0.892364D-03 -0.892458D-03  0.320141D-02
     17  0.688564D-02 -0.127251D-02  0.282547D-02  0.365371D-03 -0.168237D-02
     18  0.688598D-02 -0.127234D-02  0.365198D-03  0.282542D-02 -0.168294D-02
     19  0.158537D-01  0.211625D-02 -0.529158D-02 -0.529156D-02  0.569354D-02
     20  0.155992D-01 -0.566304D-02  0.224779D-02 -0.575695D-02 -0.128658D-02
     21  0.155992D-01 -0.566304D-02 -0.575692D-02  0.224784D-02 -0.128666D-02
     22 -0.163964D-01  0.463972D-02  0.431895D-02  0.248412D-03 -0.198215D-02
     23 -0.163964D-01  0.463970D-02  0.248417D-03  0.431890D-02 -0.198209D-02
     24 -0.166675D-01  0.389739D-03  0.468812D-02  0.468815D-02  0.657571D-03
     25  0.852802D-02  0.198230D-03  0.731135D-03 -0.231503D-03  0.225076D-02
     26 -0.852817D-02 -0.198222D-03  0.231562D-03 -0.731189D-03 -0.225140D-02
     27  0.000000D+00  0.000000D+00 -0.790985D-03  0.790955D-03  0.000000D+00
     28  0.852784D-02  0.198229D-03  0.885359D-03 -0.385726D-03  0.225094D-02
     29 -0.852835D-02 -0.198223D-03  0.385786D-03 -0.885412D-03 -0.225122D-02
     30  0.000000D+00  0.000000D+00 -0.636761D-03  0.636732D-03  0.000000D+00
     31  0.000000D+00  0.000000D+00 -0.311203D-02  0.311202D-02  0.000000D+00
     32  0.141063D-03  0.351915D-02  0.281088D-03 -0.386144D-02  0.440545D-03
     33 -0.140715D-03 -0.351915D-02  0.386140D-02 -0.281080D-03 -0.440802D-03
     34  0.159560D-02 -0.461660D-03 -0.304673D-02  0.400522D-02  0.917189D-03
     35  0.173649D-02  0.305750D-02  0.346379D-03 -0.296824D-02  0.135786D-02
     36  0.145471D-02 -0.398079D-02  0.392669D-02  0.612125D-03  0.476511D-03
     37 -0.159527D-02  0.461620D-03 -0.400524D-02  0.304674D-02 -0.917103D-03
     38 -0.145438D-02  0.398078D-02 -0.612124D-03 -0.392672D-02 -0.476433D-03
     39 -0.173616D-02 -0.305751D-02  0.296819D-02 -0.346360D-03 -0.135778D-02
               11            12            13            14            15 
     11  0.124491D+00
     12 -0.865503D-01  0.151594D+00
     13 -0.398370D-03  0.974026D-02  0.506815D-01
     14 -0.397758D-03  0.973871D-02  0.788466D-02  0.506789D-01
     15 -0.344158D-02 -0.136981D-01 -0.493071D-01 -0.493051D-01  0.135459D+00
     16  0.404028D-03 -0.360544D-02 -0.913856D-02 -0.913838D-02  0.292605D-01
     17  0.198686D-02 -0.304502D-03 -0.185275D-01  0.236812D-01 -0.377489D-01
     18  0.198639D-02 -0.303447D-03  0.236812D-01 -0.185273D-01 -0.377475D-01
     19  0.681735D-05 -0.570036D-02 -0.288114D-02 -0.288102D-02  0.135468D-01
     20 -0.489491D-04  0.133553D-02 -0.435029D-02  0.443062D-02 -0.542119D-02
     21 -0.487967D-04  0.133546D-02  0.443068D-02 -0.435027D-02 -0.542115D-02
     22 -0.449980D-04  0.202715D-02  0.262936D-02  0.824725D-05 -0.313169D-02
     23 -0.450700D-04  0.202716D-02  0.827619D-05  0.262932D-02 -0.313165D-02
     24  0.184925D-03 -0.842496D-03  0.317369D-03  0.317355D-03  0.334969D-02
     25 -0.551312D-04 -0.219559D-02 -0.913513D-02 -0.599170D-02  0.489856D-02
     26  0.553570D-04  0.219608D-02  0.599125D-02  0.913430D-02 -0.489755D-02
     27  0.000000D+00  0.000000D+00  0.938034D-02 -0.938061D-02  0.000000D+00
     28 -0.554155D-04 -0.219556D-02 -0.140527D-01 -0.107349D-02  0.489809D-02
     29  0.550727D-04  0.219611D-02  0.107364D-02  0.140525D-01 -0.489803D-02
     30  0.000000D+00  0.000000D+00  0.446273D-02 -0.446240D-02  0.000000D+00
     31  0.000000D+00  0.000000D+00  0.882501D-02 -0.882478D-02  0.000000D+00
     32 -0.843149D-04 -0.356223D-03  0.736492D-02 -0.781846D-02  0.149144D-02
     33  0.839532D-04  0.356856D-03  0.781868D-02 -0.736475D-02 -0.149176D-02
     34  0.155064D-02 -0.246783D-02 -0.717403D-02 -0.967420D-03 -0.621264D-02
     35  0.146650D-02 -0.282436D-02 -0.863411D-02  0.389060D-04 -0.472107D-02
     36  0.163477D-02 -0.211129D-02 -0.818035D-02  0.492610D-03 -0.770428D-02
     37 -0.155047D-02  0.246757D-02  0.967227D-03  0.717378D-02  0.621301D-02
     38 -0.163461D-02  0.211104D-02 -0.492855D-03  0.818011D-02  0.770458D-02
     39 -0.146634D-02  0.282411D-02 -0.390963D-04  0.863381D-02  0.472137D-02
               16            17            18            19            20 
     16  0.203604D-01
     17 -0.156952D-01  0.526290D-01
     18 -0.156952D-01 -0.430902D-02  0.526278D-01
     19  0.339611D-02 -0.587984D-02 -0.587955D-02  0.102538D+00
     20 -0.217454D-02  0.113612D-01 -0.388014D-02 -0.202982D-01  0.104995D+00
     21 -0.217461D-02 -0.387992D-02  0.113611D-01 -0.202982D-01 -0.204975D-01
     22 -0.278128D-03 -0.194211D-02  0.300765D-02 -0.396666D-01 -0.400997D-01
     23 -0.278092D-03  0.300764D-02 -0.194222D-02 -0.396664D-01  0.135263D-01
     24  0.153748D-02 -0.271312D-02 -0.271298D-02  0.137349D-01 -0.406634D-01
     25 -0.752994D-02  0.128404D-01  0.265189D-02 -0.666344D-03  0.295972D-02
     26  0.753025D-02 -0.265177D-02 -0.128408D-01  0.666440D-03  0.537930D-03
     27  0.000000D+00 -0.155934D-01  0.155936D-01  0.000000D+00 -0.474832D-02
     28 -0.753010D-02  0.159606D-01 -0.468213D-03 -0.666494D-03  0.331628D-02
     29  0.753009D-02  0.468436D-03 -0.159609D-01  0.666290D-03  0.894489D-03
     30  0.000000D+00 -0.124732D-01  0.124735D-01  0.000000D+00 -0.439176D-02
     31  0.000000D+00 -0.508832D-02  0.508814D-02  0.000000D+00 -0.473543D-02
     32  0.476143D-03 -0.397521D-02  0.242350D-02  0.483262D-02  0.287145D-03
     33 -0.476016D-03 -0.242361D-02  0.397506D-02 -0.483273D-02  0.517304D-02
     34  0.257444D-02  0.653997D-02  0.522991D-02 -0.169878D-02 -0.380466D-02
     35  0.305052D-02  0.765308D-02  0.256526D-02  0.313385D-02  0.121791D-02
     36  0.209836D-02  0.920468D-02  0.411682D-02 -0.653150D-02  0.610381D-02
     37 -0.257456D-02 -0.523006D-02 -0.653962D-02  0.169887D-02 -0.594846D-02
     38 -0.209848D-02 -0.411695D-02 -0.920427D-02  0.653150D-02 -0.925891D-03
     39 -0.305064D-02 -0.256536D-02 -0.765271D-02 -0.313385D-02  0.396001D-02
               21            22            23            24            25 
     21  0.104995D+00
     22  0.135263D-01  0.507927D-01
     23 -0.401000D-01  0.937026D-02  0.507927D-01
     24 -0.406635D-01  0.959408D-02  0.959417D-02  0.516031D-01
     25 -0.537858D-03 -0.951061D-03  0.118996D-03 -0.100643D-02  0.185930D-01
     26 -0.295981D-02 -0.119072D-03  0.951058D-03  0.100642D-02  0.351215D-02
     27  0.474825D-02  0.166287D-02 -0.166291D-02  0.000000D+00  0.567032D-02
     28 -0.894335D-03 -0.117254D-02  0.340568D-03 -0.100646D-02  0.112621D-02
     29 -0.331628D-02 -0.340547D-03  0.117263D-02  0.100640D-02 -0.139547D-01
     30  0.439177D-02  0.144140D-02 -0.144134D-02  0.000000D+00 -0.117965D-01
     31  0.473555D-02 -0.585358D-02  0.585351D-02  0.000000D+00  0.995622D-03
     32 -0.517300D-02  0.536759D-02  0.197865D-03 -0.551019D-02  0.130012D-02
     33 -0.286873D-03 -0.197851D-03 -0.536769D-02  0.551005D-02  0.164080D-02
     34  0.594856D-02 -0.548140D-02  0.582643D-02 -0.802524D-03 -0.601889D-03
     35 -0.395999D-02  0.573977D-02  0.170790D-03 -0.631267D-02 -0.297392D-03
     36  0.926136D-03  0.174328D-03 -0.539476D-02  0.470757D-02  0.432845D-04
     37  0.380468D-02 -0.582654D-02  0.548136D-02  0.802469D-03 -0.123129D-02
     38 -0.610387D-02  0.539462D-02 -0.174285D-03 -0.470768D-02 -0.926793D-03
     39 -0.121774D-02 -0.170813D-03 -0.573984D-02  0.631257D-02 -0.586117D-03
               26            27            28            29            30 
     26  0.185929D-01
     27  0.566992D-02  0.186626D-01
     28 -0.139545D-01 -0.120786D-01  0.180979D-01
     29  0.112618D-02 -0.120790D-01  0.301720D-02  0.180980D-01
     30 -0.117968D-01  0.913650D-03  0.489309D-02  0.489282D-02  0.176032D-01
     31  0.995673D-03  0.842422D-03 -0.172372D-02 -0.172367D-02 -0.187692D-02
     32  0.164086D-02 -0.182693D-03 -0.146374D-02 -0.112300D-02 -0.294656D-02
     33  0.130017D-02 -0.182705D-03 -0.112305D-02 -0.146367D-02 -0.294655D-02
     34 -0.123135D-02  0.602468D-03  0.781450D-03  0.151993D-03  0.198581D-02
     35 -0.586155D-03 -0.422646D-03  0.104142D-02  0.752660D-03  0.916169D-03
     36 -0.926853D-03 -0.422659D-03  0.138212D-02  0.411985D-03  0.916178D-03
     37 -0.602082D-03  0.602420D-03  0.152203D-03  0.781411D-03  0.198591D-02
     38  0.431086D-04 -0.422695D-03  0.412176D-03  0.138208D-02  0.916274D-03
     39 -0.297589D-03 -0.422708D-03  0.752875D-03  0.104140D-02  0.916284D-03
               31            32            33            34            35 
     31  0.124337D-01
     32  0.197103D-02  0.121096D-01
     33  0.197106D-02  0.191115D-02  0.121096D-01
     34  0.466976D-02 -0.584113D-02 -0.542806D-02  0.137527D-01
     35 -0.579290D-02  0.429742D-02 -0.548797D-02  0.324177D-02  0.133321D-01
     36 -0.579287D-02 -0.590101D-02  0.471050D-02  0.365484D-02  0.354670D-02
     37  0.466976D-02 -0.542808D-02 -0.584114D-02  0.283213D-02 -0.726571D-02
     38 -0.579290D-02  0.471048D-02 -0.590105D-02 -0.767876D-02  0.282462D-02
     39 -0.579287D-02 -0.548796D-02  0.429742D-02 -0.726569D-02 -0.696077D-02
               36            37            38            39 
     36  0.141582D-01
     37 -0.767877D-02  0.137527D-01
     38 -0.778691D-02  0.365485D-02  0.141582D-01
     39  0.282460D-02  0.324179D-02  0.354671D-02  0.133321D-01
 Leave Link  716 at Thu Jul 20 11:18:30 2023, MaxMem=  2952790016 cpu:               0.4 elap:               0.0
 (Enter /mnt/data/applications/G16/g16/l103.exe)

 GradGradGradGradGradGradGradGradGradGradGradGradGradGradGradGradGradGrad
 Berny optimization.
 Red2BG is reusing G-inverse.
 Internal  Forces:  Max     0.000033106 RMS     0.000006647
 Search for a local minimum.
 Step number   1 out of a maximum of    2
 All quantities printed in internal units (Hartrees-Bohrs-Radians)
 Second derivative matrix not updated -- analytic derivatives used.
 ITU=  0
     Eigenvalues ---    0.00197   0.00290   0.03037   0.03957   0.04449
     Eigenvalues ---    0.04498   0.05206   0.07562   0.10699   0.12356
     Eigenvalues ---    0.13680   0.14490   0.16109   0.18965   0.23024
     Eigenvalues ---    0.29690   0.30353   0.32054   0.32871   0.33823
     Eigenvalues ---    0.34254   0.34322   0.35024   0.88998
 Angle between quadratic step and forces=  60.43 degrees.
 Linear search not attempted -- first point.
 Iteration  1 RMS(Cart)=  0.00003544 RMS(Int)=  0.00000000
 Iteration  2 RMS(Cart)=  0.00000000 RMS(Int)=  0.00000000
 ITry= 1 IFail=0 DXMaxC= 9.56D-05 DCOld= 1.00D+10 DXMaxT= 5.00D-02 DXLimC= 3.00D+00 Rises=F
 Variable       Old X    -DE/DX   Delta X   Delta X   Delta X     New X
                                 (Linear)    (Quad)   (Total)
    R1        2.09741  -0.00001   0.00000  -0.00004  -0.00004   2.09736
    R2        2.83182   0.00000   0.00000  -0.00002  -0.00002   2.83181
    R3        2.27232   0.00003   0.00000   0.00005   0.00005   2.27237
    R4        2.07215  -0.00000   0.00000  -0.00000  -0.00000   2.07215
    R5        2.07215  -0.00000   0.00000  -0.00000  -0.00000   2.07215
    R6        2.86538   0.00000   0.00000  -0.00001  -0.00001   2.86538
    R7        2.06113  -0.00000   0.00000  -0.00001  -0.00001   2.06111
    R8        2.06102  -0.00000   0.00000  -0.00001  -0.00001   2.06101
    R9        2.06102  -0.00000   0.00000  -0.00001  -0.00001   2.06101
    A1        2.00105   0.00001   0.00000   0.00007   0.00007   2.00112
    A2        2.09644  -0.00001   0.00000  -0.00009  -0.00009   2.09635
    A3        2.18569   0.00001   0.00000   0.00002   0.00002   2.18571
    A4        1.85849  -0.00000   0.00000  -0.00004  -0.00004   1.85845
    A5        1.85847  -0.00000   0.00000  -0.00002  -0.00002   1.85845
    A6        2.00474   0.00001   0.00000   0.00003   0.00003   2.00477
    A7        1.83017  -0.00000   0.00000  -0.00003  -0.00003   1.83015
    A8        1.95020   0.00000   0.00000   0.00002   0.00002   1.95022
    A9        1.95019   0.00000   0.00000   0.00003   0.00003   1.95022
   A10        1.92830   0.00000   0.00000   0.00003   0.00003   1.92833
   A11        1.93914  -0.00000   0.00000  -0.00001  -0.00001   1.93913
   A12        1.93914  -0.00000   0.00000  -0.00001  -0.00001   1.93913
   A13        1.88891  -0.00000   0.00000  -0.00000  -0.00000   1.88891
   A14        1.88891  -0.00000   0.00000  -0.00000  -0.00000   1.88891
   A15        1.87750  -0.00000   0.00000  -0.00001  -0.00001   1.87749
    D1       -0.97295   0.00000   0.00000  -0.00003  -0.00003  -0.97298
    D2        0.97308  -0.00000   0.00000  -0.00009  -0.00009   0.97299
    D3       -3.14154  -0.00000   0.00000  -0.00005  -0.00005  -3.14159
    D4        2.16865   0.00000   0.00000  -0.00004  -0.00004   2.16861
    D5       -2.16851  -0.00000   0.00000  -0.00009  -0.00009  -2.16860
    D6        0.00006   0.00000   0.00000  -0.00005  -0.00005   0.00000
    D7        3.14156  -0.00000   0.00000   0.00003   0.00003  -3.14159
    D8       -1.04484   0.00000   0.00000   0.00004   0.00004  -1.04480
    D9        1.04478  -0.00000   0.00000   0.00002   0.00002   1.04480
   D10        1.02223   0.00000   0.00000   0.00005   0.00005   1.02228
   D11        3.11901   0.00000   0.00000   0.00006   0.00006   3.11907
   D12       -1.07455  -0.00000   0.00000   0.00003   0.00003  -1.07452
   D13       -1.02232  -0.00000   0.00000   0.00004   0.00004  -1.02227
   D14        1.07446   0.00000   0.00000   0.00006   0.00006   1.07452
   D15       -3.11910  -0.00000   0.00000   0.00003   0.00003  -3.11907
         Item               Value     Threshold  Converged?
 Maximum Force            0.000033     0.000450     YES
 RMS     Force            0.000007     0.000300     YES
 Maximum Displacement     0.000096     0.001800     YES
 RMS     Displacement     0.000035     0.001200     YES
 Predicted change in Energy=-2.631854D-09
 Optimization completed.
    -- Stationary point found.
                           ----------------------------
                           !   Optimized Parameters   !
                           ! (Angstroms and Degrees)  !
 --------------------------                            --------------------------
 ! Name  Definition              Value          Derivative Info.                !
 --------------------------------------------------------------------------------
 ! R1    R(1,2)                  1.1099         -DE/DX =    0.0                 !
 ! R2    R(1,3)                  1.4985         -DE/DX =    0.0                 !
 ! R3    R(1,10)                 1.2025         -DE/DX =    0.0                 !
 ! R4    R(3,4)                  1.0965         -DE/DX =    0.0                 !
 ! R5    R(3,5)                  1.0965         -DE/DX =    0.0                 !
 ! R6    R(3,6)                  1.5163         -DE/DX =    0.0                 !
 ! R7    R(6,7)                  1.0907         -DE/DX =    0.0                 !
 ! R8    R(6,8)                  1.0906         -DE/DX =    0.0                 !
 ! R9    R(6,9)                  1.0906         -DE/DX =    0.0                 !
 ! A1    A(2,1,3)              114.6518         -DE/DX =    0.0                 !
 ! A2    A(2,1,10)             120.1173         -DE/DX =    0.0                 !
 ! A3    A(3,1,10)             125.2309         -DE/DX =    0.0                 !
 ! A4    A(1,3,4)              106.4837         -DE/DX =    0.0                 !
 ! A5    A(1,3,5)              106.4827         -DE/DX =    0.0                 !
 ! A6    A(1,3,6)              114.8632         -DE/DX =    0.0                 !
 ! A7    A(4,3,5)              104.8613         -DE/DX =    0.0                 !
 ! A8    A(4,3,6)              111.7383         -DE/DX =    0.0                 !
 ! A9    A(5,3,6)              111.7378         -DE/DX =    0.0                 !
 ! A10   A(3,6,7)              110.4833         -DE/DX =    0.0                 !
 ! A11   A(3,6,8)              111.1045         -DE/DX =    0.0                 !
 ! A12   A(3,6,9)              111.1044         -DE/DX =    0.0                 !
 ! A13   A(7,6,8)              108.2265         -DE/DX =    0.0                 !
 ! A14   A(7,6,9)              108.2266         -DE/DX =    0.0                 !
 ! A15   A(8,6,9)              107.573          -DE/DX =    0.0                 !
 ! D1    D(2,1,3,4)            -55.7458         -DE/DX =    0.0                 !
 ! D2    D(2,1,3,5)             55.7534         -DE/DX =    0.0                 !
 ! D3    D(2,1,3,6)           -179.9969         -DE/DX =    0.0                 !
 ! D4    D(10,1,3,4)           124.2544         -DE/DX =    0.0                 !
 ! D5    D(10,1,3,5)          -124.2464         -DE/DX =    0.0                 !
 ! D6    D(10,1,3,6)             0.0033         -DE/DX =    0.0                 !
 ! D7    D(1,3,6,7)           -180.0017         -DE/DX =    0.0                 !
 ! D8    D(1,3,6,8)            -59.8649         -DE/DX =    0.0                 !
 ! D9    D(1,3,6,9)             59.8615         -DE/DX =    0.0                 !
 ! D10   D(4,3,6,7)             58.5695         -DE/DX =    0.0                 !
 ! D11   D(4,3,6,8)            178.7063         -DE/DX =    0.0                 !
 ! D12   D(4,3,6,9)            -61.5673         -DE/DX =    0.0                 !
 ! D13   D(5,3,6,7)            -58.5746         -DE/DX =    0.0                 !
 ! D14   D(5,3,6,8)             61.5622         -DE/DX =    0.0                 !
 ! D15   D(5,3,6,9)           -178.7113         -DE/DX =    0.0                 !
 --------------------------------------------------------------------------------
 GradGradGradGradGradGradGradGradGradGradGradGradGradGradGradGradGradGrad

 Leave Link  103 at Thu Jul 20 11:18:30 2023, MaxMem=  2952790016 cpu:               0.2 elap:               0.0
 (Enter /mnt/data/applications/G16/g16/l9999.exe)

 ----------------------------------------------------------------------

 Electric dipole moment (input orientation):
 (Debye = 10**-18 statcoulomb cm , SI units = C m)
                  (au)            (Debye)         (10**-30 SI)
   Tot        0.123404D+01      0.313661D+01      0.104626D+02
   x          0.704555D+00      0.179080D+01      0.597346D+01
   y          0.101314D+01      0.257514D+01      0.858974D+01
   z          0.379289D-03      0.964057D-03      0.321575D-02

 Dipole polarizability, Alpha (input orientation).
 (esu units = cm**3 , SI units = C**2 m**2 J**-1)
 Alpha(0;0):
               (au)            (10**-24 esu)      (10**-40 SI)
   iso        0.442512D+02      0.655735D+01      0.729604D+01
   aniso      0.122428D+02      0.181419D+01      0.201856D+01
   xx         0.476687D+02      0.706377D+01      0.785950D+01
   yx         0.523570D+00      0.775850D-01      0.863250D-01
   yy         0.489400D+02      0.725216D+01      0.806911D+01
   zx         0.125635D-02      0.186171D-03      0.207143D-03
   zy         0.402643D-02      0.596655D-03      0.663868D-03
   zz         0.361449D+02      0.535613D+01      0.595950D+01

 ----------------------------------------------------------------------

 Dipole orientation:
     6         -1.55007832          1.07763232         -0.35038262
     1         -3.17977586          2.21075777          0.32728454
     6          0.05044432         -0.03519670          1.70367561
     1          0.65425517          1.54529254          2.90003501
     1         -1.22084769         -1.15177493          2.89987509
     6          2.27973325         -1.58504503          0.78788895
     1          3.34754957         -2.32742902          2.38691586
     1          1.65456253         -3.17565777         -0.36403482
     1          3.55299332         -0.44497968         -0.36401322
     8         -1.18557091          0.82417620         -2.57891144

 Electric dipole moment (dipole orientation):
 (Debye = 10**-18 statcoulomb cm , SI units = C m)
                  (au)            (Debye)         (10**-30 SI)
   Tot        0.123404D+01      0.313661D+01      0.104626D+02
   x          0.000000D+00      0.000000D+00      0.000000D+00
   y          0.000000D+00      0.000000D+00      0.000000D+00
   z          0.123404D+01      0.313661D+01      0.104626D+02

 Dipole polarizability, Alpha (dipole orientation).
 (esu units = cm**3 , SI units = C**2 m**2 J**-1)
 Alpha(0;0):
               (au)            (10**-24 esu)      (10**-40 SI)
   iso        0.442512D+02      0.655735D+01      0.729604D+01
   aniso      0.122428D+02      0.181419D+01      0.201856D+01
   xx         0.438619D+02      0.649966D+01      0.723185D+01
   yx        -0.536536D+01     -0.795064D+00     -0.884628D+00
   yy         0.398753D+02      0.590891D+01      0.657455D+01
   zx        -0.339661D+00     -0.503325D-01     -0.560025D-01
   zy         0.236125D+00      0.349901D-01      0.389317D-01
   zz         0.490164D+02      0.726348D+01      0.808171D+01

 ----------------------------------------------------------------------
 1\1\GINC-KIMIK2157\Freq\RwB97XD\Gen\C3H6O1\DGARAY\20-Jul-2023\0\\#P Ge
 om=AllCheck Guess=TCheck SCRF=Check GenChk RwB97XD/ChkBas Freq\\Auto-g
 enerated job for prod\\0,1\C,-0.9260462447,0.4181484295,0.0000823476\H
 ,-1.5836556005,1.3122563621,0.0002778355\C,0.5414474069,0.7215814639,0
 .0003278346\H,0.7263893658,1.3644151631,-0.8685510151\H,0.7262099282,1
 .3637861179,0.8697121265\C,1.4443442961,-0.4965852076,-0.0000123965\H,
 2.4924673487,-0.1948071972,0.0001628858\H,1.2677179591,-1.1165645563,0
 .8797252245\H,1.2678431692,-1.1159788504,-0.8801881074\O,-1.4064606288
 ,-0.6841737249,-0.0002927354\\Version=AM64L-G16RevA.03\State=1-A\HF=-1
 93.1655445\RMSD=1.041e-09\RMSF=1.229e-05\ZeroPoint=0.0848411\Thermal=0
 .0897762\Dipole=0.7045548,1.013138,0.0003793\DipoleDeriv=1.2155416,0.2
 652227,0.0002002,0.184748,1.1995275,0.0003355,0.0001738,0.0003457,0.14
 00302,-0.1460285,0.1775316,0.0000322,0.1505691,-0.1830986,-0.0000592,0
 .0000199,-0.0000528,0.0693621,-0.3589173,-0.1777591,-0.0001156,-0.1780
 255,-0.007247,-0.0000659,-0.0001378,-0.0000805,0.1398289,0.0310812,0.0
 130013,-0.0089547,0.063414,0.0115478,0.0874263,0.0180276,0.124228,-0.0
 189468,0.0310837,0.0130145,0.008976,0.0634416,0.0117006,-0.0873898,-0.
 0179609,-0.1241986,-0.0190971,0.0475738,0.0254651,0.0000047,0.0227784,
 0.0378944,-0.0000104,0.0000099,-0.0000067,0.0752243,-0.1636958,-0.0230
 072,-0.0000273,-0.051755,0.0393273,-0.000021,-0.000036,-0.0000202,0.09
 38421,0.0668773,-0.0147082,0.0531455,0.0302018,-0.0126116,0.0806567,0.
 016391,0.1015504,-0.0636803,0.0668859,-0.0146595,-0.0531363,0.0302263,
 -0.0124898,-0.0806194,-0.0163518,-0.1015183,-0.0638129,-0.7904019,-0.2
 641011,-0.0001246,-0.3155987,-1.0845505,-0.0002529,-0.0001357,-0.00024
 72,-0.3527505\Polar=47.668676,0.5235695,48.9399874,0.0012563,0.0040264
 ,36.1449438\Quadrupole=-1.3683065,0.2670373,1.1012692,-2.0595435,-0.00
 08235,-0.0004348\PG=C01 [X(C3H6O1)]\NImag=0\\0.60513545,0.13895296,0.9
 5330985,0.00008046,0.00023121,0.21942387,-0.15840302,0.09995034,0.0000
 1956,0.15365815,0.10754236,-0.16714833,-0.00001924,-0.11186240,0.21661
 283,0.00002182,-0.00002002,-0.06394756,-0.00001980,0.00004517,0.023664
 06,-0.20345954,0.00563125,-0.00001006,-0.01442600,-0.00415931,-0.00000
 458,0.48169134,0.00636095,-0.08562042,0.00000297,0.02621592,0.00597616
 ,0.00000002,-0.00600804,0.54759132,-0.00000785,0.00000325,-0.08925772,
 0.00000505,-0.00000334,0.01691430,-0.00001058,-0.00000387,0.53612462,-
 0.00250609,-0.02125752,0.03027855,0.00054673,0.00149884,-0.00331509,-0
 .05575259,-0.02570786,0.04317118,0.05964548,-0.00400517,-0.00933829,0.
 00688957,-0.00043693,0.00014036,-0.00117159,-0.02274369,-0.12779029,0.
 12155011,0.02713759,0.14255662,-0.00194925,-0.00054084,-0.00028484,0.0
 0085618,-0.00014974,0.00027516,0.03880683,0.12025373,-0.20575689,-0.04
 229460,-0.13162303,0.22471005,-0.00250103,-0.02123591,-0.03029385,0.00
 054613,0.00149690,0.00331655,-0.05573505,-0.02565325,-0.04316005,0.001
 73480,0.00435982,0.00625217,0.05962698,-0.00400582,-0.00933391,-0.0068
 9741,-0.00043666,0.00013944,0.00117130,-0.02269057,-0.12761371,-0.1214
 9630,0.00436133,0.00968634,0.01452643,0.02708019,0.14236568,0.00194495
 ,0.00052947,-0.00029549,-0.00085644,0.00014988,0.00027659,-0.03879168,
 -0.12020070,-0.20594666,-0.00624416,-0.01450276,-0.02175451,0.04228045
 ,0.13156733,0.22491631,-0.02828028,0.03128384,0.00000842,-0.00499290,-
 0.00142223,-0.00000131,-0.12343019,0.06042625,0.00001774,0.00346602,-0
 .00487434,-0.00079287,0.00346266,-0.00487077,0.00078952,0.55186785,0.0
 0328256,0.00998944,0.00000337,-0.00416404,0.00046629,-0.00000144,0.060
 01317,-0.16837187,-0.00002435,0.01251475,-0.01483331,-0.00144537,0.012
 50227,-0.01482062,0.00143610,0.04397511,0.52160903,-0.00000208,0.00000
 621,0.00055334,-0.00000231,-0.00000082,0.00258208,0.00001778,-0.000024
 02,-0.08117118,-0.01748474,0.02034800,0.00166292,0.01749389,-0.0203608
 7,0.00165302,0.00001274,-0.00001644,0.57830435,0.00005078,0.00398740,0
 .00000135,-0.00121689,-0.00019127,-0.00000023,-0.01766323,-0.00645223,
 -0.00000334,0.00056856,-0.00012983,-0.00050239,0.00056831,-0.00013022,
 0.00050234,-0.29588463,-0.07398953,-0.00004230,0.32079816,0.00133316,-
 0.00715727,-0.00000256,0.00181468,0.00014113,0.00000027,0.03005536,0.0
 0768470,0.00000518,-0.00072452,0.00114157,0.00026097,-0.00072473,0.001
 14147,-0.00026036,-0.07641562,-0.06917308,-0.00001251,0.07882454,0.074
 81145,0.00000036,-0.00000232,0.00065087,0.00000049,0.,0.00012409,0.000
 00871,0.00000264,-0.00129112,-0.00032018,-0.00029718,0.00010811,0.0003
 1975,0.00029788,0.00010819,-0.00004297,-0.00001236,-0.04825212,0.00004
 590,0.00001517,0.04598841,0.00096023,0.00112530,-0.00081937,0.00020354
 ,-0.00018581,0.00041347,0.00319665,0.01141359,-0.01814547,-0.00242937,
 0.00336152,0.00003931,0.00063770,-0.00060048,0.00028157,-0.05534683,-0
 .02606525,0.03855997,-0.00377195,-0.01657977,0.02599355,0.05667104,-0.
 00170511,-0.00027277,0.00001657,0.00004310,-0.00006015,-0.00015209,-0.
 00417861,-0.01602059,0.02213898,0.00379836,-0.00360362,-0.00055127,-0.
 00077934,0.00048236,-0.00006587,-0.02499856,-0.13191670,0.12206045,-0.
 00098409,-0.00522733,0.00651765,0.02462630,0.14413739,0.00093282,0.001
 43361,0.00002822,-0.00017702,-0.00014440,-0.00015908,-0.00122147,-0.00
 146999,0.00172614,0.00033739,-0.00045189,0.00136068,-0.00044781,0.0002
 1965,0.00067583,0.03668403,0.12327648,-0.22632019,-0.00013495,-0.00180
 835,0.00121105,-0.04126102,-0.13488366,0.24121171,0.00096037,0.0011250
 5,0.00082034,0.00020368,-0.00018557,-0.00041348,0.00319347,0.01140120,
 0.01815328,0.00063754,-0.00060021,-0.00028200,-0.00242937,0.00336164,-
 0.00003761,-0.05533611,-0.02602194,-0.03855293,-0.00376825,-0.01656270
 ,-0.02600526,0.00016955,0.00365934,0.00502622,0.05665955,-0.00170477,-
 0.00027170,-0.00001702,0.00004290,-0.00006037,0.00015218,-0.00417576,-
 0.01600645,-0.02215145,-0.00077958,0.00048232,0.00006564,0.00379833,-0
 .00360437,0.00054857,-0.02495665,-0.13175324,-0.12200058,-0.00098324,-
 0.00522418,-0.00652207,0.00366058,0.01123212,0.01500300,0.02457931,0.1
 4395738,-0.00093390,-0.00143366,0.00002738,0.00017712,0.00014442,-0.00
 015892,0.00121904,0.00145959,0.00171512,0.00044727,-0.00021994,0.00067
 557,-0.00033540,0.00044893,0.00136130,-0.03667625,-0.12321646,-0.22649
 364,0.00013359,0.00180173,0.00120425,-0.00502095,-0.01498168,-0.020085
 69,0.04125094,0.13482208,0.24140254,-0.21195687,-0.23956271,-0.0000854
 0,0.02388059,0.00746851,0.00000266,-0.01761486,-0.05199653,-0.00001997
 ,-0.00591107,-0.00206876,-0.00013338,-0.00591114,-0.00206864,0.0001310
 6,0.00447441,-0.00204709,-0.00000002,0.00031913,-0.00102040,-0.0000003
 4,-0.00029056,0.00051862,0.00026183,-0.00029044,0.00051888,-0.00026147
 ,0.21330081,-0.24605111,-0.68415661,-0.00020747,-0.01116690,-0.0562073
 7,-0.00002380,-0.03174381,-0.01982884,-0.00001820,-0.00084138,0.001558
 30,-0.00079653,-0.00084427,0.00155732,0.00079835,0.00185298,-0.0011959
 4,0.00000059,0.00004848,0.00186155,0.00000058,-0.00075597,0.00124928,-
 0.00117443,-0.00075613,0.00124848,0.00117498,0.29025811,0.75391383,-0.
 00008732,-0.00020690,-0.06689809,-0.00000283,-0.00002194,0.02042930,-0
 .00001399,-0.00002038,0.02694340,-0.00457561,-0.00052128,-0.00099626,0
 .00457431,0.00052306,-0.00099458,0.00000095,0.00000048,-0.00251859,0.0
 0000003,0.00000046,0.00014828,-0.00004107,-0.00009907,0.00035133,0.000
 04050,0.00009964,0.00035209,0.00010503,0.00024593,0.02318312\\-0.00002
 167,-0.00004407,0.00000050,0.00000498,0.00002047,-0.00000037,-0.000002
 75,0.00000753,-0.00000100,0.00000614,-0.00000147,-0.00000188,0.0000057
 8,-0.00000181,0.00000257,-0.00000730,-0.00000256,0.00000013,0.00000285
 ,-0.00000087,-0.00000010,-0.00000363,-0.00000414,0.00000431,-0.0000038
 3,-0.00000430,-0.00000428,0.00001941,0.00003122,0.00000013\\\@


 You can't act like a skunk without someone's getting wind of it.
 -- Lorene Workman
 Job cpu time:       0 days  0 hours 35 minutes 24.7 seconds.
 Elapsed time:       0 days  0 hours  2 minutes 58.3 seconds.
 File lengths (MBytes):  RWF=     43 Int=      0 D2E=      0 Chk=      7 Scr=      1
 Normal termination of Gaussian 16 at Thu Jul 20 11:18:30 2023.
