 Entering Gaussian System, Link 0=g16
 Initial command:
 /mnt/data/applications/G16/g16/l1.exe "/scratch/Gau-16331.inp" -scrdir="/scratch/"
 Entering Link 1 = /mnt/data/applications/G16/g16/l1.exe PID=     16332.
  
 Copyright (c) 1988,1990,1992,1993,1995,1998,2003,2009,2016,
            Gaussian, Inc.  All Rights Reserved.
  
 This is part of the Gaussian(R) 16 program.  It is based on
 the Gaussian(R) 09 system (copyright 2009, Gaussian, Inc.),
 the Gaussian(R) 03 system (copyright 2003, Gaussian, Inc.),
 the Gaussian(R) 98 system (copyright 1998, Gaussian, Inc.),
 the Gaussian(R) 94 system (copyright 1995, Gaussian, Inc.),
 the Gaussian 92(TM) system (copyright 1992, Gaussian, Inc.),
 the Gaussian 90(TM) system (copyright 1990, Gaussian, Inc.),
 the Gaussian 88(TM) system (copyright 1988, Gaussian, Inc.),
 the Gaussian 86(TM) system (copyright 1986, Carnegie Mellon
 University), and the Gaussian 82(TM) system (copyright 1983,
 Carnegie Mellon University). Gaussian is a federally registered
 trademark of Gaussian, Inc.
  
 This software contains proprietary and confidential information,
 including trade secrets, belonging to Gaussian, Inc.
  
 This software is provided under written license and may be
 used, copied, transmitted, or stored only in accord with that
 written license.
  
 The following legend is applicable only to US Government
 contracts under FAR:
  
                    RESTRICTED RIGHTS LEGEND
  
 Use, reproduction and disclosure by the US Government is
 subject to restrictions as set forth in subparagraphs (a)
 and (c) of the Commercial Computer Software - Restricted
 Rights clause in FAR 52.227-19.
  
 Gaussian, Inc.
 340 Quinnipiac St., Bldg. 40, Wallingford CT 06492
  
  
 ---------------------------------------------------------------
 Warning -- This program may not be used in any manner that
 competes with the business of Gaussian, Inc. or will provide
 assistance to any competitor of Gaussian, Inc.  The licensee
 of this program is prohibited from giving any competitor of
 Gaussian, Inc. access to this program.  By using this program,
 the user acknowledges that Gaussian, Inc. is engaged in the
 business of creating and licensing software in the field of
 computational chemistry and represents and warrants to the
 licensee that it is not a competitor of Gaussian, Inc. and that
 it will not use this program in any manner prohibited above.
 ---------------------------------------------------------------
  

 Cite this work as:
 Gaussian 16, Revision A.03,
 M. J. Frisch, G. W. Trucks, H. B. Schlegel, G. E. Scuseria, 
 M. A. Robb, J. R. Cheeseman, G. Scalmani, V. Barone, 
 G. A. Petersson, H. Nakatsuji, X. Li, M. Caricato, A. V. Marenich, 
 J. Bloino, B. G. Janesko, R. Gomperts, B. Mennucci, H. P. Hratchian, 
 J. V. Ortiz, A. F. Izmaylov, J. L. Sonnenberg, D. Williams-Young, 
 F. Ding, F. Lipparini, F. Egidi, J. Goings, B. Peng, A. Petrone, 
 T. Henderson, D. Ranasinghe, V. G. Zakrzewski, J. Gao, N. Rega, 
 G. Zheng, W. Liang, M. Hada, M. Ehara, K. Toyota, R. Fukuda, 
 J. Hasegawa, M. Ishida, T. Nakajima, Y. Honda, O. Kitao, H. Nakai, 
 T. Vreven, K. Throssell, J. A. Montgomery, Jr., J. E. Peralta, 
 F. Ogliaro, M. J. Bearpark, J. J. Heyd, E. N. Brothers, K. N. Kudin, 
 V. N. Staroverov, T. A. Keith, R. Kobayashi, J. Normand, 
 K. Raghavachari, A. P. Rendell, J. C. Burant, S. S. Iyengar, 
 J. Tomasi, M. Cossi, J. M. Millam, M. Klene, C. Adamo, R. Cammi, 
 J. W. Ochterski, R. L. Martin, K. Morokuma, O. Farkas, 
 J. B. Foresman, and D. J. Fox, Gaussian, Inc., Wallingford CT, 2016.
 
 ******************************************
 Gaussian 16:  AM64L-G16RevA.03 25-Dec-2016
                 4-Oct-2022 
 ******************************************
 %nprocshared=12
 Will use up to   12 processors via shared memory.
 %mem=22GB
 %chk=TS3.chk
 ----------------------------------------------------------------------
 #p opt=(ts,noeigentest,calcfc,maxstep=2) freq pseudo=read WB97XD gen s
 crf(smd,solvent=toluene)
 ----------------------------------------------------------------------
 1/5=1,8=2,10=4,11=1,18=20,26=3,38=1/1,3;
 2/9=110,12=2,17=6,18=5,40=1/2;
 3/5=7,11=2,16=1,17=8,25=1,30=1,70=32201,71=2,72=13,74=-58,140=1/1,2,3;
 4//1;
 5/5=2,38=5,53=13/2;
 8/6=4,10=90,11=11/1;
 11/6=1,8=1,9=11,15=111,16=1/1,2,10;
 10/6=1,13=1/2;
 6/7=2,8=2,9=2,10=2,28=1/1;
 7/10=1,18=20,25=1/1,2,3,16;
 1/5=1,8=2,10=4,11=1,18=20,26=3/3(2);
 2/9=110/2;
 99//99;
 2/9=110/2;
 3/5=7,6=1,11=2,16=1,17=8,25=1,30=1,70=32205,71=1,72=13,74=-58,82=7/1,2,3;
 4/5=5,16=3,69=1/1;
 5/5=2,38=5,53=13/2;
 7//1,2,3,16;
 1/5=1,8=2,11=1,18=20,26=3/3(-5);
 2/9=110/2;
 6/7=2,8=2,9=2,10=2,19=2,28=1/1;
 99/9=1/99;
 Leave Link    1 at Tue Oct  4 20:12:57 2022, MaxMem=  2952790016 cpu:               0.8 elap:               0.1
 (Enter /mnt/data/applications/G16/g16/l101.exe)
 --------------------------
 Auto-generated job for TS3
 --------------------------
 Symbolic Z-matrix:
 Charge =  0 Multiplicity = 1
 H                     0.13802  -0.63185  -1.93963 
 H                     0.30209  -1.68867  -1.56354 
 Rh                   -0.27266  -0.74679  -0.35617 
 C                     1.70929  -0.27832   0.08711 
 O                     2.08283   0.00892   1.20028 
 C                     2.71611  -0.29044  -1.06055 
 C                     4.12698   0.11147  -0.67093 
 H                     2.31535   0.36126  -1.84234 
 H                     2.69144  -1.29802  -1.48465 
 H                     4.78509   0.07229  -1.54125 
 H                     4.15612   1.12534  -0.26893 
 H                     4.53111  -0.55439   0.09225 
 C                    -0.28263  -1.74245   1.31966 
 O                    -0.26356  -2.32331   2.29432 
 P                    -0.68829   1.53525   0.19004 
 C                    -2.32192   2.19039  -0.27278 
 C                     0.44622   2.74691  -0.55463 
 C                    -0.57768   1.90502   1.96421 
 H                    -1.35505   1.35124   2.49306 
 H                    -0.69563   2.97241   2.16289 
 H                     0.39249   1.56688   2.32992 
 H                    -3.10206   1.61214   0.22462 
 H                    -2.45989   2.09611  -1.35099 
 H                    -2.42407   3.24004   0.01051 
 H                     0.40877   2.65801  -1.64105 
 H                     1.46588   2.54672  -0.22421 
 H                     0.17724   3.76566  -0.26759 
 C                    -2.12104  -1.14995  -0.87564 
 O                    -3.18238  -1.38236  -1.19842 
 
 ITRead=  0  0  0  0  0  0  0  0  0  0  0  0  0  0  0  0  0  0  0  0
 ITRead=  0  0  0  0  0  0  0  0  0
 MicOpt= -1 -1 -1 -1 -1 -1 -1 -1 -1 -1 -1 -1 -1 -1 -1 -1 -1 -1 -1 -1
 MicOpt= -1 -1 -1 -1 -1 -1 -1 -1 -1
 NAtoms=     29 NQM=       29 NQMF=       0 NMMI=      0 NMMIF=      0
                NMic=       0 NMicF=      0.
                    Isotopes and Nuclear Properties:
 (Nuclear quadrupole moments (NQMom) in fm**2, nuclear magnetic moments (NMagM)
  in nuclear magnetons)

  Atom         1           2           3           4           5           6           7           8           9          10
 IAtWgt=           1           1         103          12          16          12          12           1           1           1
 AtmWgt=   1.0078250   1.0078250 102.9048000  12.0000000  15.9949146  12.0000000  12.0000000   1.0078250   1.0078250   1.0078250
 NucSpn=           1           1           1           0           0           0           0           1           1           1
 AtZEff=  -0.0000000  -0.0000000  -0.0000000  -0.0000000  -0.0000000  -0.0000000  -0.0000000  -0.0000000  -0.0000000  -0.0000000
 NQMom=    0.0000000   0.0000000   0.0000000   0.0000000   0.0000000   0.0000000   0.0000000   0.0000000   0.0000000   0.0000000
 NMagM=    2.7928460   2.7928460  -0.0884000   0.0000000   0.0000000   0.0000000   0.0000000   2.7928460   2.7928460   2.7928460
 AtZNuc=   1.0000000   1.0000000  45.0000000   6.0000000   8.0000000   6.0000000   6.0000000   1.0000000   1.0000000   1.0000000

  Atom        11          12          13          14          15          16          17          18          19          20
 IAtWgt=           1           1          12          16          31          12          12          12           1           1
 AtmWgt=   1.0078250   1.0078250  12.0000000  15.9949146  30.9737634  12.0000000  12.0000000  12.0000000   1.0078250   1.0078250
 NucSpn=           1           1           0           0           1           0           0           0           1           1
 AtZEff=  -0.0000000  -0.0000000  -0.0000000  -0.0000000  -0.0000000  -0.0000000  -0.0000000  -0.0000000  -0.0000000  -0.0000000
 NQMom=    0.0000000   0.0000000   0.0000000   0.0000000   0.0000000   0.0000000   0.0000000   0.0000000   0.0000000   0.0000000
 NMagM=    2.7928460   2.7928460   0.0000000   0.0000000   1.1316000   0.0000000   0.0000000   0.0000000   2.7928460   2.7928460
 AtZNuc=   1.0000000   1.0000000   6.0000000   8.0000000  15.0000000   6.0000000   6.0000000   6.0000000   1.0000000   1.0000000

  Atom        21          22          23          24          25          26          27          28          29
 IAtWgt=           1           1           1           1           1           1           1          12          16
 AtmWgt=   1.0078250   1.0078250   1.0078250   1.0078250   1.0078250   1.0078250   1.0078250  12.0000000  15.9949146
 NucSpn=           1           1           1           1           1           1           1           0           0
 AtZEff=  -0.0000000  -0.0000000  -0.0000000  -0.0000000  -0.0000000  -0.0000000  -0.0000000  -0.0000000  -0.0000000
 NQMom=    0.0000000   0.0000000   0.0000000   0.0000000   0.0000000   0.0000000   0.0000000   0.0000000   0.0000000
 NMagM=    2.7928460   2.7928460   2.7928460   2.7928460   2.7928460   2.7928460   2.7928460   0.0000000   0.0000000
 AtZNuc=   1.0000000   1.0000000   1.0000000   1.0000000   1.0000000   1.0000000   1.0000000   6.0000000   8.0000000
 Leave Link  101 at Tue Oct  4 20:12:57 2022, MaxMem=  2952790016 cpu:               4.5 elap:               0.4
 (Enter /mnt/data/applications/G16/g16/l103.exe)

 GradGradGradGradGradGradGradGradGradGradGradGradGradGradGradGradGradGrad
 Berny optimization.
 Initialization pass.
                           ----------------------------
                           !    Initial Parameters    !
                           ! (Angstroms and Degrees)  !
 --------------------------                            --------------------------
 ! Name  Definition              Value          Derivative Info.                !
 --------------------------------------------------------------------------------
 ! R1    R(1,3)                  1.6399         calculate D2E/DX2 analytically  !
 ! R2    R(2,3)                  1.6356         calculate D2E/DX2 analytically  !
 ! R3    R(3,4)                  2.0843         calculate D2E/DX2 analytically  !
 ! R4    R(3,13)                 1.9493         calculate D2E/DX2 analytically  !
 ! R5    R(3,15)                 2.383          calculate D2E/DX2 analytically  !
 ! R6    R(3,28)                 1.9619         calculate D2E/DX2 analytically  !
 ! R7    R(4,5)                  1.2088         calculate D2E/DX2 analytically  !
 ! R8    R(4,6)                  1.5267         calculate D2E/DX2 analytically  !
 ! R9    R(6,7)                  1.5178         calculate D2E/DX2 analytically  !
 ! R10   R(6,8)                  1.0939         calculate D2E/DX2 analytically  !
 ! R11   R(6,9)                  1.0935         calculate D2E/DX2 analytically  !
 ! R12   R(7,10)                 1.0918         calculate D2E/DX2 analytically  !
 ! R13   R(7,11)                 1.0911         calculate D2E/DX2 analytically  !
 ! R14   R(7,12)                 1.0905         calculate D2E/DX2 analytically  !
 ! R15   R(13,14)                1.1348         calculate D2E/DX2 analytically  !
 ! R16   R(15,16)                1.8199         calculate D2E/DX2 analytically  !
 ! R17   R(15,17)                1.8193         calculate D2E/DX2 analytically  !
 ! R18   R(15,18)                1.8157         calculate D2E/DX2 analytically  !
 ! R19   R(16,22)                1.0911         calculate D2E/DX2 analytically  !
 ! R20   R(16,23)                1.0911         calculate D2E/DX2 analytically  !
 ! R21   R(16,24)                1.092          calculate D2E/DX2 analytically  !
 ! R22   R(17,25)                1.0907         calculate D2E/DX2 analytically  !
 ! R23   R(17,26)                1.0904         calculate D2E/DX2 analytically  !
 ! R24   R(17,27)                1.0921         calculate D2E/DX2 analytically  !
 ! R25   R(18,19)                1.0912         calculate D2E/DX2 analytically  !
 ! R26   R(18,20)                1.0921         calculate D2E/DX2 analytically  !
 ! R27   R(18,21)                1.0906         calculate D2E/DX2 analytically  !
 ! R28   R(28,29)                1.1334         calculate D2E/DX2 analytically  !
 ! A1    A(1,3,2)               40.4989         calculate D2E/DX2 analytically  !
 ! A2    A(1,3,4)               87.2184         calculate D2E/DX2 analytically  !
 ! A3    A(1,3,13)             150.1353         calculate D2E/DX2 analytically  !
 ! A4    A(1,3,15)             101.4132         calculate D2E/DX2 analytically  !
 ! A5    A(1,3,28)              89.6949         calculate D2E/DX2 analytically  !
 ! A6    A(2,3,4)               87.2649         calculate D2E/DX2 analytically  !
 ! A7    A(2,3,13)             110.0157         calculate D2E/DX2 analytically  !
 ! A8    A(2,3,15)             141.4388         calculate D2E/DX2 analytically  !
 ! A9    A(2,3,28)              90.99           calculate D2E/DX2 analytically  !
 ! A10   A(4,3,13)              86.378          calculate D2E/DX2 analytically  !
 ! A11   A(4,3,15)              84.3679         calculate D2E/DX2 analytically  !
 ! A12   A(13,3,15)            106.9287         calculate D2E/DX2 analytically  !
 ! A13   A(13,3,28)             96.7683         calculate D2E/DX2 analytically  !
 ! A14   A(15,3,28)             95.3452         calculate D2E/DX2 analytically  !
 ! A15   A(3,4,5)              122.8958         calculate D2E/DX2 analytically  !
 ! A16   A(3,4,6)              117.7383         calculate D2E/DX2 analytically  !
 ! A17   A(5,4,6)              119.3631         calculate D2E/DX2 analytically  !
 ! A18   A(4,6,7)              114.7034         calculate D2E/DX2 analytically  !
 ! A19   A(4,6,8)              106.9128         calculate D2E/DX2 analytically  !
 ! A20   A(4,6,9)              106.4978         calculate D2E/DX2 analytically  !
 ! A21   A(7,6,8)              111.4849         calculate D2E/DX2 analytically  !
 ! A22   A(7,6,9)              111.3777         calculate D2E/DX2 analytically  !
 ! A23   A(8,6,9)              105.2787         calculate D2E/DX2 analytically  !
 ! A24   A(6,7,10)             110.253          calculate D2E/DX2 analytically  !
 ! A25   A(6,7,11)             111.4358         calculate D2E/DX2 analytically  !
 ! A26   A(6,7,12)             111.2503         calculate D2E/DX2 analytically  !
 ! A27   A(10,7,11)            108.1166         calculate D2E/DX2 analytically  !
 ! A28   A(10,7,12)            108.2146         calculate D2E/DX2 analytically  !
 ! A29   A(11,7,12)            107.4365         calculate D2E/DX2 analytically  !
 ! A30   A(3,15,16)            116.2951         calculate D2E/DX2 analytically  !
 ! A31   A(3,15,17)            115.7984         calculate D2E/DX2 analytically  !
 ! A32   A(3,15,18)            114.1029         calculate D2E/DX2 analytically  !
 ! A33   A(16,15,17)           102.4694         calculate D2E/DX2 analytically  !
 ! A34   A(16,15,18)           103.2891         calculate D2E/DX2 analytically  !
 ! A35   A(17,15,18)           103.0816         calculate D2E/DX2 analytically  !
 ! A36   A(15,16,22)           109.5795         calculate D2E/DX2 analytically  !
 ! A37   A(15,16,23)           109.4941         calculate D2E/DX2 analytically  !
 ! A38   A(15,16,24)           111.347          calculate D2E/DX2 analytically  !
 ! A39   A(22,16,23)           108.3181         calculate D2E/DX2 analytically  !
 ! A40   A(22,16,24)           108.9223         calculate D2E/DX2 analytically  !
 ! A41   A(23,16,24)           109.123          calculate D2E/DX2 analytically  !
 ! A42   A(15,17,25)           109.3913         calculate D2E/DX2 analytically  !
 ! A43   A(15,17,26)           109.6843         calculate D2E/DX2 analytically  !
 ! A44   A(15,17,27)           111.1078         calculate D2E/DX2 analytically  !
 ! A45   A(25,17,26)           108.6013         calculate D2E/DX2 analytically  !
 ! A46   A(25,17,27)           109.2319         calculate D2E/DX2 analytically  !
 ! A47   A(26,17,27)           108.7809         calculate D2E/DX2 analytically  !
 ! A48   A(15,18,19)           109.0764         calculate D2E/DX2 analytically  !
 ! A49   A(15,18,20)           111.73           calculate D2E/DX2 analytically  !
 ! A50   A(15,18,21)           108.5858         calculate D2E/DX2 analytically  !
 ! A51   A(19,18,20)           109.324          calculate D2E/DX2 analytically  !
 ! A52   A(19,18,21)           108.2933         calculate D2E/DX2 analytically  !
 ! A53   A(20,18,21)           109.7624         calculate D2E/DX2 analytically  !
 ! A54   L(4,3,28,1,-1)        176.9133         calculate D2E/DX2 analytically  !
 ! A55   L(3,13,14,5,-1)       178.9679         calculate D2E/DX2 analytically  !
 ! A56   L(3,28,29,16,-1)      180.2016         calculate D2E/DX2 analytically  !
 ! A57   L(4,3,28,1,-2)        180.9265         calculate D2E/DX2 analytically  !
 ! A58   L(3,13,14,5,-2)       180.7638         calculate D2E/DX2 analytically  !
 ! A59   L(3,28,29,16,-2)      178.8013         calculate D2E/DX2 analytically  !
 ! D1    D(1,3,4,5)            168.395          calculate D2E/DX2 analytically  !
 ! D2    D(1,3,4,6)            -10.9848         calculate D2E/DX2 analytically  !
 ! D3    D(2,3,4,5)           -151.0571         calculate D2E/DX2 analytically  !
 ! D4    D(2,3,4,6)             29.5631         calculate D2E/DX2 analytically  !
 ! D5    D(13,3,4,5)           -40.7912         calculate D2E/DX2 analytically  !
 ! D6    D(13,3,4,6)           139.829          calculate D2E/DX2 analytically  !
 ! D7    D(15,3,4,5)            66.6316         calculate D2E/DX2 analytically  !
 ! D8    D(15,3,4,6)          -112.7481         calculate D2E/DX2 analytically  !
 ! D9    D(1,3,15,16)           81.2519         calculate D2E/DX2 analytically  !
 ! D10   D(1,3,15,17)          -39.1693         calculate D2E/DX2 analytically  !
 ! D11   D(1,3,15,18)         -158.6193         calculate D2E/DX2 analytically  !
 ! D12   D(2,3,15,16)           88.8315         calculate D2E/DX2 analytically  !
 ! D13   D(2,3,15,17)          -31.5897         calculate D2E/DX2 analytically  !
 ! D14   D(2,3,15,18)         -151.0397         calculate D2E/DX2 analytically  !
 ! D15   D(4,3,15,16)          167.2577         calculate D2E/DX2 analytically  !
 ! D16   D(4,3,15,17)           46.8365         calculate D2E/DX2 analytically  !
 ! D17   D(4,3,15,18)          -72.6135         calculate D2E/DX2 analytically  !
 ! D18   D(13,3,15,16)        -108.2726         calculate D2E/DX2 analytically  !
 ! D19   D(13,3,15,17)         131.3062         calculate D2E/DX2 analytically  !
 ! D20   D(13,3,15,18)          11.8562         calculate D2E/DX2 analytically  !
 ! D21   D(28,3,15,16)          -9.5177         calculate D2E/DX2 analytically  !
 ! D22   D(28,3,15,17)        -129.9389         calculate D2E/DX2 analytically  !
 ! D23   D(28,3,15,18)         110.6111         calculate D2E/DX2 analytically  !
 ! D24   D(3,4,6,7)            177.7946         calculate D2E/DX2 analytically  !
 ! D25   D(3,4,6,8)             53.6522         calculate D2E/DX2 analytically  !
 ! D26   D(3,4,6,9)            -58.5149         calculate D2E/DX2 analytically  !
 ! D27   D(5,4,6,7)             -1.6078         calculate D2E/DX2 analytically  !
 ! D28   D(5,4,6,8)           -125.7502         calculate D2E/DX2 analytically  !
 ! D29   D(5,4,6,9)            122.0827         calculate D2E/DX2 analytically  !
 ! D30   D(4,6,7,10)           179.6755         calculate D2E/DX2 analytically  !
 ! D31   D(4,6,7,11)           -60.2622         calculate D2E/DX2 analytically  !
 ! D32   D(4,6,7,12)            59.6111         calculate D2E/DX2 analytically  !
 ! D33   D(8,6,7,10)           -58.6428         calculate D2E/DX2 analytically  !
 ! D34   D(8,6,7,11)            61.4195         calculate D2E/DX2 analytically  !
 ! D35   D(8,6,7,12)          -178.7072         calculate D2E/DX2 analytically  !
 ! D36   D(9,6,7,10)            58.6277         calculate D2E/DX2 analytically  !
 ! D37   D(9,6,7,11)           178.69           calculate D2E/DX2 analytically  !
 ! D38   D(9,6,7,12)           -61.4367         calculate D2E/DX2 analytically  !
 ! D39   D(3,15,16,22)          59.6519         calculate D2E/DX2 analytically  !
 ! D40   D(3,15,16,23)         -59.019          calculate D2E/DX2 analytically  !
 ! D41   D(3,15,16,24)        -179.7808         calculate D2E/DX2 analytically  !
 ! D42   D(17,15,16,22)       -173.0162         calculate D2E/DX2 analytically  !
 ! D43   D(17,15,16,23)         68.313          calculate D2E/DX2 analytically  !
 ! D44   D(17,15,16,24)        -52.4488         calculate D2E/DX2 analytically  !
 ! D45   D(18,15,16,22)        -66.1334         calculate D2E/DX2 analytically  !
 ! D46   D(18,15,16,23)        175.1957         calculate D2E/DX2 analytically  !
 ! D47   D(18,15,16,24)         54.4339         calculate D2E/DX2 analytically  !
 ! D48   D(3,15,17,25)          58.4095         calculate D2E/DX2 analytically  !
 ! D49   D(3,15,17,26)         -60.6077         calculate D2E/DX2 analytically  !
 ! D50   D(3,15,17,27)         179.0861         calculate D2E/DX2 analytically  !
 ! D51   D(16,15,17,25)        -69.2389         calculate D2E/DX2 analytically  !
 ! D52   D(16,15,17,26)        171.7439         calculate D2E/DX2 analytically  !
 ! D53   D(16,15,17,27)         51.4377         calculate D2E/DX2 analytically  !
 ! D54   D(18,15,17,25)       -176.281          calculate D2E/DX2 analytically  !
 ! D55   D(18,15,17,26)         64.7018         calculate D2E/DX2 analytically  !
 ! D56   D(18,15,17,27)        -55.6044         calculate D2E/DX2 analytically  !
 ! D57   D(3,15,18,19)         -63.5594         calculate D2E/DX2 analytically  !
 ! D58   D(3,15,18,20)         175.4598         calculate D2E/DX2 analytically  !
 ! D59   D(3,15,18,21)          54.2596         calculate D2E/DX2 analytically  !
 ! D60   D(16,15,18,19)         63.6209         calculate D2E/DX2 analytically  !
 ! D61   D(16,15,18,20)        -57.3599         calculate D2E/DX2 analytically  !
 ! D62   D(16,15,18,21)       -178.5601         calculate D2E/DX2 analytically  !
 ! D63   D(17,15,18,19)        170.0395         calculate D2E/DX2 analytically  !
 ! D64   D(17,15,18,20)         49.0587         calculate D2E/DX2 analytically  !
 ! D65   D(17,15,18,21)        -72.1415         calculate D2E/DX2 analytically  !
 --------------------------------------------------------------------------------
 Trust Radius=2.00D-02 FncErr=1.00D-07 GrdErr=1.00D-06 EigMax=2.50D+02 EigMin=1.00D-04
 Number of steps in this run=    162 maximum allowed number of steps=    174.
 Search for a saddle point of order  1.
 GradGradGradGradGradGradGradGradGradGradGradGradGradGradGradGradGradGrad

 Leave Link  103 at Tue Oct  4 20:12:57 2022, MaxMem=  2952790016 cpu:               0.1 elap:               0.0
 (Enter /mnt/data/applications/G16/g16/l202.exe)
                          Input orientation:                          
 ---------------------------------------------------------------------
 Center     Atomic      Atomic             Coordinates (Angstroms)
 Number     Number       Type             X           Y           Z
 ---------------------------------------------------------------------
      1          1           0        0.138015   -0.631854   -1.939633
      2          1           0        0.302087   -1.688673   -1.563541
      3         45           0       -0.272660   -0.746793   -0.356173
      4          6           0        1.709293   -0.278320    0.087107
      5          8           0        2.082826    0.008917    1.200278
      6          6           0        2.716114   -0.290435   -1.060548
      7          6           0        4.126978    0.111469   -0.670933
      8          1           0        2.315353    0.361264   -1.842342
      9          1           0        2.691442   -1.298024   -1.484653
     10          1           0        4.785093    0.072289   -1.541246
     11          1           0        4.156116    1.125339   -0.268926
     12          1           0        4.531105   -0.554386    0.092251
     13          6           0       -0.282628   -1.742445    1.319655
     14          8           0       -0.263558   -2.323312    2.294315
     15         15           0       -0.688286    1.535246    0.190043
     16          6           0       -2.321921    2.190392   -0.272781
     17          6           0        0.446219    2.746910   -0.554627
     18          6           0       -0.577678    1.905022    1.964212
     19          1           0       -1.355048    1.351241    2.493064
     20          1           0       -0.695625    2.972406    2.162889
     21          1           0        0.392493    1.566876    2.329922
     22          1           0       -3.102064    1.612143    0.224620
     23          1           0       -2.459894    2.096107   -1.350988
     24          1           0       -2.424067    3.240040    0.010507
     25          1           0        0.408769    2.658005   -1.641049
     26          1           0        1.465883    2.546718   -0.224208
     27          1           0        0.177240    3.765662   -0.267590
     28          6           0       -2.121042   -1.149948   -0.875639
     29          8           0       -3.182383   -1.382360   -1.198421
 ---------------------------------------------------------------------
                    Distance matrix (angstroms):
                    1          2          3          4          5
     1  H    0.000000
     2  H    1.133680   0.000000
     3  Rh   1.639881   1.635607   0.000000
     4  C    2.588740   2.587269   2.084251   0.000000
     5  O    3.748589   3.700208   2.922662   1.208793   0.000000
     6  C    2.745169   2.834713   3.104380   1.526744   2.366854
     7  C    4.251347   4.320538   4.493607   2.563545   2.773176
     8  H    2.395110   2.886730   3.183442   2.121120   3.071767
     9  H    2.677831   2.422364   3.219196   2.115382   3.047517
    10  H    4.716976   4.816516   5.258912   3.497857   3.849963
    11  H    4.692987   4.944515   4.809007   2.843231   2.775516
    12  H    4.840846   4.681116   4.828485   2.835289   2.745743
    13  C    3.468906   2.942380   1.949313   2.762352   2.945657
    14  O    4.576965   3.950414   3.083923   3.598041   3.484498
    15  P    3.148748   3.801256   2.383023   3.007990   3.321042
    16  C    4.098140   4.857842   3.582385   4.740754   5.131328
    17  C    3.664598   4.551162   3.572413   3.340538   3.640711
    18  C    4.710410   5.112110   3.536855   3.677056   3.355159
    19  H    5.080424   5.333218   3.700198   4.223066   3.910512
    20  H    5.524159   6.050402   4.511875   4.545297   4.174767
    21  H    4.809186   5.076005   3.607021   3.188876   2.561359
    22  H    4.496401   5.067657   3.729266   5.171259   5.514103
    23  H    3.812795   4.690232   3.722329   5.008806   5.612631
    24  H    5.035759   5.848227   4.545090   5.428572   5.671666
    25  H    3.314458   4.348678   3.702418   3.646901   4.230044
    26  H    3.848277   4.592033   3.726548   2.852544   2.974931
    27  H    4.704829   5.607570   4.535693   4.338985   4.460833
    28  C    2.550263   2.575847   1.961860   4.044513   4.829586
    29  O    3.483920   3.516912   3.095128   5.176870   5.950784
                    6          7          8          9         10
     6  C    0.000000
     7  C    1.517848   0.000000
     8  H    1.093857   2.171769   0.000000
     9  H    1.093485   2.170155   1.738569   0.000000
    10  H    2.154835   1.091831   2.504752   2.502865   0.000000
    11  H    2.169029   1.091050   2.539263   3.081550   1.767293
    12  H    2.166289   1.090473   3.080685   2.534558   1.767921
    13  C    4.094649   5.181126   4.601448   4.111781   6.095885
    14  O    4.926067   5.830751   5.565039   4.905491   6.777854
    15  P    4.060422   5.094623   3.811912   4.717477   5.924144
    16  C    5.670703   6.787396   5.226236   6.226676   7.523630
    17  C    3.825421   4.528472   3.292898   4.718842   5.191613
    18  C    4.981794   5.682835   5.024208   5.730735   6.663817
    19  H    5.647798   6.449847   5.766077   6.262182   7.457393
    20  H    5.716349   6.282755   5.650303   6.558457   7.222850
    21  H    4.510444   5.006967   4.749598   5.295640   6.042737
    22  H    6.254811   7.437277   5.931731   6.704879   8.227799
    23  H    5.707101   6.912897   5.104321   6.170434   7.524751
    24  H    6.327154   7.291674   5.846580   6.999854   8.025869
    25  H    3.788683   4.609886   2.991755   4.570035   5.084103
    26  H    3.211227   3.634753   2.848889   4.227618   4.344484
    27  H    4.850421   5.395947   4.317557   5.783024   6.041152
    28  C    4.916404   6.377369   4.785382   4.853125   7.044970
    29  O    6.000298   7.479073   5.803444   5.881400   8.106430
                   11         12         13         14         15
    11  H    0.000000
    12  H    1.758562   0.000000
    13  C    5.518172   5.107840   0.000000
    14  O    6.164164   5.564798   1.134783   0.000000
    15  P    4.883330   5.623003   3.490536   4.415521   0.000000
    16  C    6.565007   7.391280   4.707629   5.585729   1.819941
    17  C    4.058873   5.291814   4.919193   5.858959   1.819276
    18  C    5.291844   5.970979   3.715713   4.252816   1.815666
    19  H    6.168675   6.636423   3.478199   3.838384   2.404649
    20  H    5.732780   6.636604   4.807435   5.314940   2.440820
    21  H    4.594978   5.160914   3.525342   3.945280   2.397533
    22  H    7.291210   7.935782   4.516811   5.275278   2.415250
    23  H    6.773835   7.614599   5.158227   6.135421   2.414112
    24  H    6.917286   7.923305   5.578959   6.390185   2.439568
    25  H    4.274856   5.506127   5.348622   6.383779   2.411849
    26  H    3.042971   4.371793   4.882389   5.749010   2.415600
    27  H    4.775224   6.143976   5.750658   6.620669   2.435840
    28  C    6.704308   6.748523   2.924061   3.856895   3.224707
    29  O    7.810639   7.864431   3.857324   4.648025   4.081761
                   16         17         18         19         20
    16  C    0.000000
    17  C    2.837560   0.000000
    18  C    2.850957   2.846347   0.000000
    19  H    3.047772   3.805375   1.091175   0.000000
    20  H    3.031315   2.956273   1.092105   1.781019   0.000000
    21  H    3.811939   3.117048   1.090559   1.768336   1.785333
    22  H    1.091056   3.805947   3.079689   2.875061   3.376115
    23  H    1.091080   3.082731   3.817041   4.068445   4.028384
    24  H    1.091992   2.966664   3.001398   3.297492   2.773425
    25  H    3.089901   1.090697   3.812869   4.680766   3.973472
    26  H    3.804837   1.090398   3.062205   4.095166   3.248316
    27  H    2.954202   1.092060   3.002136   3.974738   2.701551
    28  C    3.400244   4.677540   4.447423   4.265074   5.315851
    29  O    3.789691   5.534627   5.252963   4.943560   6.037082
                   21         22         23         24         25
    21  H    0.000000
    22  H    4.079985   0.000000
    23  H    4.686715   1.768939   0.000000
    24  H    4.013997   1.776393   1.778633   0.000000
    25  H    4.118184   4.111021   2.937532   3.330370   0.000000
    26  H    2.938679   4.684124   4.109064   3.958219   1.771246
    27  H    3.409994   3.953954   3.303883   2.668410   1.779578
    28  C    4.896388   3.130834   3.298128   4.488772   4.635332
    29  O    5.824683   3.316405   3.555981   4.837678   5.423729
                   26         27         28         29
    26  H    0.000000
    27  H    1.774347   0.000000
    28  C    5.191891   5.460316   0.000000
    29  O    6.163856   6.217366   1.133423   0.000000
 Stoichiometry    C8H16O3PRh
 Framework group  C1[X(C8H16O3PRh)]
 Deg. of freedom    81
 Full point group                 C1      NOp   1
 Largest Abelian subgroup         C1      NOp   1
 Largest concise Abelian subgroup C1      NOp   1
                         Standard orientation:                         
 ---------------------------------------------------------------------
 Center     Atomic      Atomic             Coordinates (Angstroms)
 Number     Number       Type             X           Y           Z
 ---------------------------------------------------------------------
      1          1           0        0.138015   -0.631854   -1.939633
      2          1           0        0.302087   -1.688673   -1.563541
      3         45           0       -0.272660   -0.746793   -0.356173
      4          6           0        1.709293   -0.278320    0.087107
      5          8           0        2.082826    0.008917    1.200278
      6          6           0        2.716114   -0.290435   -1.060548
      7          6           0        4.126978    0.111469   -0.670933
      8          1           0        2.315353    0.361264   -1.842342
      9          1           0        2.691442   -1.298024   -1.484653
     10          1           0        4.785093    0.072289   -1.541246
     11          1           0        4.156116    1.125339   -0.268926
     12          1           0        4.531105   -0.554386    0.092251
     13          6           0       -0.282628   -1.742445    1.319655
     14          8           0       -0.263558   -2.323312    2.294315
     15         15           0       -0.688286    1.535246    0.190043
     16          6           0       -2.321921    2.190392   -0.272781
     17          6           0        0.446219    2.746910   -0.554627
     18          6           0       -0.577678    1.905022    1.964212
     19          1           0       -1.355048    1.351241    2.493064
     20          1           0       -0.695625    2.972406    2.162889
     21          1           0        0.392493    1.566876    2.329922
     22          1           0       -3.102064    1.612143    0.224620
     23          1           0       -2.459894    2.096107   -1.350988
     24          1           0       -2.424067    3.240040    0.010507
     25          1           0        0.408769    2.658005   -1.641049
     26          1           0        1.465883    2.546718   -0.224208
     27          1           0        0.177240    3.765662   -0.267590
     28          6           0       -2.121042   -1.149948   -0.875639
     29          8           0       -3.182383   -1.382360   -1.198421
 ---------------------------------------------------------------------
 Rotational constants (GHZ):           0.6056761           0.4639153           0.3700074
 Leave Link  202 at Tue Oct  4 20:12:57 2022, MaxMem=  2952790016 cpu:               0.1 elap:               0.0
 (Enter /mnt/data/applications/G16/g16/l301.exe)
 General basis read from cards:  (5D, 7F)
 Centers:       3
 SDD
 ****
 Centers:       5     14     29      4      6      7     13     16     17     18
 Centers:      28      1      2      8      9     10     11     12     19     20
 Centers:      21     22     23     24     25     26     27     15
 def2tzvp
 ****
 ======================================================================================================
                                       Pseudopotential Parameters
 ======================================================================================================
  Center     Atomic      Valence      Angular      Power
  Number     Number     Electrons     Momentum     of R      Exponent        Coefficient   SO-Coeffient
 ======================================================================================================
    1          1
                                   No pseudopotential on this center.
    2          1
                                   No pseudopotential on this center.
    3         45           17
                                      G and up 
                                                     2        1.0000000        0.00000000    0.00000000
                                      S - G
                                                     2       11.7200000      225.34775400    0.00000000
                                                     2        5.8200000       32.82318900    0.00000000
                                      P - G
                                                     2       10.4200000      158.70941200    0.00000000
                                                     2        5.4500000       26.44410000    0.00000000
                                      D - G
                                                     2        8.8200000       62.75862600    0.00000000
                                                     2        3.8700000       10.97871900    0.00000000
                                      F - G
                                                     2       12.3100000      -30.09345600    0.00000000
                                                     2        6.1600000       -5.21848200    0.00000000
    4          6
                                   No pseudopotential on this center.
    5          8
                                   No pseudopotential on this center.
    6          6
                                   No pseudopotential on this center.
    7          6
                                   No pseudopotential on this center.
    8          1
                                   No pseudopotential on this center.
    9          1
                                   No pseudopotential on this center.
   10          1
                                   No pseudopotential on this center.
   11          1
                                   No pseudopotential on this center.
   12          1
                                   No pseudopotential on this center.
   13          6
                                   No pseudopotential on this center.
   14          8
                                   No pseudopotential on this center.
   15         15
                                   No pseudopotential on this center.
   16          6
                                   No pseudopotential on this center.
   17          6
                                   No pseudopotential on this center.
   18          6
                                   No pseudopotential on this center.
   19          1
                                   No pseudopotential on this center.
   20          1
                                   No pseudopotential on this center.
   21          1
                                   No pseudopotential on this center.
   22          1
                                   No pseudopotential on this center.
   23          1
                                   No pseudopotential on this center.
   24          1
                                   No pseudopotential on this center.
   25          1
                                   No pseudopotential on this center.
   26          1
                                   No pseudopotential on this center.
   27          1
                                   No pseudopotential on this center.
   28          6
                                   No pseudopotential on this center.
   29          8
                                   No pseudopotential on this center.
 ======================================================================================================
 Ernie: Thresh=  0.10000D-02 Tol=  0.10000D-05 Strict=F.
 There are   573 symmetry adapted cartesian basis functions of A   symmetry.
 There are   510 symmetry adapted basis functions of A   symmetry.
   510 basis functions,   823 primitive gaussians,   573 cartesian basis functions
    60 alpha electrons       60 beta electrons
       nuclear repulsion energy      1121.2091111587 Hartrees.
 IExCor= 4639 DFT=T Ex+Corr=wB97XD ExCW=0 ScaHFX=  1.000000
 ScaDFX=  1.000000  1.000000  1.000000  1.000000 ScalE2=  1.000000  1.000000
 IRadAn=      5 IRanWt=     -1 IRanGd=            0 ICorTp=0 IEmpDi=121
 HFx  wShort=  0.000000 wLong=  0.200000 cFull=  0.222036 cShort=  0.000000 cLong=  0.777964
 DFx  wShort=  0.000000 wLong=  0.200000 cFull=  0.000000 cShort=  0.000000 cLong=  1.000000
 NAtoms=   29 NActive=   29 NUniq=   29 SFac= 1.00D+00 NAtFMM=   60 NAOKFM=F Big=F
 Integral buffers will be    131072 words long.
 Raffenetti 2 integral format.
 Two-electron integral symmetry is turned on.
 R6Disp:  Grimme-D2 Dispersion energy=       -0.0250952734 Hartrees.
 Nuclear repulsion after empirical dispersion term =     1121.1840158853 Hartrees.
 Force inversion solution in PCM.
 ------------------------------------------------------------------------------
 Polarizable Continuum Model (PCM)
 =================================
 Model                : PCM.
 Atomic radii         : SMD-Coulomb.
 Polarization charges : Total charges.
 Charge compensation  : None.
 Solution method      : Matrix inversion.
 Cavity type          : VdW (van der Waals Surface) (Alpha=1.000).
 Cavity algorithm     : GePol (No added spheres)
                        Default sphere list used, NSphG=   29.
                        Lebedev-Laikov grids with approx.  5.0 points / Ang**2.
                        Smoothing algorithm: York/Karplus (Gamma=1.0000).
                        Polarization charges: spherical gaussians, with
                                              point-specific exponents (IZeta= 3).
                        Self-potential: point-specific (ISelfS= 7).
                        Self-field    : sphere-specific E.n sum rule (ISelfD= 2).
 1st derivatives      : Analytical E(r).r(x)/FMM algorithm (CHGder, D1EAlg=3).
                        Cavity 1st derivative terms included.
 2nd derivatives      : Analytical E(r).r(xy)/FMM algorithm (CHGder, D2EAlg=3).
                        Cavity 2nd derivative terms included.
 Solvent              : Toluene, Eps=   2.374100 Eps(inf)=   2.238315
 ------------------------------------------------------------------------------
 GePol: Number of generator spheres                  =      29
 GePol: Total number of spheres                      =      29
 GePol: Number of exposed spheres                    =      29 (100.00%)
 GePol: Number of points                             =    2527
 GePol: Average weight of points                     =       0.12
 GePol: Minimum weight of points                     =   0.24D-10
 GePol: Maximum weight of points                     =    0.20359
 GePol: Number of points with low weight             =     117
 GePol: Fraction of low-weight points (<1% of avg)   =       4.63%
 GePol: Cavity surface area                          =    307.068 Ang**2
 GePol: Cavity volume                                =    291.788 Ang**3
 ------------------------------------------------------------------------------
 Atomic radii for non-electrostatic terms: SMD-CDS.
 ------------------------------------------------------------------------------
 PCM non-electrostatic energy =        -0.0004115979 Hartrees.
 Nuclear repulsion after PCM non-electrostatic terms =     1121.1836042874 Hartrees.
 Leave Link  301 at Tue Oct  4 20:12:57 2022, MaxMem=  2952790016 cpu:               1.8 elap:               0.2
 (Enter /mnt/data/applications/G16/g16/l302.exe)
 NPDir=0 NMtPBC=     1 NCelOv=     1 NCel=       1 NClECP=     1 NCelD=      1
         NCelK=      1 NCelE2=     1 NClLst=     1 CellRange=     0.0.
 One-electron integrals computed using PRISM.
 One-electron integral symmetry used in STVInt
   1 Symmetry operations used in ECPInt.
 ECPInt:  NShTT=   22578 NPrTT=   66767 LenC2=   21051 LenP2D=   46530.
 LDataN:  DoStor=T MaxTD1= 7 Len=  274
 NBasis=   510 RedAO= T EigKep=  1.37D-04  NBF=   510
 NBsUse=   510 1.00D-06 EigRej= -1.00D+00 NBFU=   510
 Precomputing XC quadrature grid using
 IXCGrd= 4 IRadAn=           5 IRanWt=          -1 IRanGd=           0 AccXCQ= 0.00D+00.
 Defaulting to unpruned grid for atomic number  45.
 Generated NRdTot=       0 NPtTot=           0 NUsed=           0 NTot=          32
 NSgBfM=   568   568   568   568   568 MxSgAt=    29 MxSgA2=    29.
 Leave Link  302 at Tue Oct  4 20:12:59 2022, MaxMem=  2952790016 cpu:              19.7 elap:               1.7
 (Enter /mnt/data/applications/G16/g16/l303.exe)
 DipDrv:  MaxL=1.
 Leave Link  303 at Tue Oct  4 20:12:59 2022, MaxMem=  2952790016 cpu:               1.2 elap:               0.1
 (Enter /mnt/data/applications/G16/g16/l401.exe)
 ExpMin= 1.60D-02 ExpMax= 5.24D+04 ExpMxC= 1.79D+03 IAcc=3 IRadAn=         5 AccDes= 0.00D+00
 Harris functional with IExCor= 4639 and IRadAn=       5 diagonalized for initial guess.
 HarFok:  IExCor= 4639 AccDes= 0.00D+00 IRadAn=         5 IDoV= 1 UseB2=F ITyADJ=14
 ICtDFT=  3500011 ScaDFX=  1.000000  1.000000  1.000000  1.000000
 Defaulting to unpruned grid for atomic number  45.
 FoFCou: FMM=F IPFlag=           0 FMFlag=      100000 FMFlg1=           0
         NFxFlg=           0 DoJE=T BraDBF=F KetDBF=T FulRan=T
         wScrn=  0.000000 ICntrl=       500 IOpCl=  0 I1Cent=   200000004 NGrid=           0
         NMat0=    1 NMatS0=      1 NMatT0=    0 NMatD0=    1 NMtDS0=    0 NMtDT0=    0
 Petite list used in FoFCou.
 Harris En= -959.571509496716    
 JPrj=0 DoOrth=F DoCkMO=F.
 Leave Link  401 at Tue Oct  4 20:13:08 2022, MaxMem=  2952790016 cpu:             106.6 elap:               8.9
 (Enter /mnt/data/applications/G16/g16/l502.exe)
 Integral symmetry usage will be decided dynamically.
 Closed shell SCF:
 Using DIIS extrapolation, IDIIS=  1040.
 NGot=  2952790016 LenX=  2952121135 LenY=  2951792233
 Requested convergence on RMS density matrix=1.00D-08 within 128 cycles.
 Requested convergence on MAX density matrix=1.00D-06.
 Requested convergence on             energy=1.00D-06.
 No special actions if energy rises.
 Fock matrices will be formed incrementally for  20 cycles.

 Cycle   1  Pass 1  IDiag  1:
 FoFJK:  IHMeth= 1 ICntrl=       0 DoSepK=T KAlg= 0 I1Cent=           0 FoldK=F
 IRaf=         1 NMat=       1 IRICut=       1 DoRegI=T DoRafI=F ISym2E= 0 IDoP0=0 IntGTp=1.
 FoFCou: FMM=F IPFlag=           0 FMFlag=      100000 FMFlg1=           0
         NFxFlg=           0 DoJE=T BraDBF=F KetDBF=F FulRan=T
         wScrn=  0.000000 ICntrl=       500 IOpCl=  0 I1Cent=           0 NGrid=           0
         NMat0=    1 NMatS0=      1 NMatT0=    0 NMatD0=    1 NMtDS0=    0 NMtDT0=    0
 Symmetry not used in FoFCou.
 Defaulting to unpruned grid for atomic number  45.
 Defaulting to unpruned grid for atomic number  45.
 Defaulting to unpruned grid for atomic number  45.
 Defaulting to unpruned grid for atomic number  45.
 Defaulting to unpruned grid for atomic number  45.
 Defaulting to unpruned grid for atomic number  45.
 Defaulting to unpruned grid for atomic number  45.
 Defaulting to unpruned grid for atomic number  45.
 Defaulting to unpruned grid for atomic number  45.
 Defaulting to unpruned grid for atomic number  45.
 Defaulting to unpruned grid for atomic number  45.
 Defaulting to unpruned grid for atomic number  45.
 Inv3:  Mode=1 IEnd=    19157187.
 Iteration    1 A*A^-1 deviation from unit magnitude is 2.22D-15 for    126.
 Iteration    1 A*A^-1 deviation from orthogonality  is 1.40D-15 for    875    438.
 Iteration    1 A^-1*A deviation from unit magnitude is 2.44D-15 for    348.
 Iteration    1 A^-1*A deviation from orthogonality  is 1.21D-15 for   2012   1010.
 E= -990.306642658867    
 DIIS: error= 5.57D-02 at cycle   1 NSaved=   1.
 NSaved= 1 IEnMin= 1 EnMin= -990.306642658867     IErMin= 1 ErrMin= 5.57D-02
 ErrMax= 5.57D-02  0.00D+00 EMaxC= 1.00D-01 BMatC= 3.71D+00 BMatP= 3.71D+00
 IDIUse=3 WtCom= 4.43D-01 WtEn= 5.57D-01
 Coeff-Com:  0.100D+01
 Coeff-En:   0.100D+01
 Coeff:      0.100D+01
 Gap=     0.754 Goal=   None    Shift=    0.000
 GapD=    0.754 DampG=2.000 DampE=0.250 DampFc=0.5000 IDamp=-1.
 Damping current iteration by 5.00D-01
 RMSDP=8.22D-03 MaxDP=8.52D-01              OVMax= 6.19D-01

 Cycle   2  Pass 1  IDiag  1:
 RMSU=  4.11D-03    CP:  9.86D-01
 E= -990.953790440876     Delta-E=       -0.647147782009 Rises=F Damp=T
 DIIS: error= 2.75D-02 at cycle   2 NSaved=   2.
 NSaved= 2 IEnMin= 2 EnMin= -990.953790440876     IErMin= 2 ErrMin= 2.75D-02
 ErrMax= 2.75D-02  0.00D+00 EMaxC= 1.00D-01 BMatC= 6.08D-01 BMatP= 3.71D+00
 IDIUse=3 WtCom= 7.25D-01 WtEn= 2.75D-01
 Coeff-Com:  0.134D+00 0.866D+00
 Coeff-En:   0.342D+00 0.658D+00
 Coeff:      0.191D+00 0.809D+00
 Gap=     0.354 Goal=   None    Shift=    0.000
 RMSDP=3.35D-03 MaxDP=2.94D-01 DE=-6.47D-01 OVMax= 6.62D-01

 Cycle   3  Pass 1  IDiag  1:
 RMSU=  1.90D-03    CP:  9.65D-01  3.30D-01
 E= -992.056801039828     Delta-E=       -1.103010598952 Rises=F Damp=F
 DIIS: error= 1.14D-02 at cycle   3 NSaved=   3.
 NSaved= 3 IEnMin= 3 EnMin= -992.056801039828     IErMin= 3 ErrMin= 1.14D-02
 ErrMax= 1.14D-02  0.00D+00 EMaxC= 1.00D-01 BMatC= 2.18D-01 BMatP= 6.08D-01
 IDIUse=3 WtCom= 8.86D-01 WtEn= 1.14D-01
 Coeff-Com: -0.292D-01 0.350D+00 0.679D+00
 Coeff-En:   0.000D+00 0.000D+00 0.100D+01
 Coeff:     -0.259D-01 0.310D+00 0.716D+00
 Gap=     0.391 Goal=   None    Shift=    0.000
 RMSDP=9.03D-04 MaxDP=8.56D-02 DE=-1.10D+00 OVMax= 1.48D-01

 Cycle   4  Pass 1  IDiag  1:
 RMSU=  8.55D-04    CP:  9.71D-01  3.89D-01  9.16D-01
 E= -992.134063531877     Delta-E=       -0.077262492049 Rises=F Damp=F
 DIIS: error= 1.08D-02 at cycle   4 NSaved=   4.
 NSaved= 4 IEnMin= 4 EnMin= -992.134063531877     IErMin= 4 ErrMin= 1.08D-02
 ErrMax= 1.08D-02  0.00D+00 EMaxC= 1.00D-01 BMatC= 1.13D-01 BMatP= 2.18D-01
 IDIUse=3 WtCom= 8.92D-01 WtEn= 1.08D-01
 Coeff-Com: -0.114D-01 0.621D-01 0.434D+00 0.516D+00
 Coeff-En:   0.000D+00 0.000D+00 0.359D+00 0.641D+00
 Coeff:     -0.102D-01 0.554D-01 0.425D+00 0.529D+00
 Gap=     0.334 Goal=   None    Shift=    0.000
 RMSDP=4.11D-04 MaxDP=2.97D-02 DE=-7.73D-02 OVMax= 5.73D-02

 Cycle   5  Pass 1  IDiag  1:
 RMSU=  2.24D-04    CP:  9.65D-01  3.72D-01  1.01D+00  6.67D-01
 E= -992.207871029385     Delta-E=       -0.073807497508 Rises=F Damp=F
 DIIS: error= 1.93D-03 at cycle   5 NSaved=   5.
 NSaved= 5 IEnMin= 5 EnMin= -992.207871029385     IErMin= 5 ErrMin= 1.93D-03
 ErrMax= 1.93D-03  0.00D+00 EMaxC= 1.00D-01 BMatC= 3.92D-03 BMatP= 1.13D-01
 IDIUse=3 WtCom= 9.81D-01 WtEn= 1.93D-02
 Coeff-Com:  0.847D-02-0.218D-01 0.987D-01 0.213D+00 0.702D+00
 Coeff-En:   0.000D+00 0.000D+00 0.000D+00 0.000D+00 0.100D+01
 Coeff:      0.831D-02-0.214D-01 0.968D-01 0.209D+00 0.707D+00
 Gap=     0.332 Goal=   None    Shift=    0.000
 RMSDP=1.06D-04 MaxDP=6.42D-03 DE=-7.38D-02 OVMax= 1.36D-02

 Cycle   6  Pass 1  IDiag  1:
 RMSU=  9.40D-05    CP:  9.64D-01  3.64D-01  1.02D+00  6.88D-01  1.10D+00
 E= -992.210712915479     Delta-E=       -0.002841886094 Rises=F Damp=F
 DIIS: error= 4.72D-04 at cycle   6 NSaved=   6.
 NSaved= 6 IEnMin= 6 EnMin= -992.210712915479     IErMin= 6 ErrMin= 4.72D-04
 ErrMax= 4.72D-04  0.00D+00 EMaxC= 1.00D-01 BMatC= 3.77D-04 BMatP= 3.92D-03
 IDIUse=3 WtCom= 9.95D-01 WtEn= 4.72D-03
 Coeff-Com:  0.699D-02-0.180D-01-0.754D-02 0.138D-01 0.240D+00 0.764D+00
 Coeff-En:   0.000D+00 0.000D+00 0.000D+00 0.000D+00 0.000D+00 0.100D+01
 Coeff:      0.695D-02-0.179D-01-0.750D-02 0.138D-01 0.239D+00 0.765D+00
 Gap=     0.327 Goal=   None    Shift=    0.000
 RMSDP=4.88D-05 MaxDP=2.50D-03 DE=-2.84D-03 OVMax= 5.45D-03

 Cycle   7  Pass 1  IDiag  1:
 RMSU=  3.45D-05    CP:  9.64D-01  3.59D-01  1.02D+00  7.03D-01  1.21D+00
                    CP:  1.01D+00
 E= -992.211058547980     Delta-E=       -0.000345632500 Rises=F Damp=F
 DIIS: error= 2.47D-04 at cycle   7 NSaved=   7.
 NSaved= 7 IEnMin= 7 EnMin= -992.211058547980     IErMin= 7 ErrMin= 2.47D-04
 ErrMax= 2.47D-04  0.00D+00 EMaxC= 1.00D-01 BMatC= 7.43D-05 BMatP= 3.77D-04
 IDIUse=3 WtCom= 9.98D-01 WtEn= 2.47D-03
 Coeff-Com:  0.205D-02-0.436D-02-0.135D-01-0.263D-01-0.233D-02 0.364D+00
 Coeff-Com:  0.681D+00
 Coeff-En:   0.000D+00 0.000D+00 0.000D+00 0.000D+00 0.000D+00 0.000D+00
 Coeff-En:   0.100D+01
 Coeff:      0.205D-02-0.435D-02-0.135D-01-0.262D-01-0.232D-02 0.363D+00
 Coeff:      0.681D+00
 Gap=     0.328 Goal=   None    Shift=    0.000
 RMSDP=2.18D-05 MaxDP=1.20D-03 DE=-3.46D-04 OVMax= 3.84D-03

 Cycle   8  Pass 1  IDiag  1:
 RMSU=  1.39D-05    CP:  9.63D-01  3.59D-01  1.02D+00  6.98D-01  1.26D+00
                    CP:  1.12D+00  1.01D+00
 E= -992.211134146278     Delta-E=       -0.000075598299 Rises=F Damp=F
 DIIS: error= 1.15D-04 at cycle   8 NSaved=   8.
 NSaved= 8 IEnMin= 8 EnMin= -992.211134146278     IErMin= 8 ErrMin= 1.15D-04
 ErrMax= 1.15D-04  0.00D+00 EMaxC= 1.00D-01 BMatC= 9.70D-06 BMatP= 7.43D-05
 IDIUse=3 WtCom= 9.99D-01 WtEn= 1.15D-03
 Coeff-Com: -0.222D-03 0.907D-03-0.369D-02-0.134D-01-0.386D-01 0.194D-01
 Coeff-Com:  0.297D+00 0.739D+00
 Coeff-En:   0.000D+00 0.000D+00 0.000D+00 0.000D+00 0.000D+00 0.000D+00
 Coeff-En:   0.000D+00 0.100D+01
 Coeff:     -0.221D-03 0.906D-03-0.369D-02-0.134D-01-0.386D-01 0.194D-01
 Coeff:      0.296D+00 0.739D+00
 Gap=     0.328 Goal=   None    Shift=    0.000
 RMSDP=1.02D-05 MaxDP=8.33D-04 DE=-7.56D-05 OVMax= 2.17D-03

 Cycle   9  Pass 1  IDiag  1:
 RMSU=  6.79D-06    CP:  9.63D-01  3.59D-01  1.02D+00  6.98D-01  1.27D+00
                    CP:  1.17D+00  1.11D+00  1.27D+00
 E= -992.211148713604     Delta-E=       -0.000014567326 Rises=F Damp=F
 DIIS: error= 2.90D-05 at cycle   9 NSaved=   9.
 NSaved= 9 IEnMin= 9 EnMin= -992.211148713604     IErMin= 9 ErrMin= 2.90D-05
 ErrMax= 2.90D-05  0.00D+00 EMaxC= 1.00D-01 BMatC= 1.44D-06 BMatP= 9.70D-06
 IDIUse=1 WtCom= 1.00D+00 WtEn= 0.00D+00
 Coeff-Com: -0.575D-03 0.123D-02 0.981D-03 0.358D-03-0.959D-02-0.695D-01
 Coeff-Com: -0.217D-01 0.265D+00 0.834D+00
 Coeff:     -0.575D-03 0.123D-02 0.981D-03 0.358D-03-0.959D-02-0.695D-01
 Coeff:     -0.217D-01 0.265D+00 0.834D+00
 Gap=     0.328 Goal=   None    Shift=    0.000
 RMSDP=5.82D-06 MaxDP=3.47D-04 DE=-1.46D-05 OVMax= 8.16D-04

 Cycle  10  Pass 1  IDiag  1:
 RMSU=  2.61D-06    CP:  9.64D-01  3.59D-01  1.02D+00  6.99D-01  1.28D+00
                    CP:  1.17D+00  1.22D+00  1.50D+00  1.12D+00
 E= -992.211151536818     Delta-E=       -0.000002823214 Rises=F Damp=F
 DIIS: error= 1.68D-05 at cycle  10 NSaved=  10.
 NSaved=10 IEnMin=10 EnMin= -992.211151536818     IErMin=10 ErrMin= 1.68D-05
 ErrMax= 1.68D-05  0.00D+00 EMaxC= 1.00D-01 BMatC= 2.50D-07 BMatP= 1.44D-06
 IDIUse=1 WtCom= 1.00D+00 WtEn= 0.00D+00
 Coeff-Com: -0.233D-03 0.442D-03 0.144D-03 0.984D-03 0.144D-02-0.223D-01
 Coeff-Com: -0.318D-01 0.109D-01 0.183D+00 0.858D+00
 Coeff:     -0.233D-03 0.442D-03 0.144D-03 0.984D-03 0.144D-02-0.223D-01
 Coeff:     -0.318D-01 0.109D-01 0.183D+00 0.858D+00
 Gap=     0.328 Goal=   None    Shift=    0.000
 RMSDP=2.07D-06 MaxDP=1.26D-04 DE=-2.82D-06 OVMax= 3.68D-04

 Cycle  11  Pass 1  IDiag  1:
 RMSU=  8.31D-07    CP:  9.64D-01  3.59D-01  1.02D+00  6.99D-01  1.28D+00
                    CP:  1.17D+00  1.24D+00  1.58D+00  1.30D+00  1.19D+00
 E= -992.211151926086     Delta-E=       -0.000000389267 Rises=F Damp=F
 DIIS: error= 5.63D-06 at cycle  11 NSaved=  11.
 NSaved=11 IEnMin=11 EnMin= -992.211151926086     IErMin=11 ErrMin= 5.63D-06
 ErrMax= 5.63D-06  0.00D+00 EMaxC= 1.00D-01 BMatC= 4.04D-08 BMatP= 2.50D-07
 IDIUse=1 WtCom= 1.00D+00 WtEn= 0.00D+00
 Coeff-Com:  0.478D-05-0.325D-04-0.330D-03-0.315D-04 0.178D-02 0.706D-02
 Coeff-Com: -0.292D-02-0.345D-01-0.127D+00 0.206D+00 0.950D+00
 Coeff:      0.478D-05-0.325D-04-0.330D-03-0.315D-04 0.178D-02 0.706D-02
 Coeff:     -0.292D-02-0.345D-01-0.127D+00 0.206D+00 0.950D+00
 Gap=     0.328 Goal=   None    Shift=    0.000
 RMSDP=1.10D-06 MaxDP=7.69D-05 DE=-3.89D-07 OVMax= 1.56D-04

 Cycle  12  Pass 1  IDiag  1:
 RMSU=  3.06D-07    CP:  9.64D-01  3.59D-01  1.02D+00  6.99D-01  1.28D+00
                    CP:  1.17D+00  1.25D+00  1.62D+00  1.37D+00  1.42D+00
                    CP:  1.23D+00
 E= -992.211151993292     Delta-E=       -0.000000067206 Rises=F Damp=F
 DIIS: error= 8.97D-07 at cycle  12 NSaved=  12.
 NSaved=12 IEnMin=12 EnMin= -992.211151993292     IErMin=12 ErrMin= 8.97D-07
 ErrMax= 8.97D-07  0.00D+00 EMaxC= 1.00D-01 BMatC= 1.57D-09 BMatP= 4.04D-08
 IDIUse=1 WtCom= 1.00D+00 WtEn= 0.00D+00
 Coeff-Com:  0.153D-04-0.379D-04-0.978D-04-0.913D-04 0.338D-03 0.360D-02
 Coeff-Com:  0.131D-02-0.859D-02-0.505D-01-0.542D-02 0.262D+00 0.797D+00
 Coeff:      0.153D-04-0.379D-04-0.978D-04-0.913D-04 0.338D-03 0.360D-02
 Coeff:      0.131D-02-0.859D-02-0.505D-01-0.542D-02 0.262D+00 0.797D+00
 Gap=     0.328 Goal=   None    Shift=    0.000
 RMSDP=2.09D-07 MaxDP=1.13D-05 DE=-6.72D-08 OVMax= 4.13D-05

 Cycle  13  Pass 1  IDiag  1:
 RMSU=  8.30D-08    CP:  9.64D-01  3.59D-01  1.02D+00  7.00D-01  1.28D+00
                    CP:  1.17D+00  1.25D+00  1.62D+00  1.38D+00  1.46D+00
                    CP:  1.35D+00  1.16D+00
 E= -992.211151996477     Delta-E=       -0.000000003186 Rises=F Damp=F
 DIIS: error= 6.31D-07 at cycle  13 NSaved=  13.
 NSaved=13 IEnMin=13 EnMin= -992.211151996477     IErMin=13 ErrMin= 6.31D-07
 ErrMax= 6.31D-07  0.00D+00 EMaxC= 1.00D-01 BMatC= 4.56D-10 BMatP= 1.57D-09
 IDIUse=1 WtCom= 1.00D+00 WtEn= 0.00D+00
 Coeff-Com:  0.659D-05-0.125D-04 0.793D-05-0.387D-04-0.110D-03 0.624D-03
 Coeff-Com:  0.951D-03 0.115D-02-0.483D-02-0.317D-01-0.193D-01 0.344D+00
 Coeff-Com:  0.709D+00
 Coeff:      0.659D-05-0.125D-04 0.793D-05-0.387D-04-0.110D-03 0.624D-03
 Coeff:      0.951D-03 0.115D-02-0.483D-02-0.317D-01-0.193D-01 0.344D+00
 Coeff:      0.709D+00
 Gap=     0.328 Goal=   None    Shift=    0.000
 RMSDP=7.96D-08 MaxDP=3.89D-06 DE=-3.19D-09 OVMax= 1.61D-05

 Cycle  14  Pass 1  IDiag  1:
 RMSU=  3.57D-08    CP:  9.64D-01  3.59D-01  1.02D+00  7.00D-01  1.28D+00
                    CP:  1.17D+00  1.25D+00  1.62D+00  1.39D+00  1.47D+00
                    CP:  1.39D+00  1.27D+00  1.21D+00
 E= -992.211151997188     Delta-E=       -0.000000000710 Rises=F Damp=F
 DIIS: error= 2.69D-07 at cycle  14 NSaved=  14.
 NSaved=14 IEnMin=14 EnMin= -992.211151997188     IErMin=14 ErrMin= 2.69D-07
 ErrMax= 2.69D-07  0.00D+00 EMaxC= 1.00D-01 BMatC= 1.11D-10 BMatP= 4.56D-10
 IDIUse=1 WtCom= 1.00D+00 WtEn= 0.00D+00
 Coeff-Com:  0.782D-08 0.234D-05 0.259D-04-0.131D-05-0.137D-03-0.489D-03
 Coeff-Com:  0.280D-03 0.265D-02 0.903D-02-0.146D-01-0.716D-01-0.101D-01
 Coeff-Com:  0.375D+00 0.710D+00
 Coeff:      0.782D-08 0.234D-05 0.259D-04-0.131D-05-0.137D-03-0.489D-03
 Coeff:      0.280D-03 0.265D-02 0.903D-02-0.146D-01-0.716D-01-0.101D-01
 Coeff:      0.375D+00 0.710D+00
 Gap=     0.328 Goal=   None    Shift=    0.000
 RMSDP=3.84D-08 MaxDP=1.47D-06 DE=-7.10D-10 OVMax= 8.05D-06

 Cycle  15  Pass 1  IDiag  1:
 RMSU=  1.52D-08    CP:  9.64D-01  3.59D-01  1.02D+00  7.00D-01  1.28D+00
                    CP:  1.17D+00  1.25D+00  1.62D+00  1.39D+00  1.48D+00
                    CP:  1.41D+00  1.33D+00  1.43D+00  1.17D+00
 E= -992.211151997276     Delta-E=       -0.000000000088 Rises=F Damp=F
 DIIS: error= 9.26D-08 at cycle  15 NSaved=  15.
 NSaved=15 IEnMin=15 EnMin= -992.211151997276     IErMin=15 ErrMin= 9.26D-08
 ErrMax= 9.26D-08  0.00D+00 EMaxC= 1.00D-01 BMatC= 8.70D-12 BMatP= 1.11D-10
 IDIUse=1 WtCom= 1.00D+00 WtEn= 0.00D+00
 Coeff-Com: -0.580D-06 0.105D-05-0.863D-06 0.350D-05 0.497D-05-0.428D-04
 Coeff-Com:  0.242D-04 0.221D-04 0.900D-03 0.107D-02-0.565D-02-0.336D-01
 Coeff-Com: -0.319D-01 0.799D-01 0.989D+00
 Coeff:     -0.580D-06 0.105D-05-0.863D-06 0.350D-05 0.497D-05-0.428D-04
 Coeff:      0.242D-04 0.221D-04 0.900D-03 0.107D-02-0.565D-02-0.336D-01
 Coeff:     -0.319D-01 0.799D-01 0.989D+00
 Gap=     0.328 Goal=   None    Shift=    0.000
 RMSDP=1.51D-08 MaxDP=9.39D-07 DE=-8.82D-11 OVMax= 3.32D-06

 Cycle  16  Pass 1  IDiag  1:
 RMSU=  6.43D-09    CP:  9.64D-01  3.59D-01  1.02D+00  7.00D-01  1.28D+00
                    CP:  1.17D+00  1.25D+00  1.62D+00  1.39D+00  1.48D+00
                    CP:  1.41D+00  1.35D+00  1.53D+00  1.35D+00  1.38D+00
 E= -992.211151997350     Delta-E=       -0.000000000074 Rises=F Damp=F
 DIIS: error= 3.98D-08 at cycle  16 NSaved=  16.
 NSaved=16 IEnMin=16 EnMin= -992.211151997350     IErMin=16 ErrMin= 3.98D-08
 ErrMax= 3.98D-08  0.00D+00 EMaxC= 1.00D-01 BMatC= 7.59D-13 BMatP= 8.70D-12
 IDIUse=1 WtCom= 1.00D+00 WtEn= 0.00D+00
 Coeff-Com: -0.208D-06 0.196D-06-0.329D-05-0.132D-06 0.121D-04 0.437D-04
 Coeff-Com: -0.981D-05-0.239D-03-0.750D-03 0.145D-02 0.630D-02-0.445D-02
 Coeff-Com: -0.435D-01-0.589D-01 0.165D+00 0.935D+00
 Coeff:     -0.208D-06 0.196D-06-0.329D-05-0.132D-06 0.121D-04 0.437D-04
 Coeff:     -0.981D-05-0.239D-03-0.750D-03 0.145D-02 0.630D-02-0.445D-02
 Coeff:     -0.435D-01-0.589D-01 0.165D+00 0.935D+00
 Gap=     0.328 Goal=   None    Shift=    0.000
 RMSDP=5.29D-09 MaxDP=2.44D-07 DE=-7.37D-11 OVMax= 1.45D-06

 Error on total polarization charges =  0.03084
 SCF Done:  E(RwB97XD) =  -992.211151997     A.U. after   16 cycles
            NFock= 16  Conv=0.53D-08     -V/T= 2.0799
 KE= 9.188078062417D+02 PE=-4.549327437349D+03 EE= 1.517124874823D+03
 SMD-CDS (non-electrostatic) energy       (kcal/mol) =      -0.26
 (included in total energy above)
 Leave Link  502 at Tue Oct  4 20:31:30 2022, MaxMem=  2952790016 cpu:           13142.9 elap:            1101.5
 (Enter /mnt/data/applications/G16/g16/l801.exe)
 DoSCS=F DFT=T ScalE2(SS,OS)=  1.000000  1.000000
 Range of M.O.s used for correlation:     1   510
 NBasis=   510 NAE=    60 NBE=    60 NFC=     0 NFV=     0
 NROrb=    510 NOA=    60 NOB=    60 NVA=   450 NVB=   450

 **** Warning!!: The largest alpha MO coefficient is  0.17334132D+02

 Leave Link  801 at Tue Oct  4 20:31:30 2022, MaxMem=  2952790016 cpu:               0.3 elap:               0.0
 (Enter /mnt/data/applications/G16/g16/l1101.exe)
 Using compressed storage, NAtomX=    29.
 Will process     30 centers per pass.
   1 Symmetry operations used in ECPInt.
 ECPInt:  NShTT=   22578 NPrTT=   66767 LenC2=   21051 LenP2D=   46530.
 LDataN:  DoStor=T MaxTD1= 8 Len=  415
 R6Disp: Adding Grimme-D2 dispersion energy 1st derivatives to the gradient.
 Leave Link 1101 at Tue Oct  4 20:31:33 2022, MaxMem=  2952790016 cpu:              41.0 elap:               3.5
 (Enter /mnt/data/applications/G16/g16/l1102.exe)
 Symmetrizing basis deriv contribution to polar:
 IMax=3 JMax=2 DiffMx= 0.00D+00
 Leave Link 1102 at Tue Oct  4 20:31:33 2022, MaxMem=  2952790016 cpu:               1.0 elap:               0.1
 (Enter /mnt/data/applications/G16/g16/l1110.exe)
 Forming Gx(P) for the SCF density, NAtomX=    29.
 Integral derivatives from FoFJK, PRISM(SPDF).
 Do as many integral derivatives as possible in FoFJK.
 G2DrvN: MDV=    2952787676.
 G2DrvN: will do    30 centers at a time, making    1 passes.
 Calling FoFCou, ICntrl=  3107 FMM=F I1Cent=   0 AccDes= 0.00D+00.
 FoFJK:  IHMeth= 1 ICntrl=    3107 DoSepK=T KAlg= 0 I1Cent=           0 FoldK=F
 IRaf=         1 NMat=       1 IRICut=       1 DoRegI=T DoRafI=F ISym2E= 0 IDoP0=0 IntGTp=1.
 FoFCou: FMM=F IPFlag=           0 FMFlag=      100000 FMFlg1=           0
         NFxFlg=           0 DoJE=F BraDBF=F KetDBF=F FulRan=T
         wScrn=  0.000000 ICntrl=      3507 IOpCl=  0 I1Cent=           0 NGrid=           0
         NMat0=    1 NMatS0=      1 NMatT0=    0 NMatD0=    1 NMtDS0=    0 NMtDT0=    0
 Symmetry not used in FoFCou.
 Defaulting to unpruned grid for atomic number  45.
 Defaulting to unpruned grid for atomic number  45.
 Defaulting to unpruned grid for atomic number  45.
 Defaulting to unpruned grid for atomic number  45.
 Defaulting to unpruned grid for atomic number  45.
 Defaulting to unpruned grid for atomic number  45.
 Defaulting to unpruned grid for atomic number  45.
 Defaulting to unpruned grid for atomic number  45.
 Defaulting to unpruned grid for atomic number  45.
 Defaulting to unpruned grid for atomic number  45.
 Defaulting to unpruned grid for atomic number  45.
 Defaulting to unpruned grid for atomic number  45.
 NEqPCM:  Using equilibrium solvation (IEInf=0, Eps=   2.3741, EpsInf=   2.2383)
 G2PCM: DoFxE=T DoFxN=T DoGrad=T DoDP/DQ/DG/TGxP=FFFF NFrqRd=   0 IEInf=0 SqF1=F DoCFld=F IF1Alg=4.
 GePol: Maximum number of non-zero 1st derivatives   =     415
 End of G2Drv F.D. properties file   721 does not exist.
 End of G2Drv F.D. properties file   722 does not exist.
 End of G2Drv F.D. properties file   788 does not exist.
 Leave Link 1110 at Tue Oct  4 20:50:34 2022, MaxMem=  2952790016 cpu:           13647.2 elap:            1140.3
 (Enter /mnt/data/applications/G16/g16/l1002.exe)
 Minotr:  Closed shell wavefunction.
          IDoAtm=11111111111111111111111111111
 NEqPCM:  Using equilibrium solvation (IEInf=0, Eps=   2.3741, EpsInf=   2.2383)
          Direct CPHF calculation.
          Differentiating once with respect to nuclear coordinates.
          Requested convergence is 1.0D-08 RMS, and 1.0D-07 maximum.
          Secondary convergence is 1.0D-12 RMS, and 1.0D-12 maximum.
          NewPWx=T KeepS1=F KeepF1=F KeepIn=T MapXYZ=F SortEE=F KeepMc=T.
 Defaulting to unpruned grid for atomic number  45.
         8986 words used for storage of precomputed grid.
 Two-electron integrals replicated using symmetry.
          MDV=    2952790016 using IRadAn=       1.
          Solving linear equations simultaneously, MaxMat=     384.
 FoF2E skips out because all densities are zero.
 CalDSu exits because no D1Ps are significant.
 FoFJK:  IHMeth= 1 ICntrl=       0 DoSepK=T KAlg= 0 I1Cent=           0 FoldK=F
 IRaf=         1 NMat=      87 IRICut=       1 DoRegI=T DoRafI=F ISym2E= 2 IDoP0=3 IntGTp=3.
 Defaulting to unpruned grid for atomic number  45.
 Defaulting to unpruned grid for atomic number  45.
 Defaulting to unpruned grid for atomic number  45.
 Defaulting to unpruned grid for atomic number  45.
 Defaulting to unpruned grid for atomic number  45.
 Defaulting to unpruned grid for atomic number  45.
 Defaulting to unpruned grid for atomic number  45.
 Defaulting to unpruned grid for atomic number  45.
 Defaulting to unpruned grid for atomic number  45.
 Defaulting to unpruned grid for atomic number  45.
 Defaulting to unpruned grid for atomic number  45.
 Defaulting to unpruned grid for atomic number  45.
          There are    90 degrees of freedom in the 1st order CPHF.  IDoFFX=6 NUNeed=     0.
     84 vectors produced by pass  0 Test12= 3.00D-14 1.11D-09 XBig12= 1.11D-01 9.77D-02.
 AX will form    84 AO Fock derivatives at one time.
     84 vectors produced by pass  1 Test12= 3.00D-14 1.11D-09 XBig12= 1.89D-02 2.98D-02.
     84 vectors produced by pass  2 Test12= 3.00D-14 1.11D-09 XBig12= 1.21D-03 8.65D-03.
     84 vectors produced by pass  3 Test12= 3.00D-14 1.11D-09 XBig12= 2.17D-05 9.61D-04.
     84 vectors produced by pass  4 Test12= 3.00D-14 1.11D-09 XBig12= 3.88D-07 1.13D-04.
     84 vectors produced by pass  5 Test12= 3.00D-14 1.11D-09 XBig12= 4.18D-09 1.06D-05.
     84 vectors produced by pass  6 Test12= 3.00D-14 1.11D-09 XBig12= 4.07D-11 8.74D-07.
     42 vectors produced by pass  7 Test12= 3.00D-14 1.11D-09 XBig12= 3.14D-13 5.31D-08.
      7 vectors produced by pass  8 Test12= 3.00D-14 1.11D-09 XBig12= 2.51D-15 4.29D-09.
      2 vectors produced by pass  9 Test12= 3.00D-14 1.11D-09 XBig12= 1.25D-15 2.77D-09.
 InvSVY:  IOpt=1 It=  1 EMax= 2.78D-16
 Solved reduced A of dimension   639 with    90 vectors.
 End of Minotr F.D. properties file   721 does not exist.
 End of Minotr F.D. properties file   722 does not exist.
 End of Minotr F.D. properties file   788 does not exist.
 Leave Link 1002 at Tue Oct  4 21:44:39 2022, MaxMem=  2952790016 cpu:           38848.2 elap:            3245.9
 (Enter /mnt/data/applications/G16/g16/l601.exe)
 Copying SCF densities to generalized density rwf, IOpCl= 0 IROHF=0.

 **********************************************************************

            Population analysis using the SCF density.

 **********************************************************************

 Orbital symmetries:
       Occupied  (A) (A) (A) (A) (A) (A) (A) (A) (A) (A) (A) (A)
                 (A) (A) (A) (A) (A) (A) (A) (A) (A) (A) (A) (A)
                 (A) (A) (A) (A) (A) (A) (A) (A) (A) (A) (A) (A)
                 (A) (A) (A) (A) (A) (A) (A) (A) (A) (A) (A) (A)
                 (A) (A) (A) (A) (A) (A) (A) (A) (A) (A) (A) (A)
       Virtual   (A) (A) (A) (A) (A) (A) (A) (A) (A) (A) (A) (A)
                 (A) (A) (A) (A) (A) (A) (A) (A) (A) (A) (A) (A)
                 (A) (A) (A) (A) (A) (A) (A) (A) (A) (A) (A) (A)
                 (A) (A) (A) (A) (A) (A) (A) (A) (A) (A) (A) (A)
                 (A) (A) (A) (A) (A) (A) (A) (A) (A) (A) (A) (A)
                 (A) (A) (A) (A) (A) (A) (A) (A) (A) (A) (A) (A)
                 (A) (A) (A) (A) (A) (A) (A) (A) (A) (A) (A) (A)
                 (A) (A) (A) (A) (A) (A) (A) (A) (A) (A) (A) (A)
                 (A) (A) (A) (A) (A) (A) (A) (A) (A) (A) (A) (A)
                 (A) (A) (A) (A) (A) (A) (A) (A) (A) (A) (A) (A)
                 (A) (A) (A) (A) (A) (A) (A) (A) (A) (A) (A) (A)
                 (A) (A) (A) (A) (A) (A) (A) (A) (A) (A) (A) (A)
                 (A) (A) (A) (A) (A) (A) (A) (A) (A) (A) (A) (A)
                 (A) (A) (A) (A) (A) (A) (A) (A) (A) (A) (A) (A)
                 (A) (A) (A) (A) (A) (A) (A) (A) (A) (A) (A) (A)
                 (A) (A) (A) (A) (A) (A) (A) (A) (A) (A) (A) (A)
                 (A) (A) (A) (A) (A) (A) (A) (A) (A) (A) (A) (A)
                 (A) (A) (A) (A) (A) (A) (A) (A) (A) (A) (A) (A)
                 (A) (A) (A) (A) (A) (A) (A) (A) (A) (A) (A) (A)
                 (A) (A) (A) (A) (A) (A) (A) (A) (A) (A) (A) (A)
                 (A) (A) (A) (A) (A) (A) (A) (A) (A) (A) (A) (A)
                 (A) (A) (A) (A) (A) (A) (A) (A) (A) (A) (A) (A)
                 (A) (A) (A) (A) (A) (A) (A) (A) (A) (A) (A) (A)
                 (A) (A) (A) (A) (A) (A) (A) (A) (A) (A) (A) (A)
                 (A) (A) (A) (A) (A) (A) (A) (A) (A) (A) (A) (A)
                 (A) (A) (A) (A) (A) (A) (A) (A) (A) (A) (A) (A)
                 (A) (A) (A) (A) (A) (A) (A) (A) (A) (A) (A) (A)
                 (A) (A) (A) (A) (A) (A) (A) (A) (A) (A) (A) (A)
                 (A) (A) (A) (A) (A) (A) (A) (A) (A) (A) (A) (A)
                 (A) (A) (A) (A) (A) (A) (A) (A) (A) (A) (A) (A)
                 (A) (A) (A) (A) (A) (A) (A) (A) (A) (A) (A) (A)
                 (A) (A) (A) (A) (A) (A) (A) (A) (A) (A) (A) (A)
                 (A) (A) (A) (A) (A) (A) (A) (A) (A) (A) (A) (A)
                 (A) (A) (A) (A) (A) (A) (A) (A) (A) (A) (A) (A)
                 (A) (A) (A) (A) (A) (A) (A) (A) (A) (A) (A) (A)
                 (A) (A) (A) (A) (A) (A) (A) (A) (A) (A) (A) (A)
                 (A) (A) (A) (A) (A) (A) (A) (A) (A) (A) (A) (A)
                 (A) (A) (A) (A) (A) (A)
 The electronic state is 1-A.
 Alpha  occ. eigenvalues --  -77.24287 -19.33786 -19.32422 -19.22394 -10.41564
 Alpha  occ. eigenvalues --  -10.40392 -10.35531 -10.28652 -10.28428 -10.27940
 Alpha  occ. eigenvalues --  -10.27453 -10.26084  -6.68646  -4.83342  -4.83318
 Alpha  occ. eigenvalues --   -4.83037  -3.36765  -2.11961  -2.11535  -2.10240
 Alpha  occ. eigenvalues --   -1.25375  -1.23964  -1.13040  -0.88085  -0.86283
 Alpha  occ. eigenvalues --   -0.80083  -0.79734  -0.73757  -0.67423  -0.65826
 Alpha  occ. eigenvalues --   -0.64178  -0.60365  -0.57577  -0.56382  -0.56312
 Alpha  occ. eigenvalues --   -0.55469  -0.55128  -0.54795  -0.54479  -0.53265
 Alpha  occ. eigenvalues --   -0.52632  -0.52486  -0.52255  -0.51556  -0.49720
 Alpha  occ. eigenvalues --   -0.49324  -0.48702  -0.47687  -0.45514  -0.44399
 Alpha  occ. eigenvalues --   -0.42823  -0.42557  -0.42285  -0.41620  -0.40690
 Alpha  occ. eigenvalues --   -0.37122  -0.36100  -0.32465  -0.29648  -0.28445
 Alpha virt. eigenvalues --    0.04351   0.05311   0.06184   0.06525   0.06838
 Alpha virt. eigenvalues --    0.07224   0.07669   0.08209   0.08443   0.08959
 Alpha virt. eigenvalues --    0.10706   0.12591   0.13480   0.13615   0.15195
 Alpha virt. eigenvalues --    0.16112   0.16845   0.17176   0.17503   0.18541
 Alpha virt. eigenvalues --    0.19125   0.19413   0.19729   0.20380   0.20955
 Alpha virt. eigenvalues --    0.21168   0.21640   0.21880   0.23079   0.23474
 Alpha virt. eigenvalues --    0.24406   0.24620   0.25682   0.26428   0.26495
 Alpha virt. eigenvalues --    0.27261   0.27613   0.28392   0.29002   0.29605
 Alpha virt. eigenvalues --    0.30773   0.31198   0.32180   0.33265   0.34202
 Alpha virt. eigenvalues --    0.34638   0.35564   0.36403   0.38113   0.38625
 Alpha virt. eigenvalues --    0.40062   0.41187   0.42009   0.42563   0.42919
 Alpha virt. eigenvalues --    0.44827   0.45326   0.45819   0.46005   0.47035
 Alpha virt. eigenvalues --    0.47471   0.48245   0.48704   0.49528   0.49978
 Alpha virt. eigenvalues --    0.50670   0.51487   0.51782   0.52070   0.52517
 Alpha virt. eigenvalues --    0.52836   0.53545   0.54314   0.54655   0.54860
 Alpha virt. eigenvalues --    0.55335   0.55694   0.56168   0.56599   0.57389
 Alpha virt. eigenvalues --    0.57756   0.59239   0.59367   0.59817   0.60369
 Alpha virt. eigenvalues --    0.60958   0.61957   0.62671   0.63437   0.64221
 Alpha virt. eigenvalues --    0.64655   0.66065   0.66252   0.67740   0.68544
 Alpha virt. eigenvalues --    0.69559   0.69925   0.70445   0.71775   0.72461
 Alpha virt. eigenvalues --    0.73421   0.75001   0.75678   0.76406   0.77614
 Alpha virt. eigenvalues --    0.78470   0.79562   0.80376   0.81615   0.82852
 Alpha virt. eigenvalues --    0.84253   0.84870   0.85468   0.86476   0.87628
 Alpha virt. eigenvalues --    0.88937   0.89927   0.92038   0.92851   0.93372
 Alpha virt. eigenvalues --    0.94238   0.96016   0.96932   0.97759   0.98309
 Alpha virt. eigenvalues --    0.99048   1.00126   1.01382   1.03090   1.03408
 Alpha virt. eigenvalues --    1.04097   1.06307   1.08016   1.08965   1.09878
 Alpha virt. eigenvalues --    1.10562   1.12635   1.13342   1.13880   1.14257
 Alpha virt. eigenvalues --    1.15341   1.16609   1.18069   1.18655   1.19461
 Alpha virt. eigenvalues --    1.20473   1.21435   1.21995   1.23456   1.25248
 Alpha virt. eigenvalues --    1.26919   1.29106   1.31363   1.31656   1.35682
 Alpha virt. eigenvalues --    1.37670   1.44010   1.47455   1.47668   1.50212
 Alpha virt. eigenvalues --    1.50421   1.52509   1.53423   1.54582   1.55395
 Alpha virt. eigenvalues --    1.55685   1.56877   1.58075   1.58830   1.59596
 Alpha virt. eigenvalues --    1.59883   1.60753   1.61332   1.61814   1.62229
 Alpha virt. eigenvalues --    1.62592   1.63569   1.63822   1.64200   1.64730
 Alpha virt. eigenvalues --    1.65330   1.66015   1.66230   1.66401   1.66891
 Alpha virt. eigenvalues --    1.67740   1.68236   1.68975   1.69864   1.70616
 Alpha virt. eigenvalues --    1.71195   1.71796   1.72880   1.73116   1.74113
 Alpha virt. eigenvalues --    1.74369   1.75553   1.76456   1.78374   1.79447
 Alpha virt. eigenvalues --    1.81308   1.82466   1.83974   1.86073   1.89415
 Alpha virt. eigenvalues --    1.90102   1.93439   1.95081   1.96186   1.97435
 Alpha virt. eigenvalues --    1.98336   1.99336   2.00446   2.01791   2.03837
 Alpha virt. eigenvalues --    2.04613   2.05799   2.07154   2.10052   2.10804
 Alpha virt. eigenvalues --    2.11033   2.11800   2.13412   2.14317   2.15901
 Alpha virt. eigenvalues --    2.16262   2.17208   2.18023   2.19075   2.20510
 Alpha virt. eigenvalues --    2.21219   2.24138   2.25880   2.26436   2.27185
 Alpha virt. eigenvalues --    2.30114   2.31902   2.33179   2.35387   2.35960
 Alpha virt. eigenvalues --    2.37936   2.39744   2.40305   2.41271   2.42046
 Alpha virt. eigenvalues --    2.43255   2.43983   2.45106   2.45397   2.47058
 Alpha virt. eigenvalues --    2.48496   2.49779   2.51293   2.52493   2.54665
 Alpha virt. eigenvalues --    2.55764   2.56718   2.57151   2.59353   2.60072
 Alpha virt. eigenvalues --    2.61784   2.63223   2.64172   2.65768   2.66479
 Alpha virt. eigenvalues --    2.67205   2.68226   2.69116   2.69966   2.70690
 Alpha virt. eigenvalues --    2.71313   2.72428   2.74381   2.74581   2.74862
 Alpha virt. eigenvalues --    2.75548   2.76282   2.77889   2.79781   2.80893
 Alpha virt. eigenvalues --    2.84806   2.86300   2.86809   2.88096   2.89971
 Alpha virt. eigenvalues --    2.90811   2.91520   2.92430   2.93103   2.93930
 Alpha virt. eigenvalues --    2.94834   2.96830   2.98234   2.99137   2.99628
 Alpha virt. eigenvalues --    3.01238   3.01831   3.03011   3.04818   3.05726
 Alpha virt. eigenvalues --    3.06292   3.09351   3.10537   3.11202   3.13256
 Alpha virt. eigenvalues --    3.14128   3.14578   3.15033   3.16802   3.17412
 Alpha virt. eigenvalues --    3.18381   3.19452   3.20563   3.21284   3.22287
 Alpha virt. eigenvalues --    3.23578   3.23815   3.24311   3.25324   3.27093
 Alpha virt. eigenvalues --    3.27441   3.29012   3.30272   3.31146   3.31491
 Alpha virt. eigenvalues --    3.34054   3.35579   3.36171   3.37534   3.38752
 Alpha virt. eigenvalues --    3.39083   3.40205   3.41680   3.41904   3.42921
 Alpha virt. eigenvalues --    3.43698   3.44138   3.45273   3.46572   3.49026
 Alpha virt. eigenvalues --    3.50495   3.52809   3.55045   3.56558   3.57643
 Alpha virt. eigenvalues --    3.60792   3.61505   3.62614   3.63966   3.65513
 Alpha virt. eigenvalues --    3.68376   3.68748   3.69206   3.69751   3.70705
 Alpha virt. eigenvalues --    3.70898   3.71656   3.72310   3.73759   3.74424
 Alpha virt. eigenvalues --    3.75623   3.76547   3.80191   3.81393   3.81738
 Alpha virt. eigenvalues --    3.86020   3.87337   3.91420   3.98097   4.00567
 Alpha virt. eigenvalues --    4.01384   4.02405   4.09119   4.13992   4.19937
 Alpha virt. eigenvalues --    4.29440   4.32597   4.34927   4.35620   4.36519
 Alpha virt. eigenvalues --    4.38555   4.40063   4.40872   4.41603   4.45195
 Alpha virt. eigenvalues --    4.48415   4.50660   4.51579   4.53082   4.55841
 Alpha virt. eigenvalues --    4.61898   4.66183   4.70348   4.94072   4.94772
 Alpha virt. eigenvalues --    5.17864   5.17891   5.19192   5.19319   5.29135
 Alpha virt. eigenvalues --    5.29808   5.57461   5.57995   5.58694   5.60235
 Alpha virt. eigenvalues --    5.64443   5.69520   6.22480   6.29739   6.30941
 Alpha virt. eigenvalues --    6.32054   6.33653   6.34053   6.34181   6.35016
 Alpha virt. eigenvalues --    6.35911   6.42086   6.44604   6.51269   6.56224
 Alpha virt. eigenvalues --    6.63121   6.65337   6.80585   6.80968   6.81992
 Alpha virt. eigenvalues --    6.83442   6.94257   7.11290   7.16643   7.17663
 Alpha virt. eigenvalues --    7.20268   7.80192   7.89974   7.93849  15.68748
 Alpha virt. eigenvalues --   22.42040  22.42174  22.43483  22.46646  22.58885
 Alpha virt. eigenvalues --   22.69247  22.84153  23.17326  38.37685  38.55762
 Alpha virt. eigenvalues --   38.62584  43.92777  43.96254  44.13381  49.78683
          Condensed to atoms (all electrons):
               1          2          3          4          5          6
     1  H    0.618377   0.104289   0.247814  -0.014010   0.000265   0.001826
     2  H    0.104289   0.602291   0.220652   0.000945  -0.000128   0.002563
     3  Rh   0.247814   0.220652  16.004877   0.159900  -0.004988  -0.021741
     4  C   -0.014010   0.000945   0.159900   5.173004   0.475892   0.172959
     5  O    0.000265  -0.000128  -0.004988   0.475892   7.999088  -0.102927
     6  C    0.001826   0.002563  -0.021741   0.172959  -0.102927   5.281818
     7  C    0.001159   0.001126   0.018122  -0.028795   0.025893   0.236904
     8  H   -0.007041  -0.001160  -0.001959  -0.034811   0.001976   0.417672
     9  H   -0.003108  -0.003963  -0.011301  -0.028603   0.000376   0.410113
    10  H   -0.000067  -0.000032  -0.000425   0.011301   0.001029  -0.050997
    11  H    0.000006  -0.000021  -0.000845  -0.006724  -0.000141  -0.029839
    12  H   -0.000024   0.000008   0.000798  -0.008822   0.001725  -0.027876
    13  C   -0.010896   0.016684   0.158075   0.008518  -0.022888  -0.009949
    14  O    0.000245  -0.000654  -0.004414  -0.003400   0.001425   0.000400
    15  P    0.019432  -0.011347   0.298156   0.001953  -0.006936  -0.011232
    16  C   -0.000693   0.000537  -0.030931   0.000974   0.000256   0.000111
    17  C   -0.001636   0.000500  -0.030064  -0.008717  -0.005341   0.008908
    18  C    0.000286   0.000265  -0.032427  -0.002981  -0.007144   0.000005
    19  H   -0.000007  -0.000013  -0.003581   0.000849  -0.000289  -0.000024
    20  H    0.000014  -0.000009   0.007866  -0.000391   0.000094  -0.000019
    21  H   -0.000025   0.000006  -0.003455  -0.006679   0.012653   0.001107
    22  H   -0.000016  -0.000023  -0.005942  -0.000041   0.000000   0.000009
    23  H    0.000009   0.000074  -0.003261   0.000153  -0.000005  -0.000009
    24  H    0.000047  -0.000012   0.006931  -0.000091  -0.000007  -0.000010
    25  H   -0.000207   0.000096  -0.002834  -0.000238   0.000309  -0.000442
    26  H   -0.000043   0.000095  -0.011608   0.008864   0.003542  -0.004694
    27  H    0.000102  -0.000020   0.008397   0.000053  -0.000120  -0.000272
    28  C   -0.008825  -0.009340   0.121242  -0.021962   0.001719   0.002500
    29  O   -0.000689  -0.000561  -0.005143   0.000289  -0.000003  -0.000014
               7          8          9         10         11         12
     1  H    0.001159  -0.007041  -0.003108  -0.000067   0.000006  -0.000024
     2  H    0.001126  -0.001160  -0.003963  -0.000032  -0.000021   0.000008
     3  Rh   0.018122  -0.001959  -0.011301  -0.000425  -0.000845   0.000798
     4  C   -0.028795  -0.034811  -0.028603   0.011301  -0.006724  -0.008822
     5  O    0.025893   0.001976   0.000376   0.001029  -0.000141   0.001725
     6  C    0.236904   0.417672   0.410113  -0.050997  -0.029839  -0.027876
     7  C    4.909399  -0.037262  -0.021248   0.421039   0.413482   0.413418
     8  H   -0.037262   0.546204  -0.030578  -0.002918  -0.005141   0.006131
     9  H   -0.021248  -0.030578   0.539829  -0.003767   0.005905  -0.005721
    10  H    0.421039  -0.002918  -0.003767   0.553311  -0.026867  -0.024257
    11  H    0.413482  -0.005141   0.005905  -0.026867   0.556240  -0.023549
    12  H    0.413418   0.006131  -0.005721  -0.024257  -0.023549   0.540853
    13  C    0.000279   0.000507   0.000415   0.000014  -0.000000   0.000008
    14  O   -0.000012  -0.000008  -0.000026  -0.000000  -0.000001  -0.000006
    15  P    0.000064  -0.002088   0.000475  -0.000012  -0.000065   0.000013
    16  C   -0.000014   0.000032   0.000002  -0.000000  -0.000002   0.000000
    17  C   -0.001497   0.002854  -0.000351   0.000022  -0.000448   0.000065
    18  C    0.000066  -0.000037   0.000002   0.000001   0.000019  -0.000002
    19  H    0.000003  -0.000000   0.000001  -0.000000   0.000001  -0.000000
    20  H   -0.000006  -0.000002   0.000000  -0.000000   0.000001  -0.000000
    21  H   -0.000182  -0.000062  -0.000001  -0.000001  -0.000027  -0.000013
    22  H   -0.000000  -0.000000  -0.000000   0.000000  -0.000000  -0.000000
    23  H    0.000001  -0.000002  -0.000000  -0.000000  -0.000000  -0.000000
    24  H    0.000000  -0.000003   0.000000  -0.000000   0.000000  -0.000000
    25  H    0.000006  -0.000698   0.000072   0.000000   0.000018  -0.000006
    26  H    0.000765  -0.002412   0.000396  -0.000044   0.001841  -0.000071
    27  H    0.000045   0.000016  -0.000000  -0.000000   0.000014   0.000000
    28  C   -0.000174   0.000332   0.000248  -0.000000  -0.000000  -0.000003
    29  O    0.000000  -0.000002  -0.000002  -0.000000  -0.000000   0.000000
              13         14         15         16         17         18
     1  H   -0.010896   0.000245   0.019432  -0.000693  -0.001636   0.000286
     2  H    0.016684  -0.000654  -0.011347   0.000537   0.000500   0.000265
     3  Rh   0.158075  -0.004414   0.298156  -0.030931  -0.030064  -0.032427
     4  C    0.008518  -0.003400   0.001953   0.000974  -0.008717  -0.002981
     5  O   -0.022888   0.001425  -0.006936   0.000256  -0.005341  -0.007144
     6  C   -0.009949   0.000400  -0.011232   0.000111   0.008908   0.000005
     7  C    0.000279  -0.000012   0.000064  -0.000014  -0.001497   0.000066
     8  H    0.000507  -0.000008  -0.002088   0.000032   0.002854  -0.000037
     9  H    0.000415  -0.000026   0.000475   0.000002  -0.000351   0.000002
    10  H    0.000014  -0.000000  -0.000012  -0.000000   0.000022   0.000001
    11  H   -0.000000  -0.000001  -0.000065  -0.000002  -0.000448   0.000019
    12  H    0.000008  -0.000006   0.000013   0.000000   0.000065  -0.000002
    13  C    5.350819   0.548893  -0.013167   0.001052   0.000297  -0.000891
    14  O    0.548893   7.557021  -0.001012   0.000030  -0.000015   0.000766
    15  P   -0.013167  -0.001012  13.754968   0.328116   0.329490   0.333407
    16  C    0.001052   0.000030   0.328116   5.038066  -0.038369  -0.033654
    17  C    0.000297  -0.000015   0.329490  -0.038369   5.038951  -0.035522
    18  C   -0.000891   0.000766   0.333407  -0.033654  -0.035522   5.013694
    19  H    0.000408  -0.000138  -0.021779  -0.000747   0.004177   0.396053
    20  H   -0.000032  -0.000021  -0.029497  -0.005997  -0.004244   0.396566
    21  H   -0.000729  -0.000055  -0.019439   0.004204  -0.000611   0.398387
    22  H   -0.000095  -0.000012  -0.022381   0.398136   0.004676  -0.001454
    23  H   -0.000001  -0.000000  -0.023904   0.401014  -0.001068   0.004102
    24  H   -0.000040  -0.000000  -0.026069   0.396013  -0.005224  -0.004220
    25  H   -0.000020  -0.000000  -0.024388  -0.001025   0.399264   0.003991
    26  H    0.000184  -0.000005  -0.019566   0.004757   0.393541  -0.000333
    27  H   -0.000011  -0.000000  -0.028500  -0.005487   0.399516  -0.004900
    28  C    0.002094  -0.001970  -0.019978  -0.001915   0.000851   0.000117
    29  O   -0.002106   0.000142  -0.002806   0.001297   0.000008   0.000040
              19         20         21         22         23         24
     1  H   -0.000007   0.000014  -0.000025  -0.000016   0.000009   0.000047
     2  H   -0.000013  -0.000009   0.000006  -0.000023   0.000074  -0.000012
     3  Rh  -0.003581   0.007866  -0.003455  -0.005942  -0.003261   0.006931
     4  C    0.000849  -0.000391  -0.006679  -0.000041   0.000153  -0.000091
     5  O   -0.000289   0.000094   0.012653   0.000000  -0.000005  -0.000007
     6  C   -0.000024  -0.000019   0.001107   0.000009  -0.000009  -0.000010
     7  C    0.000003  -0.000006  -0.000182  -0.000000   0.000001   0.000000
     8  H   -0.000000  -0.000002  -0.000062  -0.000000  -0.000002  -0.000003
     9  H    0.000001   0.000000  -0.000001  -0.000000  -0.000000   0.000000
    10  H   -0.000000  -0.000000  -0.000001   0.000000  -0.000000  -0.000000
    11  H    0.000001   0.000001  -0.000027  -0.000000  -0.000000   0.000000
    12  H   -0.000000  -0.000000  -0.000013  -0.000000  -0.000000  -0.000000
    13  C    0.000408  -0.000032  -0.000729  -0.000095  -0.000001  -0.000040
    14  O   -0.000138  -0.000021  -0.000055  -0.000012  -0.000000  -0.000000
    15  P   -0.021779  -0.029497  -0.019439  -0.022381  -0.023904  -0.026069
    16  C   -0.000747  -0.005997   0.004204   0.398136   0.401014   0.396013
    17  C    0.004177  -0.004244  -0.000611   0.004676  -0.001068  -0.005224
    18  C    0.396053   0.396566   0.398387  -0.001454   0.004102  -0.004220
    19  H    0.505022  -0.021422  -0.012218   0.000765  -0.000090  -0.000144
    20  H   -0.021422   0.526051  -0.019759  -0.000141  -0.000160   0.003451
    21  H   -0.012218  -0.019759   0.465408  -0.000105  -0.000065  -0.000173
    22  H    0.000765  -0.000141  -0.000105   0.498388  -0.015760  -0.019365
    23  H   -0.000090  -0.000160  -0.000065  -0.015760   0.493196  -0.019730
    24  H   -0.000144   0.003451  -0.000173  -0.019365  -0.019730   0.513486
    25  H   -0.000079  -0.000102  -0.000085  -0.000087   0.000892  -0.000358
    26  H   -0.000006  -0.000543   0.000918  -0.000099  -0.000105  -0.000153
    27  H   -0.000101   0.003363  -0.000409  -0.000124  -0.000342   0.003916
    28  C   -0.000542   0.000043   0.000347   0.001088  -0.001574   0.000260
    29  O   -0.000027  -0.000003  -0.000003   0.000136  -0.000089  -0.000017
              25         26         27         28         29
     1  H   -0.000207  -0.000043   0.000102  -0.008825  -0.000689
     2  H    0.000096   0.000095  -0.000020  -0.009340  -0.000561
     3  Rh  -0.002834  -0.011608   0.008397   0.121242  -0.005143
     4  C   -0.000238   0.008864   0.000053  -0.021962   0.000289
     5  O    0.000309   0.003542  -0.000120   0.001719  -0.000003
     6  C   -0.000442  -0.004694  -0.000272   0.002500  -0.000014
     7  C    0.000006   0.000765   0.000045  -0.000174   0.000000
     8  H   -0.000698  -0.002412   0.000016   0.000332  -0.000002
     9  H    0.000072   0.000396  -0.000000   0.000248  -0.000002
    10  H    0.000000  -0.000044  -0.000000  -0.000000  -0.000000
    11  H    0.000018   0.001841   0.000014  -0.000000  -0.000000
    12  H   -0.000006  -0.000071   0.000000  -0.000003   0.000000
    13  C   -0.000020   0.000184  -0.000011   0.002094  -0.002106
    14  O   -0.000000  -0.000005  -0.000000  -0.001970   0.000142
    15  P   -0.024388  -0.019566  -0.028500  -0.019978  -0.002806
    16  C   -0.001025   0.004757  -0.005487  -0.001915   0.001297
    17  C    0.399264   0.393541   0.399516   0.000851   0.000008
    18  C    0.003991  -0.000333  -0.004900   0.000117   0.000040
    19  H   -0.000079  -0.000006  -0.000101  -0.000542  -0.000027
    20  H   -0.000102  -0.000543   0.003363   0.000043  -0.000003
    21  H   -0.000085   0.000918  -0.000409   0.000347  -0.000003
    22  H   -0.000087  -0.000099  -0.000124   0.001088   0.000136
    23  H    0.000892  -0.000105  -0.000342  -0.001574  -0.000089
    24  H   -0.000358  -0.000153   0.003916   0.000260  -0.000017
    25  H    0.495261  -0.013573  -0.020846   0.000255  -0.000008
    26  H   -0.013573   0.489153  -0.019782  -0.000101  -0.000000
    27  H   -0.020846  -0.019782   0.513225  -0.000050  -0.000001
    28  C    0.000255  -0.000101  -0.000050   5.378436   0.546031
    29  O   -0.000008  -0.000000  -0.000001   0.546031   7.550677
 Mulliken charges:
               1
     1  H    0.053415
     2  H    0.077152
     3  Rh  -0.077911
     4  C    0.150609
     5  O   -0.375323
     6  C   -0.276852
     7  C   -0.352583
     8  H    0.150459
     9  H    0.150837
    10  H    0.122670
    11  H    0.116142
    12  H    0.127330
    13  C   -0.027421
    14  O   -0.097172
    15  P    0.218090
    16  C   -0.455764
    17  C   -0.450013
    18  C   -0.424201
    19  H    0.153928
    20  H    0.144897
    21  H    0.181068
    22  H    0.162449
    23  H    0.166725
    24  H    0.151512
    25  H    0.164833
    26  H    0.169080
    27  H    0.152317
    28  C    0.010871
    29  O   -0.087148
 Sum of Mulliken charges =  -0.00000
 Mulliken charges with hydrogens summed into heavy atoms:
               1
     3  Rh   0.052656
     4  C    0.150609
     5  O   -0.375323
     6  C    0.024445
     7  C    0.013560
    13  C   -0.027421
    14  O   -0.097172
    15  P    0.218090
    16  C    0.024922
    17  C    0.036217
    18  C    0.055692
    28  C    0.010871
    29  O   -0.087148
 APT charges:
               1
     1  H    0.111652
     2  H    0.171020
     3  Rh  -0.206239
     4  C   -0.192900
     5  O   -0.130452
     6  C   -0.381416
     7  C   -1.559123
     8  H    0.239424
     9  H    0.387320
    10  H    0.719495
    11  H    0.271257
    12  H    0.425009
    13  C   -0.880746
    14  O    0.785387
    15  P    0.015667
    16  C   -1.311861
    17  C   -1.219885
    18  C   -1.176632
    19  H    0.370481
    20  H    0.631258
    21  H    0.254164
    22  H    0.373142
    23  H    0.376021
    24  H    0.636897
    25  H    0.364170
    26  H    0.280320
    27  H    0.642740
    28  C   -0.950160
    29  O    0.953988
 Sum of APT charges =  -0.00000
 APT charges with hydrogens summed into heavy atoms:
               1
     3  Rh   0.076432
     4  C   -0.192900
     5  O   -0.130452
     6  C    0.245328
     7  C   -0.143361
    13  C   -0.880746
    14  O    0.785387
    15  P    0.015667
    16  C    0.074200
    17  C    0.067345
    18  C    0.079271
    28  C   -0.950160
    29  O    0.953988
 Electronic spatial extent (au):  <R**2>=           3427.6953
 Charge=             -0.0000 electrons
 Dipole moment (field-independent basis, Debye):
    X=             -2.1476    Y=              4.3819    Z=             -1.7864  Tot=              5.1966
 Quadrupole moment (field-independent basis, Debye-Ang):
   XX=           -104.9600   YY=            -96.8602   ZZ=           -105.6194
   XY=             -4.6066   XZ=             -7.3966   YZ=              1.9905
 Traceless Quadrupole moment (field-independent basis, Debye-Ang):
   XX=             -2.4802   YY=              5.6197   ZZ=             -3.1395
   XY=             -4.6066   XZ=             -7.3966   YZ=              1.9905
 Octapole moment (field-independent basis, Debye-Ang**2):
  XXX=            -23.3118  YYY=             -9.7860  ZZZ=            -17.4427  XYY=             -9.9646
  XXY=             -7.6814  XXZ=             -7.6634  XZZ=            -12.4703  YZZ=             -2.2831
  YYZ=             -4.4172  XYZ=              1.4913
 Hexadecapole moment (field-independent basis, Debye-Ang**3):
 XXXX=          -2322.5825 YYYY=          -1455.7264 ZZZZ=           -837.0940 XXXY=            -20.0150
 XXXZ=            -34.2203 YYYX=              3.1613 YYYZ=             21.3746 ZZZX=             12.4621
 ZZZY=             15.4681 XXYY=           -617.0466 XXZZ=           -519.2214 YYZZ=           -400.7981
 XXYZ=             -9.8314 YYXZ=              6.1435 ZZXY=             -0.9077
 N-N= 1.121183604287D+03 E-N=-4.549327436580D+03  KE= 9.188078062417D+02
  Exact polarizability:   0.000   0.000   0.000   0.000   0.000   0.000
 Approx polarizability: 202.399   7.603 177.362  11.630  -2.654 196.880
 No NMR shielding tensors so no spin-rotation constants.
 Leave Link  601 at Tue Oct  4 21:44:41 2022, MaxMem=  2952790016 cpu:              12.0 elap:               1.1
 (Enter /mnt/data/applications/G16/g16/l701.exe)
 ... and contract with generalized density number  0.
 Compute integral second derivatives.
 R6Disp: Adding Grimme-D2 dispersion energy 2nd derivatives to the Hessian.
   1 Symmetry operations used in ECPInt.
 ECPInt:  NShTT=   22578 NPrTT=   66767 LenC2=   21051 LenP2D=   46530.
 LDataN:  DoStor=T MaxTD1= 9 Len=  602
 D2PCM: PCM CHGder 2nd derivatives, FixD1E=F FixD2E=F DoIter=F DoCFld=F I1PDM=0
 GePol: Maximum number of non-zero 2nd derivatives   =     415
 Leave Link  701 at Tue Oct  4 21:45:52 2022, MaxMem=  2952790016 cpu:             849.5 elap:              71.0
 (Enter /mnt/data/applications/G16/g16/l702.exe)
 L702 exits ... SP integral derivatives will be done elsewhere.
 Leave Link  702 at Tue Oct  4 21:45:52 2022, MaxMem=  2952790016 cpu:               0.2 elap:               0.0
 (Enter /mnt/data/applications/G16/g16/l703.exe)
 Integral derivatives from FoFJK, PRISM(SPDF).
 Compute integral second derivatives, UseDBF=F ICtDFT=           0.
 Calling FoFJK, ICntrl=    100147 FMM=F ISym2X=0 I1Cent= 0 IOpClX= 0 NMat=1 NMatS=1 NMatT=0.
 FoFJK:  IHMeth= 1 ICntrl=  100147 DoSepK=T KAlg= 0 I1Cent=           0 FoldK=F
 IRaf=         1 NMat=       1 IRICut=       1 DoRegI=T DoRafI=F ISym2E= 0 IDoP0=0 IntGTp=1.
 FoFCou: FMM=F IPFlag=           0 FMFlag=      100000 FMFlg1=         800
         NFxFlg=           0 DoJE=F BraDBF=F KetDBF=F FulRan=T
         wScrn=  0.000000 ICntrl=    100547 IOpCl=  0 I1Cent=           0 NGrid=           0
         NMat0=    1 NMatS0=      1 NMatT0=    0 NMatD0=    1 NMtDS0=    0 NMtDT0=    0
 Symmetry not used in FoFCou.
 Defaulting to unpruned grid for atomic number  45.
 Defaulting to unpruned grid for atomic number  45.
 Defaulting to unpruned grid for atomic number  45.
 Defaulting to unpruned grid for atomic number  45.
 Defaulting to unpruned grid for atomic number  45.
 Defaulting to unpruned grid for atomic number  45.
 Defaulting to unpruned grid for atomic number  45.
 Defaulting to unpruned grid for atomic number  45.
 Defaulting to unpruned grid for atomic number  45.
 Defaulting to unpruned grid for atomic number  45.
 Defaulting to unpruned grid for atomic number  45.
 Defaulting to unpruned grid for atomic number  45.
 Leave Link  703 at Tue Oct  4 22:13:29 2022, MaxMem=  2952790016 cpu:           19840.6 elap:            1657.7
 (Enter /mnt/data/applications/G16/g16/l716.exe)
 Dipole        =-8.44935385D-01 1.72397221D+00-7.02819844D-01
 Polarizability= 0.00000000D+00 0.00000000D+00 0.00000000D+00
                 0.00000000D+00 0.00000000D+00 0.00000000D+00
 ***** Axes restored to original set *****
 -------------------------------------------------------------------
 Center     Atomic                   Forces (Hartrees/Bohr)
 Number     Number              X              Y              Z
 -------------------------------------------------------------------
      1        1           0.000146184    0.000324517   -0.000257899
      2        1           0.000249600   -0.000494504    0.000014595
      3       45          -0.001043883    0.000967836    0.000703863
      4        6           0.000744444    0.000247384    0.000257834
      5        8          -0.000089369   -0.000059182   -0.000190277
      6        6          -0.000029314   -0.000027741   -0.000000998
      7        6          -0.000001465    0.000011004    0.000001496
      8        1          -0.000002853    0.000014033    0.000002296
      9        1           0.000013956    0.000002719   -0.000009616
     10        1          -0.000002320    0.000007579    0.000000986
     11        1          -0.000002726    0.000000928   -0.000007777
     12        1           0.000007331    0.000000452   -0.000020200
     13        6           0.000419911   -0.000490590   -0.000034847
     14        8          -0.000113578    0.000190465   -0.000057063
     15       15           0.000229196   -0.000460849   -0.000206845
     16        6           0.000016628   -0.000060653   -0.000002204
     17        6          -0.000030815    0.000010218    0.000023603
     18        6           0.000001056   -0.000082546   -0.000036847
     19        1          -0.000001811   -0.000007479    0.000015116
     20        1          -0.000003574   -0.000016286   -0.000015995
     21        1           0.000006968   -0.000008770    0.000010044
     22        1          -0.000005130   -0.000008390    0.000011036
     23        1           0.000005621    0.000000226    0.000001256
     24        1           0.000022794   -0.000013838    0.000022210
     25        1          -0.000003936    0.000000657    0.000005890
     26        1          -0.000002485   -0.000006492    0.000005819
     27        1          -0.000003210    0.000002342    0.000022784
     28        6          -0.000671682   -0.000059319   -0.000330790
     29        8           0.000144464    0.000016278    0.000072531
 -------------------------------------------------------------------
 Cartesian Forces:  Max     0.001043883 RMS     0.000243070
 FormGI is forming the generalized inverse of G from B-inverse, IUseBI=4.
 Leave Link  716 at Tue Oct  4 22:13:30 2022, MaxMem=  2952790016 cpu:               0.5 elap:               0.1
 (Enter /mnt/data/applications/G16/g16/l103.exe)

 GradGradGradGradGradGradGradGradGradGradGradGradGradGradGradGradGradGrad
 Berny optimization.
 Red2BG is reusing G-inverse.
 Internal  Forces:  Max     0.000685262 RMS     0.000126249
 Search for a saddle point.
 Step number   1 out of a maximum of  162
 All quantities printed in internal units (Hartrees-Bohrs-Radians)
 Swapping is turned off.
 Second derivative matrix not updated -- analytic derivatives used.
 ITU=  0
     Eigenvalues ---   -0.05007   0.00096   0.00136   0.00200   0.00207
     Eigenvalues ---    0.00260   0.00285   0.00321   0.01505   0.01837
     Eigenvalues ---    0.02039   0.02144   0.02264   0.02527   0.02974
     Eigenvalues ---    0.03476   0.03826   0.03950   0.03955   0.04020
     Eigenvalues ---    0.04057   0.04061   0.04118   0.04163   0.04402
     Eigenvalues ---    0.04527   0.04883   0.05396   0.05642   0.07290
     Eigenvalues ---    0.07458   0.07647   0.07838   0.08372   0.09349
     Eigenvalues ---    0.09489   0.10621   0.10702   0.11061   0.11096
     Eigenvalues ---    0.11210   0.11354   0.11871   0.12077   0.12227
     Eigenvalues ---    0.12326   0.13455   0.13533   0.13919   0.14387
     Eigenvalues ---    0.14440   0.14556   0.14708   0.15857   0.16027
     Eigenvalues ---    0.17184   0.18143   0.21476   0.22333   0.22455
     Eigenvalues ---    0.23556   0.25701   0.29972   0.31464   0.33411
     Eigenvalues ---    0.34041   0.34075   0.34111   0.34179   0.34192
     Eigenvalues ---    0.34332   0.34458   0.34520   0.34611   0.34807
     Eigenvalues ---    0.34850   0.34930   0.34941   0.81682   1.19070
     Eigenvalues ---    1.21564
 Eigenvectors required to have negative eigenvalues:
                          A1        A8        A3        D3        D4
   1                   -0.53081  -0.31603  -0.30138  -0.26904  -0.26779
                          D2        D1        R1        A7        A4
   1                    0.26421   0.26296   0.23024   0.21562   0.21530
 RFO step:  Lambda0=2.149853279D-06 Lambda=-2.77176037D-05.
 Linear search not attempted -- option 19 set.
 Iteration  1 RMS(Cart)=  0.00486953 RMS(Int)=  0.00000898
 Iteration  2 RMS(Cart)=  0.00001507 RMS(Int)=  0.00000171
 Iteration  3 RMS(Cart)=  0.00000000 RMS(Int)=  0.00000171
 ITry= 1 IFail=0 DXMaxC= 2.20D-02 DCOld= 1.00D+10 DXMaxT= 2.00D-02 DXLimC= 3.00D+00 Rises=F
 Variable       Old X    -DE/DX   Delta X   Delta X   Delta X     New X
                                 (Linear)    (Quad)   (Total)
    R1        3.09893   0.00030   0.00000   0.00355   0.00355   3.10247
    R2        3.09085   0.00036   0.00000   0.00416   0.00416   3.09501
    R3        3.93866   0.00065   0.00000   0.00642   0.00642   3.94508
    R4        3.68367   0.00009   0.00000  -0.00055  -0.00055   3.68312
    R5        4.50326  -0.00069   0.00000  -0.01019  -0.01019   4.49307
    R6        3.70738   0.00057   0.00000   0.00260   0.00260   3.70998
    R7        2.28429  -0.00021   0.00000  -0.00080  -0.00080   2.28348
    R8        2.88513  -0.00001   0.00000  -0.00031  -0.00031   2.88482
    R9        2.86832  -0.00000   0.00000   0.00001   0.00001   2.86833
   R10        2.06709   0.00000   0.00000  -0.00007  -0.00007   2.06702
   R11        2.06639   0.00000   0.00000  -0.00001  -0.00001   2.06638
   R12        2.06326  -0.00001   0.00000  -0.00003  -0.00003   2.06324
   R13        2.06179  -0.00001   0.00000  -0.00001  -0.00001   2.06178
   R14        2.06070  -0.00001   0.00000  -0.00003  -0.00003   2.06067
   R15        2.14443  -0.00014   0.00000   0.00001   0.00001   2.14444
   R16        3.43919  -0.00007   0.00000  -0.00004  -0.00004   3.43915
   R17        3.43793  -0.00003   0.00000   0.00005   0.00005   3.43798
   R18        3.43111  -0.00007   0.00000  -0.00017  -0.00017   3.43095
   R19        2.06180   0.00001   0.00000  -0.00000  -0.00000   2.06180
   R20        2.06184   0.00001   0.00000   0.00001   0.00001   2.06185
   R21        2.06357  -0.00001   0.00000  -0.00002  -0.00002   2.06355
   R22        2.06112   0.00000   0.00000   0.00002   0.00002   2.06114
   R23        2.06055  -0.00000   0.00000  -0.00001  -0.00001   2.06054
   R24        2.06369   0.00000   0.00000   0.00000   0.00000   2.06370
   R25        2.06202   0.00000   0.00000  -0.00001  -0.00001   2.06202
   R26        2.06378  -0.00001   0.00000  -0.00000  -0.00000   2.06378
   R27        2.06086   0.00001   0.00000  -0.00001  -0.00001   2.06085
   R28        2.14186  -0.00016   0.00000  -0.00017  -0.00017   2.14169
    A1        0.70684   0.00035   0.00000  -0.00133  -0.00133   0.70550
    A2        1.52225  -0.00014   0.00000  -0.00213  -0.00213   1.52012
    A3        2.62036  -0.00003   0.00000  -0.00790  -0.00790   2.61246
    A4        1.76999  -0.00024   0.00000  -0.00091  -0.00092   1.76908
    A5        1.56547   0.00006   0.00000   0.00133   0.00133   1.56680
    A6        1.52306  -0.00004   0.00000  -0.00126  -0.00126   1.52180
    A7        1.92014  -0.00035   0.00000  -0.00620  -0.00620   1.91394
    A8        2.46857   0.00012   0.00000  -0.00241  -0.00241   2.46616
    A9        1.58808   0.00002   0.00000   0.00164   0.00164   1.58972
   A10        1.50758  -0.00006   0.00000  -0.00166  -0.00165   1.50593
   A11        1.47250   0.00000   0.00000  -0.00167  -0.00167   1.47083
   A12        1.86626   0.00020   0.00000   0.00740   0.00740   1.87365
   A13        1.68893   0.00015   0.00000   0.00306   0.00306   1.69198
   A14        1.66409  -0.00004   0.00000   0.00020   0.00020   1.66428
   A15        2.14494  -0.00001   0.00000   0.00035   0.00035   2.14529
   A16        2.05492  -0.00005   0.00000  -0.00129  -0.00129   2.05363
   A17        2.08328   0.00006   0.00000   0.00095   0.00095   2.08423
   A18        2.00195   0.00003   0.00000  -0.00005  -0.00005   2.00190
   A19        1.86598  -0.00001   0.00000   0.00000   0.00000   1.86598
   A20        1.85874  -0.00000   0.00000  -0.00007  -0.00007   1.85867
   A21        1.94578  -0.00001   0.00000   0.00002   0.00002   1.94580
   A22        1.94391  -0.00001   0.00000  -0.00001  -0.00001   1.94390
   A23        1.83746   0.00001   0.00000   0.00012   0.00012   1.83758
   A24        1.92428  -0.00000   0.00000  -0.00016  -0.00016   1.92412
   A25        1.94492  -0.00000   0.00000  -0.00003  -0.00003   1.94490
   A26        1.94168   0.00001   0.00000   0.00015   0.00015   1.94183
   A27        1.88699   0.00000   0.00000  -0.00004  -0.00004   1.88695
   A28        1.88870  -0.00001   0.00000  -0.00010  -0.00010   1.88860
   A29        1.87512   0.00000   0.00000   0.00018   0.00018   1.87530
   A30        2.02973  -0.00004   0.00000  -0.00042  -0.00042   2.02931
   A31        2.02106   0.00004   0.00000   0.00116   0.00116   2.02223
   A32        1.99147  -0.00003   0.00000   0.00025   0.00025   1.99172
   A33        1.78843  -0.00000   0.00000  -0.00067  -0.00067   1.78776
   A34        1.80273   0.00004   0.00000  -0.00037  -0.00037   1.80236
   A35        1.79911  -0.00001   0.00000  -0.00013  -0.00014   1.79898
   A36        1.91252   0.00001   0.00000   0.00010   0.00010   1.91262
   A37        1.91103  -0.00000   0.00000   0.00010   0.00010   1.91113
   A38        1.94337  -0.00004   0.00000  -0.00033  -0.00033   1.94304
   A39        1.89051   0.00000   0.00000   0.00017   0.00017   1.89067
   A40        1.90105   0.00001   0.00000  -0.00003  -0.00003   1.90102
   A41        1.90456   0.00002   0.00000   0.00001   0.00001   1.90457
   A42        1.90924  -0.00001   0.00000  -0.00009  -0.00009   1.90915
   A43        1.91435  -0.00001   0.00000   0.00027   0.00027   1.91462
   A44        1.93920  -0.00000   0.00000  -0.00014  -0.00014   1.93906
   A45        1.89545   0.00000   0.00000  -0.00006  -0.00006   1.89539
   A46        1.90646   0.00001   0.00000   0.00010   0.00010   1.90655
   A47        1.89858   0.00001   0.00000  -0.00008  -0.00008   1.89850
   A48        1.90374   0.00002   0.00000  -0.00005  -0.00005   1.90369
   A49        1.95006  -0.00005   0.00000  -0.00023  -0.00023   1.94982
   A50        1.89518   0.00001   0.00000   0.00004   0.00004   1.89522
   A51        1.90806   0.00001   0.00000   0.00007   0.00007   1.90813
   A52        1.89008  -0.00001   0.00000   0.00003   0.00003   1.89010
   A53        1.91571   0.00001   0.00000   0.00015   0.00015   1.91587
   A54        3.08772  -0.00008   0.00000  -0.00080  -0.00080   3.08692
   A55        3.12358   0.00004   0.00000  -0.00068  -0.00068   3.12290
   A56        3.14511   0.00003   0.00000  -0.00022  -0.00022   3.14490
   A57        3.15776   0.00004   0.00000   0.00163   0.00163   3.15939
   A58        3.15492  -0.00038   0.00000  -0.00219  -0.00219   3.15273
   A59        3.12067   0.00008   0.00000   0.00057   0.00057   3.12125
    D1        2.93905  -0.00015   0.00000  -0.00133  -0.00133   2.93771
    D2       -0.19172  -0.00016   0.00000  -0.00265  -0.00265  -0.19437
    D3       -2.63644   0.00020   0.00000  -0.00261  -0.00261  -2.63905
    D4        0.51597   0.00020   0.00000  -0.00393  -0.00393   0.51205
    D5       -0.71194  -0.00014   0.00000  -0.00861  -0.00861  -0.72055
    D6        2.44048  -0.00015   0.00000  -0.00992  -0.00992   2.43055
    D7        1.16294   0.00007   0.00000  -0.00077  -0.00077   1.16218
    D8       -1.96783   0.00007   0.00000  -0.00208  -0.00208  -1.96991
    D9        1.41811   0.00007   0.00000   0.00550   0.00550   1.42362
   D10       -0.68363   0.00007   0.00000   0.00580   0.00580  -0.67783
   D11       -2.76843   0.00007   0.00000   0.00486   0.00486  -2.76357
   D12        1.55040   0.00006   0.00000   0.00644   0.00644   1.55684
   D13       -0.55134   0.00006   0.00000   0.00674   0.00674  -0.54461
   D14       -2.63614   0.00006   0.00000   0.00580   0.00580  -2.63034
   D15        2.91920  -0.00004   0.00000   0.00307   0.00307   2.92227
   D16        0.81745  -0.00004   0.00000   0.00337   0.00337   0.82082
   D17       -1.26735  -0.00004   0.00000   0.00243   0.00243  -1.26491
   D18       -1.88971  -0.00013   0.00000  -0.00016  -0.00016  -1.88988
   D19        2.29173  -0.00013   0.00000   0.00014   0.00013   2.29186
   D20        0.20693  -0.00013   0.00000  -0.00080  -0.00080   0.20613
   D21       -0.16612   0.00005   0.00000   0.00418   0.00419  -0.16193
   D22       -2.26786   0.00005   0.00000   0.00448   0.00449  -2.26338
   D23        1.93053   0.00004   0.00000   0.00355   0.00355   1.93408
   D24        3.10310  -0.00000   0.00000  -0.00069  -0.00069   3.10241
   D25        0.93641  -0.00000   0.00000  -0.00068  -0.00068   0.93573
   D26       -1.02128  -0.00000   0.00000  -0.00078  -0.00078  -1.02206
   D27       -0.02806  -0.00001   0.00000  -0.00195  -0.00196  -0.03002
   D28       -2.19476  -0.00000   0.00000  -0.00194  -0.00194  -2.19670
   D29        2.13074  -0.00001   0.00000  -0.00205  -0.00205   2.12870
   D30        3.13593   0.00000   0.00000   0.00056   0.00056   3.13649
   D31       -1.05177   0.00000   0.00000   0.00038   0.00038  -1.05139
   D32        1.04041   0.00001   0.00000   0.00070   0.00070   1.04111
   D33       -1.02351   0.00000   0.00000   0.00054   0.00054  -1.02297
   D34        1.07197  -0.00000   0.00000   0.00036   0.00036   1.07233
   D35       -3.11903   0.00000   0.00000   0.00068   0.00068  -3.11835
   D36        1.02325  -0.00000   0.00000   0.00069   0.00069   1.02394
   D37        3.11873  -0.00001   0.00000   0.00052   0.00052   3.11925
   D38       -1.07227   0.00000   0.00000   0.00083   0.00083  -1.07144
   D39        1.04112  -0.00002   0.00000   0.00008   0.00008   1.04120
   D40       -1.03008  -0.00002   0.00000  -0.00024  -0.00024  -1.03032
   D41       -3.13777  -0.00002   0.00000  -0.00011  -0.00011  -3.13787
   D42       -3.01970   0.00001   0.00000   0.00078   0.00078  -3.01892
   D43        1.19229   0.00000   0.00000   0.00046   0.00046   1.19275
   D44       -0.91540   0.00001   0.00000   0.00060   0.00060  -0.91481
   D45       -1.15425   0.00001   0.00000   0.00032   0.00032  -1.15393
   D46        3.05774   0.00001   0.00000  -0.00000  -0.00000   3.05774
   D47        0.95005   0.00001   0.00000   0.00013   0.00013   0.95018
   D48        1.01944  -0.00001   0.00000  -0.00013  -0.00013   1.01931
   D49       -1.05780  -0.00000   0.00000  -0.00016  -0.00016  -1.05797
   D50        3.12564  -0.00000   0.00000  -0.00015  -0.00015   3.12549
   D51       -1.20845   0.00002   0.00000   0.00018   0.00018  -1.20826
   D52        2.99750   0.00003   0.00000   0.00015   0.00015   2.99764
   D53        0.89776   0.00002   0.00000   0.00016   0.00016   0.89791
   D54       -3.07668  -0.00002   0.00000   0.00083   0.00083  -3.07586
   D55        1.12926  -0.00001   0.00000   0.00079   0.00079   1.13005
   D56       -0.97048  -0.00001   0.00000   0.00080   0.00080  -0.96968
   D57       -1.10932   0.00002   0.00000   0.00050   0.00050  -1.10882
   D58        3.06235   0.00002   0.00000   0.00060   0.00060   3.06295
   D59        0.94701   0.00003   0.00000   0.00053   0.00052   0.94753
   D60        1.11039  -0.00002   0.00000  -0.00015  -0.00015   1.11024
   D61       -1.00112  -0.00002   0.00000  -0.00005  -0.00005  -1.00117
   D62       -3.11646  -0.00001   0.00000  -0.00013  -0.00013  -3.11659
   D63        2.96775  -0.00001   0.00000  -0.00103  -0.00103   2.96672
   D64        0.85624  -0.00001   0.00000  -0.00092  -0.00092   0.85531
   D65       -1.25911  -0.00000   0.00000  -0.00100  -0.00100  -1.26011
         Item               Value     Threshold  Converged?
 Maximum Force            0.000685     0.000450     NO 
 RMS     Force            0.000126     0.000300     YES
 Maximum Displacement     0.022035     0.001800     NO 
 RMS     Displacement     0.004870     0.001200     NO 
 Predicted change in Energy=-1.279578D-05
 Lowest energy point so far.  Saving SCF results.
 GradGradGradGradGradGradGradGradGradGradGradGradGradGradGradGradGradGrad

 Leave Link  103 at Tue Oct  4 22:13:30 2022, MaxMem=  2952790016 cpu:               0.6 elap:               0.1
 (Enter /mnt/data/applications/G16/g16/l202.exe)
                          Input orientation:                          
 ---------------------------------------------------------------------
 Center     Atomic      Atomic             Coordinates (Angstroms)
 Number     Number       Type             X           Y           Z
 ---------------------------------------------------------------------
      1          1           0        0.139554   -0.628480   -1.938719
      2          1           0        0.302350   -1.685240   -1.563849
      3         45           0       -0.276206   -0.744161   -0.354694
      4          6           0        1.708512   -0.274504    0.090928
      5          8           0        2.081061    0.014218    1.203583
      6          6           0        2.715445   -0.290580   -1.056365
      7          6           0        4.126253    0.112508   -0.667757
      8          1           0        2.314916    0.358509   -1.840397
      9          1           0        2.690775   -1.299632   -1.476966
     10          1           0        4.784309    0.070845   -1.537982
     11          1           0        4.155295    1.127577   -0.268793
     12          1           0        4.530529   -0.551149    0.097240
     13          6           0       -0.280067   -1.750160    1.314627
     14          8           0       -0.258010   -2.334972    2.286870
     15         15           0       -0.687703    1.533581    0.189071
     16          6           0       -2.322070    2.188939   -0.270768
     17          6           0        0.444695    2.745211   -0.558918
     18          6           0       -0.573685    1.905186    1.962552
     19          1           0       -1.350357    1.352313    2.493369
     20          1           0       -0.690906    2.972867    2.160060
     21          1           0        0.396994    1.567024    2.326886
     22          1           0       -3.101415    1.611715    0.229069
     23          1           0       -2.462532    2.093775   -1.348583
     24          1           0       -2.422806    3.238908    0.011802
     25          1           0        0.404482    2.655801   -1.645210
     26          1           0        1.465310    2.545618   -0.231105
     27          1           0        0.176085    3.763967   -0.271546
     28          6           0       -2.125659   -1.144781   -0.877504
     29          8           0       -3.186975   -1.375407   -1.201333
 ---------------------------------------------------------------------
                    Distance matrix (angstroms):
                    1          2          3          4          5
     1  H    0.000000
     2  H    1.133037   0.000000
     3  Rh   1.641759   1.637807   0.000000
     4  C    2.589671   2.589547   2.087646   0.000000
     5  O    3.749209   3.702789   2.925760   1.208368   0.000000
     6  C    2.743709   2.832956   3.106132   1.526582   2.367004
     7  C    4.249492   4.319388   4.495947   2.563367   2.773875
     8  H    2.390818   2.881633   3.183882   2.120954   3.072302
     9  H    2.678132   2.420912   3.220407   2.115188   3.046850
    10  H    4.714170   4.813778   5.260535   3.497591   3.850576
    11  H    4.690263   4.943105   4.811339   2.842882   2.776672
    12  H    4.840638   4.682187   4.831791   2.835552   2.746549
    13  C    3.466772   2.937525   1.949021   2.762146   2.949625
    14  O    4.574470   3.945148   3.083646   3.596512   3.487615
    15  P    3.144256   3.796543   2.377628   3.003440   3.317190
    16  C    4.096279   4.854782   3.577105   4.737612   5.127445
    17  C    3.657697   4.545222   3.568910   3.337396   3.639014
    18  C    4.706175   5.108239   3.532303   3.669121   3.346561
    19  H    5.078068   5.330965   3.696007   4.216033   3.902393
    20  H    5.518999   6.045826   4.506913   4.536952   4.165603
    21  H    4.804362   5.071883   3.603560   3.179751   2.551294
    22  H    4.496850   5.066566   3.724613   5.168395   5.509967
    23  H    3.811795   4.687416   3.717757   5.007849   5.610913
    24  H    5.032585   5.844347   4.539499   5.423847   5.666020
    25  H    3.307996   4.343005   3.699799   3.647102   4.231370
    26  H    3.840374   4.585722   3.724353   2.848849   2.974132
    27  H    4.698338   5.601771   4.531522   4.334624   4.457079
    28  C    2.554199   2.580387   1.963238   4.049212   4.834325
    29  O    3.488184   3.521762   3.096424   5.181478   5.955407
                    6          7          8          9         10
     6  C    0.000000
     7  C    1.517853   0.000000
     8  H    1.093822   2.171761   0.000000
     9  H    1.093480   2.170151   1.738615   0.000000
    10  H    2.154712   1.091817   2.504418   2.502962   0.000000
    11  H    2.169011   1.091045   2.539370   3.081532   1.767252
    12  H    2.166387   1.090459   3.080724   2.534373   1.767832
    13  C    4.089630   5.178324   4.597238   4.101448   6.091088
    14  O    4.919166   5.825954   5.559597   4.892210   6.770704
    15  P    4.057104   5.091932   3.809889   4.713479   5.921590
    16  C    5.669369   6.786018   5.226457   6.225244   7.522818
    17  C    3.823583   4.527344   3.291848   4.716826   5.190670
    18  C    4.975302   5.676411   5.019825   5.723447   6.657826
    19  H    5.641848   6.443841   5.762239   6.255167   7.451717
    20  H    5.709527   6.275605   5.645661   6.551181   7.216317
    21  H    4.502477   4.999088   4.743963   5.286628   6.035254
    22  H    6.253553   7.435799   5.932104   6.703429   8.226871
    23  H    5.708063   6.913829   5.106568   6.171569   7.526276
    24  H    6.324547   7.288783   5.845798   6.997392   8.023775
    25  H    3.790574   4.612519   2.994229   4.571749   5.086883
    26  H    3.207478   3.631984   2.845189   4.223729   4.341450
    27  H    4.848055   5.393882   4.316600   5.780721   6.039763
    28  C    4.919140   6.380531   4.785995   4.856066   7.047102
    29  O    6.003034   7.482105   5.803935   5.884697   8.108412
                   11         12         13         14         15
    11  H    0.000000
    12  H    1.758665   0.000000
    13  C    5.519151   5.105046   0.000000
    14  O    6.164245   5.559371   1.134790   0.000000
    15  P    4.881507   5.620007   3.495139   4.421662   0.000000
    16  C    6.563746   7.389292   4.711662   5.591747   1.819919
    17  C    4.058260   5.290612   4.923800   5.865199   1.819302
    18  C    5.286476   5.963722   3.723919   4.264244   1.815578
    19  H    6.163786   6.629436   3.487160   3.851225   2.404528
    20  H    5.726263   6.628522   4.815654   5.326973   2.440564
    21  H    4.588627   5.152096   3.533665   3.956793   2.397486
    22  H    7.289863   7.933596   4.521133   5.281652   2.415308
    23  H    6.774594   7.615047   5.160589   6.139237   2.414170
    24  H    6.914324   7.919641   5.583859   6.397689   2.439293
    25  H    4.277685   5.508623   5.351798   6.388111   2.411811
    26  H    3.041099   4.369594   4.887672   5.755883   2.415830
    27  H    4.773329   6.141450   5.755833   6.628045   2.435758
    28  C    6.707051   6.753323   2.928845   3.862374   3.221633
    29  O    7.813033   7.869280   3.862720   4.654800   4.079435
                   16         17         18         19         20
    16  C    0.000000
    17  C    2.836804   0.000000
    18  C    2.850453   2.846146   0.000000
    19  H    3.047068   3.805106   1.091172   0.000000
    20  H    3.030539   2.955377   1.092104   1.781058   0.000000
    21  H    3.811548   3.117413   1.090555   1.768347   1.785427
    22  H    1.091056   3.805342   3.079043   2.874117   3.375206
    23  H    1.091087   3.082192   3.816664   4.067836   4.027659
    24  H    1.091984   2.965134   3.000581   3.296599   2.772232
    25  H    3.088874   1.090707   3.812634   4.680425   3.972466
    26  H    3.804346   1.090392   3.062643   4.095695   3.247996
    27  H    2.953217   1.092061   3.001401   3.973771   2.700040
    28  C    3.394171   4.673356   4.447116   4.266070   5.314164
    29  O    3.783989   5.530028   5.253736   4.946154   6.036291
                   21         22         23         24         25
    21  H    0.000000
    22  H    4.079424   0.000000
    23  H    4.686515   1.769050   0.000000
    24  H    4.013238   1.776365   1.778639   0.000000
    25  H    4.118621   4.110274   2.936603   3.328552   0.000000
    26  H    2.939772   4.683900   4.108633   3.956906   1.771211
    27  H    3.409869   3.952823   3.303309   2.666497   1.779648
    28  C    4.897528   3.126480   3.289930   4.482844   4.629839
    29  O    5.826754   3.313045   3.547072   4.831931   5.417216
                   26         27         28         29
    26  H    0.000000
    27  H    1.774291   0.000000
    28  C    5.189599   5.455366   0.000000
    29  O    6.161131   6.211911   1.133333   0.000000
 Stoichiometry    C8H16O3PRh
 Framework group  C1[X(C8H16O3PRh)]
 Deg. of freedom    81
 Full point group                 C1      NOp   1
 RotChk:  IX=0 Diff= 4.41D-03
 Largest Abelian subgroup         C1      NOp   1
 Largest concise Abelian subgroup C1      NOp   1
                         Standard orientation:                         
 ---------------------------------------------------------------------
 Center     Atomic      Atomic             Coordinates (Angstroms)
 Number     Number       Type             X           Y           Z
 ---------------------------------------------------------------------
      1          1           0        0.135894   -0.625198   -1.940347
      2          1           0        0.299041   -1.682802   -1.568018
      3         45           0       -0.276279   -0.743926   -0.355611
      4          6           0        1.709686   -0.276133    0.086406
      5          8           0        2.084931    0.010131    1.198790
      6          6           0        2.713970   -0.290340   -1.063231
      7          6           0        4.125863    0.111276   -0.677044
      8          1           0        2.311953    0.360546   -1.845009
      9          1           0        2.687845   -1.298516   -1.485840
     10          1           0        4.781896    0.071082   -1.548864
     11          1           0        4.156312    1.125511   -0.276071
     12          1           0        4.531576   -0.554141    0.085660
     13          6           0       -0.276788   -1.753341    1.311652
     14          8           0       -0.252778   -2.340155    2.282641
     15         15           0       -0.685424    1.532893    0.193763
     16          6           0       -2.320527    2.189975   -0.260973
     17          6           0        0.445836    2.745512   -0.554346
     18          6           0       -0.567149    1.900810    1.967734
     19          1           0       -1.342865    1.347222    2.499203
     20          1           0       -0.683399    2.968140    2.167697
     21          1           0        0.404202    1.561438    2.329141
     22          1           0       -3.099000    1.612101    0.239472
     23          1           0       -2.463513    2.097086   -1.338654
     24          1           0       -2.420106    3.239411    0.023978
     25          1           0        0.403083    2.658347   -1.640723
     26          1           0        1.467107    2.544760   -0.229291
     27          1           0        0.178381    3.763805   -0.264271
     28          6           0       -2.127123   -1.142589   -0.874984
     29          8           0       -3.189291   -1.372043   -1.196843
 ---------------------------------------------------------------------
 Rotational constants (GHZ):           0.6063498           0.4640859           0.3698713
 Leave Link  202 at Tue Oct  4 22:13:30 2022, MaxMem=  2952790016 cpu:               0.1 elap:               0.0
 (Enter /mnt/data/applications/G16/g16/l301.exe)
 Basis read from rwf:  (5D, 7F)
 Pseudo-potential data read from rwf file.
 There are   573 symmetry adapted cartesian basis functions of A   symmetry.
 There are   510 symmetry adapted basis functions of A   symmetry.
   510 basis functions,   823 primitive gaussians,   573 cartesian basis functions
    60 alpha electrons       60 beta electrons
       nuclear repulsion energy      1121.3768997854 Hartrees.
 IExCor= 4639 DFT=T Ex+Corr=wB97XD ExCW=0 ScaHFX=  1.000000
 ScaDFX=  1.000000  1.000000  1.000000  1.000000 ScalE2=  1.000000  1.000000
 IRadAn=      5 IRanWt=     -1 IRanGd=            0 ICorTp=0 IEmpDi=121
 HFx  wShort=  0.000000 wLong=  0.200000 cFull=  0.222036 cShort=  0.000000 cLong=  0.777964
 DFx  wShort=  0.000000 wLong=  0.200000 cFull=  0.000000 cShort=  0.000000 cLong=  1.000000
 NAtoms=   29 NActive=   29 NUniq=   29 SFac= 1.00D+00 NAtFMM=   60 NAOKFM=F Big=F
 Integral buffers will be    131072 words long.
 Raffenetti 2 integral format.
 Two-electron integral symmetry is turned on.
 R6Disp:  Grimme-D2 Dispersion energy=       -0.0251175354 Hartrees.
 Nuclear repulsion after empirical dispersion term =     1121.3517822500 Hartrees.
 No density basis found on file   724.
 ------------------------------------------------------------------------------
 Polarizable Continuum Model (PCM)
 =================================
 Model                : PCM.
 Atomic radii         : SMD-Coulomb.
 Polarization charges : Total charges.
 Charge compensation  : None.
 Solution method      : Matrix inversion.
 Cavity type          : VdW (van der Waals Surface) (Alpha=1.000).
 Cavity algorithm     : GePol (No added spheres)
                        Default sphere list used, NSphG=   29.
                        Lebedev-Laikov grids with approx.  5.0 points / Ang**2.
                        Smoothing algorithm: York/Karplus (Gamma=1.0000).
                        Polarization charges: spherical gaussians, with
                                              point-specific exponents (IZeta= 3).
                        Self-potential: point-specific (ISelfS= 7).
                        Self-field    : sphere-specific E.n sum rule (ISelfD= 2).
 1st derivatives      : Analytical E(r).r(x)/FMM algorithm (CHGder, D1EAlg=3).
                        Cavity 1st derivative terms included.
 Solvent              : Toluene, Eps=   2.374100 Eps(inf)=   2.238315
 ------------------------------------------------------------------------------
 GePol: Number of generator spheres                  =      29
 GePol: Total number of spheres                      =      29
 GePol: Number of exposed spheres                    =      29 (100.00%)
 GePol: Number of points                             =    2530
 GePol: Average weight of points                     =       0.12
 GePol: Minimum weight of points                     =   0.18D-09
 GePol: Maximum weight of points                     =    0.20359
 GePol: Number of points with low weight             =     128
 GePol: Fraction of low-weight points (<1% of avg)   =       5.06%
 GePol: Cavity surface area                          =    307.005 Ang**2
 GePol: Cavity volume                                =    291.726 Ang**3
 ------------------------------------------------------------------------------
 Atomic radii for non-electrostatic terms: SMD-CDS.
 ------------------------------------------------------------------------------
 PCM non-electrostatic energy =        -0.0003950303 Hartrees.
 Nuclear repulsion after PCM non-electrostatic terms =     1121.3513872197 Hartrees.
 Leave Link  301 at Tue Oct  4 22:13:30 2022, MaxMem=  2952790016 cpu:               1.9 elap:               0.2
 (Enter /mnt/data/applications/G16/g16/l302.exe)
 NPDir=0 NMtPBC=     1 NCelOv=     1 NCel=       1 NClECP=     1 NCelD=      1
         NCelK=      1 NCelE2=     1 NClLst=     1 CellRange=     0.0.
 One-electron integrals computed using PRISM.
 One-electron integral symmetry used in STVInt
   1 Symmetry operations used in ECPInt.
 ECPInt:  NShTT=   22578 NPrTT=   66767 LenC2=   21054 LenP2D=   46543.
 LDataN:  DoStor=T MaxTD1= 7 Len=  274
 NBasis=   510 RedAO= T EigKep=  1.37D-04  NBF=   510
 NBsUse=   510 1.00D-06 EigRej= -1.00D+00 NBFU=   510
 Precomputing XC quadrature grid using
 IXCGrd= 4 IRadAn=           5 IRanWt=          -1 IRanGd=           0 AccXCQ= 0.00D+00.
 Defaulting to unpruned grid for atomic number  45.
 Generated NRdTot=       0 NPtTot=           0 NUsed=           0 NTot=          32
 NSgBfM=   568   568   568   568   568 MxSgAt=    29 MxSgA2=    29.
 Leave Link  302 at Tue Oct  4 22:13:32 2022, MaxMem=  2952790016 cpu:              19.7 elap:               1.7
 (Enter /mnt/data/applications/G16/g16/l303.exe)
 DipDrv:  MaxL=1.
 Leave Link  303 at Tue Oct  4 22:13:32 2022, MaxMem=  2952790016 cpu:               1.2 elap:               0.1
 (Enter /mnt/data/applications/G16/g16/l401.exe)
 Initial guess from the checkpoint file:  "TS3.chk"
 B after Tr=    -0.000000    0.000000    0.000000
         Rot=    0.999998   -0.001440   -0.001137    0.000343 Ang=  -0.21 deg.
 Guess basis will be translated and rotated to current coordinates.
 JPrj=2 DoOrth=T DoCkMO=T.
 Generating alternative initial guess.
 ExpMin= 1.60D-02 ExpMax= 5.24D+04 ExpMxC= 1.79D+03 IAcc=3 IRadAn=         5 AccDes= 0.00D+00
 Harris functional with IExCor= 4639 and IRadAn=       5 diagonalized for initial guess.
 HarFok:  IExCor= 4639 AccDes= 0.00D+00 IRadAn=         5 IDoV= 1 UseB2=F ITyADJ=14
 ICtDFT=  3500011 ScaDFX=  1.000000  1.000000  1.000000  1.000000
 Defaulting to unpruned grid for atomic number  45.
 FoFCou: FMM=F IPFlag=           0 FMFlag=      100000 FMFlg1=           0
         NFxFlg=           0 DoJE=T BraDBF=F KetDBF=T FulRan=T
         wScrn=  0.000000 ICntrl=       500 IOpCl=  0 I1Cent=   200000004 NGrid=           0
         NMat0=    1 NMatS0=      1 NMatT0=    0 NMatD0=    1 NMtDS0=    0 NMtDT0=    0
 Petite list used in FoFCou.
 Harris En= -959.571484928640    
 Leave Link  401 at Tue Oct  4 22:13:42 2022, MaxMem=  2952790016 cpu:             118.8 elap:              10.0
 (Enter /mnt/data/applications/G16/g16/l502.exe)
 Integral symmetry usage will be decided dynamically.
 Closed shell SCF:
 Using DIIS extrapolation, IDIIS=  1040.
 NGot=  2952790016 LenX=  2952121135 LenY=  2951792233
 Requested convergence on RMS density matrix=1.00D-08 within 128 cycles.
 Requested convergence on MAX density matrix=1.00D-06.
 Requested convergence on             energy=1.00D-06.
 No special actions if energy rises.
 Fock matrices will be formed incrementally for  20 cycles.

 Cycle   1  Pass 1  IDiag  1:
 FoFJK:  IHMeth= 1 ICntrl=       0 DoSepK=T KAlg= 0 I1Cent=           0 FoldK=F
 IRaf=         1 NMat=       1 IRICut=       1 DoRegI=T DoRafI=F ISym2E= 0 IDoP0=0 IntGTp=1.
 FoFCou: FMM=F IPFlag=           0 FMFlag=      100000 FMFlg1=           0
         NFxFlg=           0 DoJE=T BraDBF=F KetDBF=F FulRan=T
         wScrn=  0.000000 ICntrl=       500 IOpCl=  0 I1Cent=           0 NGrid=           0
         NMat0=    1 NMatS0=      1 NMatT0=    0 NMatD0=    1 NMtDS0=    0 NMtDT0=    0
 Symmetry not used in FoFCou.
 Defaulting to unpruned grid for atomic number  45.
 Defaulting to unpruned grid for atomic number  45.
 Defaulting to unpruned grid for atomic number  45.
 Defaulting to unpruned grid for atomic number  45.
 Defaulting to unpruned grid for atomic number  45.
 Defaulting to unpruned grid for atomic number  45.
 Defaulting to unpruned grid for atomic number  45.
 Defaulting to unpruned grid for atomic number  45.
 Defaulting to unpruned grid for atomic number  45.
 Defaulting to unpruned grid for atomic number  45.
 Defaulting to unpruned grid for atomic number  45.
 Defaulting to unpruned grid for atomic number  45.
 Inv3:  Mode=1 IEnd=    19202700.
 Iteration    1 A*A^-1 deviation from unit magnitude is 2.22D-15 for    753.
 Iteration    1 A*A^-1 deviation from orthogonality  is 1.44D-15 for   1099     94.
 Iteration    1 A^-1*A deviation from unit magnitude is 2.44D-15 for    753.
 Iteration    1 A^-1*A deviation from orthogonality  is 1.41D-15 for   1572   1014.
 E= -992.211105337169    
 DIIS: error= 2.03D-04 at cycle   1 NSaved=   1.
 NSaved= 1 IEnMin= 1 EnMin= -992.211105337169     IErMin= 1 ErrMin= 2.03D-04
 ErrMax= 2.03D-04  0.00D+00 EMaxC= 1.00D-01 BMatC= 9.28D-05 BMatP= 9.28D-05
 IDIUse=3 WtCom= 9.98D-01 WtEn= 2.03D-03
 Coeff-Com:  0.100D+01
 Coeff-En:   0.100D+01
 Coeff:      0.100D+01
 Gap=     1.189 Goal=   None    Shift=    0.000
 RMSDP=1.81D-05 MaxDP=8.09D-04              OVMax= 1.67D-03

 Cycle   2  Pass 1  IDiag  1:
 RMSU=  1.81D-05    CP:  1.00D+00
 E= -992.211162195981     Delta-E=       -0.000056858812 Rises=F Damp=F
 DIIS: error= 2.80D-05 at cycle   2 NSaved=   2.
 NSaved= 2 IEnMin= 2 EnMin= -992.211162195981     IErMin= 2 ErrMin= 2.80D-05
 ErrMax= 2.80D-05  0.00D+00 EMaxC= 1.00D-01 BMatC= 1.90D-06 BMatP= 9.28D-05
 IDIUse=1 WtCom= 1.00D+00 WtEn= 0.00D+00
 Coeff-Com: -0.379D-01 0.104D+01
 Coeff:     -0.379D-01 0.104D+01
 Gap=     0.328 Goal=   None    Shift=    0.000
 RMSDP=6.89D-06 MaxDP=4.09D-04 DE=-5.69D-05 OVMax= 7.74D-04

 Cycle   3  Pass 1  IDiag  1:
 RMSU=  6.38D-06    CP:  1.00D+00  1.14D+00
 E= -992.211165974970     Delta-E=       -0.000003778990 Rises=F Damp=F
 DIIS: error= 4.59D-05 at cycle   3 NSaved=   3.
 NSaved= 3 IEnMin= 3 EnMin= -992.211165974970     IErMin= 2 ErrMin= 2.80D-05
 ErrMax= 4.59D-05  0.00D+00 EMaxC= 1.00D-01 BMatC= 1.10D-06 BMatP= 1.90D-06
 IDIUse=1 WtCom= 1.00D+00 WtEn= 0.00D+00
 Coeff-Com: -0.288D-01 0.430D+00 0.598D+00
 Coeff:     -0.288D-01 0.430D+00 0.598D+00
 Gap=     0.328 Goal=   None    Shift=    0.000
 RMSDP=2.43D-06 MaxDP=1.54D-04 DE=-3.78D-06 OVMax= 2.69D-04

 Cycle   4  Pass 1  IDiag  1:
 RMSU=  2.14D-06    CP:  1.00D+00  1.19D+00  8.84D-01
 E= -992.211166788031     Delta-E=       -0.000000813061 Rises=F Damp=F
 DIIS: error= 2.17D-05 at cycle   4 NSaved=   4.
 NSaved= 4 IEnMin= 4 EnMin= -992.211166788031     IErMin= 4 ErrMin= 2.17D-05
 ErrMax= 2.17D-05  0.00D+00 EMaxC= 1.00D-01 BMatC= 3.79D-07 BMatP= 1.10D-06
 IDIUse=1 WtCom= 1.00D+00 WtEn= 0.00D+00
 Coeff-Com: -0.522D-02-0.476D-01 0.355D+00 0.698D+00
 Coeff:     -0.522D-02-0.476D-01 0.355D+00 0.698D+00
 Gap=     0.328 Goal=   None    Shift=    0.000
 RMSDP=1.57D-06 MaxDP=2.26D-04 DE=-8.13D-07 OVMax= 2.53D-04

 Cycle   5  Pass 1  IDiag  1:
 RMSU=  1.42D-06    CP:  1.00D+00  1.22D+00  9.35D-01  1.06D+00
 E= -992.211167068218     Delta-E=       -0.000000280187 Rises=F Damp=F
 DIIS: error= 1.42D-05 at cycle   5 NSaved=   5.
 NSaved= 5 IEnMin= 5 EnMin= -992.211167068218     IErMin= 5 ErrMin= 1.42D-05
 ErrMax= 1.42D-05  0.00D+00 EMaxC= 1.00D-01 BMatC= 1.71D-07 BMatP= 3.79D-07
 IDIUse=1 WtCom= 1.00D+00 WtEn= 0.00D+00
 Coeff-Com:  0.972D-03-0.109D+00 0.159D+00 0.508D+00 0.441D+00
 Coeff:      0.972D-03-0.109D+00 0.159D+00 0.508D+00 0.441D+00
 Gap=     0.328 Goal=   None    Shift=    0.000
 RMSDP=8.93D-07 MaxDP=1.07D-04 DE=-2.80D-07 OVMax= 1.02D-04

 Cycle   6  Pass 1  IDiag  1:
 RMSU=  5.37D-07    CP:  1.00D+00  1.23D+00  1.01D+00  1.21D+00  7.21D-01
 E= -992.211167207567     Delta-E=       -0.000000139350 Rises=F Damp=F
 DIIS: error= 3.60D-06 at cycle   6 NSaved=   6.
 NSaved= 6 IEnMin= 6 EnMin= -992.211167207567     IErMin= 6 ErrMin= 3.60D-06
 ErrMax= 3.60D-06  0.00D+00 EMaxC= 1.00D-01 BMatC= 1.61D-08 BMatP= 1.71D-07
 IDIUse=1 WtCom= 1.00D+00 WtEn= 0.00D+00
 Coeff-Com:  0.172D-02-0.574D-01 0.195D-01 0.154D+00 0.265D+00 0.617D+00
 Coeff:      0.172D-02-0.574D-01 0.195D-01 0.154D+00 0.265D+00 0.617D+00
 Gap=     0.328 Goal=   None    Shift=    0.000
 RMSDP=3.99D-07 MaxDP=4.81D-05 DE=-1.39D-07 OVMax= 6.36D-05

 Cycle   7  Pass 1  IDiag  1:
 RMSU=  2.12D-07    CP:  1.00D+00  1.23D+00  1.05D+00  1.28D+00  8.19D-01
                    CP:  8.99D-01
 E= -992.211167227364     Delta-E=       -0.000000019797 Rises=F Damp=F
 DIIS: error= 9.11D-07 at cycle   7 NSaved=   7.
 NSaved= 7 IEnMin= 7 EnMin= -992.211167227364     IErMin= 7 ErrMin= 9.11D-07
 ErrMax= 9.11D-07  0.00D+00 EMaxC= 1.00D-01 BMatC= 9.79D-10 BMatP= 1.61D-08
 IDIUse=1 WtCom= 1.00D+00 WtEn= 0.00D+00
 Coeff-Com:  0.228D-03 0.897D-02-0.281D-01-0.692D-01-0.322D-01 0.120D+00
 Coeff-Com:  0.100D+01
 Coeff:      0.228D-03 0.897D-02-0.281D-01-0.692D-01-0.322D-01 0.120D+00
 Coeff:      0.100D+01
 Gap=     0.328 Goal=   None    Shift=    0.000
 RMSDP=2.29D-07 MaxDP=2.32D-05 DE=-1.98D-08 OVMax= 4.34D-05

 Cycle   8  Pass 1  IDiag  1:
 RMSU=  7.26D-08    CP:  1.00D+00  1.23D+00  1.06D+00  1.34D+00  8.93D-01
                    CP:  1.10D+00  1.31D+00
 E= -992.211167231261     Delta-E=       -0.000000003897 Rises=F Damp=F
 DIIS: error= 2.74D-07 at cycle   8 NSaved=   8.
 NSaved= 8 IEnMin= 8 EnMin= -992.211167231261     IErMin= 8 ErrMin= 2.74D-07
 ErrMax= 2.74D-07  0.00D+00 EMaxC= 1.00D-01 BMatC= 1.18D-10 BMatP= 9.79D-10
 IDIUse=1 WtCom= 1.00D+00 WtEn= 0.00D+00
 Coeff-Com: -0.192D-03 0.105D-01-0.893D-02-0.361D-01-0.438D-01-0.549D-01
 Coeff-Com:  0.198D+00 0.936D+00
 Coeff:     -0.192D-03 0.105D-01-0.893D-02-0.361D-01-0.438D-01-0.549D-01
 Coeff:      0.198D+00 0.936D+00
 Gap=     0.328 Goal=   None    Shift=    0.000
 RMSDP=8.35D-08 MaxDP=9.46D-06 DE=-3.90D-09 OVMax= 1.61D-05

 Cycle   9  Pass 1  IDiag  1:
 RMSU=  3.01D-08    CP:  1.00D+00  1.23D+00  1.06D+00  1.35D+00  9.16D-01
                    CP:  1.17D+00  1.50D+00  1.27D+00
 E= -992.211167231824     Delta-E=       -0.000000000563 Rises=F Damp=F
 DIIS: error= 1.16D-07 at cycle   9 NSaved=   9.
 NSaved= 9 IEnMin= 9 EnMin= -992.211167231824     IErMin= 9 ErrMin= 1.16D-07
 ErrMax= 1.16D-07  0.00D+00 EMaxC= 1.00D-01 BMatC= 1.55D-11 BMatP= 1.18D-10
 IDIUse=1 WtCom= 1.00D+00 WtEn= 0.00D+00
 Coeff-Com: -0.341D-04-0.643D-03 0.326D-02 0.707D-02 0.210D-02-0.171D-01
 Coeff-Com: -0.119D+00 0.481D-01 0.108D+01
 Coeff:     -0.341D-04-0.643D-03 0.326D-02 0.707D-02 0.210D-02-0.171D-01
 Coeff:     -0.119D+00 0.481D-01 0.108D+01
 Gap=     0.328 Goal=   None    Shift=    0.000
 RMSDP=3.07D-08 MaxDP=3.70D-06 DE=-5.63D-10 OVMax= 7.16D-06

 Cycle  10  Pass 1  IDiag  1:
 RMSU=  1.11D-08    CP:  1.00D+00  1.23D+00  1.06D+00  1.36D+00  9.20D-01
                    CP:  1.19D+00  1.56D+00  1.51D+00  1.45D+00
 E= -992.211167231920     Delta-E=       -0.000000000095 Rises=F Damp=F
 DIIS: error= 7.87D-08 at cycle  10 NSaved=  10.
 NSaved=10 IEnMin=10 EnMin= -992.211167231920     IErMin=10 ErrMin= 7.87D-08
 ErrMax= 7.87D-08  0.00D+00 EMaxC= 1.00D-01 BMatC= 7.39D-12 BMatP= 1.55D-11
 IDIUse=1 WtCom= 1.00D+00 WtEn= 0.00D+00
 Coeff-Com:  0.100D-04-0.195D-02 0.303D-02 0.900D-02 0.766D-02-0.735D-03
 Coeff-Com: -0.900D-01-0.123D+00 0.554D+00 0.642D+00
 Coeff:      0.100D-04-0.195D-02 0.303D-02 0.900D-02 0.766D-02-0.735D-03
 Coeff:     -0.900D-01-0.123D+00 0.554D+00 0.642D+00
 Gap=     0.328 Goal=   None    Shift=    0.000
 RMSDP=9.56D-09 MaxDP=6.95D-07 DE=-9.50D-11 OVMax= 2.50D-06

 Error on total polarization charges =  0.03087
 SCF Done:  E(RwB97XD) =  -992.211167232     A.U. after   10 cycles
            NFock= 10  Conv=0.96D-08     -V/T= 2.0799
 KE= 9.188070029852D+02 PE=-4.549660211385D+03 EE= 1.517290653948D+03
 SMD-CDS (non-electrostatic) energy       (kcal/mol) =      -0.25
 (included in total energy above)
 Leave Link  502 at Tue Oct  4 22:25:00 2022, MaxMem=  2952790016 cpu:            8074.6 elap:             677.9
 (Enter /mnt/data/applications/G16/g16/l701.exe)
 ... and contract with generalized density number  0.
 Compute integral first derivatives.
 R6Disp: Adding Grimme-D2 dispersion energy 1st derivatives to the gradient.
   1 Symmetry operations used in ECPInt.
 ECPInt:  NShTT=   22578 NPrTT=   66767 LenC2=   21054 LenP2D=   46543.
 LDataN:  DoStor=T MaxTD1= 8 Len=  415
 D1PCM: PCM CHGder 1st derivatives, ID1Alg=3 FixD1E=F DoIter=F DoCFld=F I1PDM=0.
 GePol: Maximum number of non-zero 1st derivatives   =     415
 Leave Link  701 at Tue Oct  4 22:25:11 2022, MaxMem=  2952790016 cpu:             137.4 elap:              11.5
 (Enter /mnt/data/applications/G16/g16/l702.exe)
 L702 exits ... SP integral derivatives will be done elsewhere.
 Leave Link  702 at Tue Oct  4 22:25:12 2022, MaxMem=  2952790016 cpu:               0.2 elap:               0.0
 (Enter /mnt/data/applications/G16/g16/l703.exe)
 Integral derivatives from FoFJK, PRISM(SPDF).
 Compute integral first derivatives, UseDBF=F ICtDFT=           0.
 Calling FoFJK, ICntrl=      2127 FMM=F ISym2X=0 I1Cent= 0 IOpClX= 0 NMat=1 NMatS=1 NMatT=0.
 FoFJK:  IHMeth= 1 ICntrl=    2127 DoSepK=T KAlg= 0 I1Cent=           0 FoldK=F
 IRaf=         1 NMat=       1 IRICut=       1 DoRegI=T DoRafI=F ISym2E= 0 IDoP0=0 IntGTp=1.
 FoFCou: FMM=F IPFlag=           0 FMFlag=      100000 FMFlg1=         800
         NFxFlg=           0 DoJE=F BraDBF=F KetDBF=F FulRan=T
         wScrn=  0.000000 ICntrl=      2527 IOpCl=  0 I1Cent=           0 NGrid=           0
         NMat0=    1 NMatS0=      1 NMatT0=    0 NMatD0=    1 NMtDS0=    0 NMtDT0=    0
 Symmetry not used in FoFCou.
 Defaulting to unpruned grid for atomic number  45.
 Defaulting to unpruned grid for atomic number  45.
 Defaulting to unpruned grid for atomic number  45.
 Defaulting to unpruned grid for atomic number  45.
 Defaulting to unpruned grid for atomic number  45.
 Defaulting to unpruned grid for atomic number  45.
 Defaulting to unpruned grid for atomic number  45.
 Defaulting to unpruned grid for atomic number  45.
 Defaulting to unpruned grid for atomic number  45.
 Defaulting to unpruned grid for atomic number  45.
 Defaulting to unpruned grid for atomic number  45.
 Defaulting to unpruned grid for atomic number  45.
 Leave Link  703 at Tue Oct  4 22:29:50 2022, MaxMem=  2952790016 cpu:            3328.1 elap:             278.1
 (Enter /mnt/data/applications/G16/g16/l716.exe)
 Dipole        =-8.31428466D-01 1.71772462D+00-7.02855380D-01
 ***** Axes restored to original set *****
 -------------------------------------------------------------------
 Center     Atomic                   Forces (Hartrees/Bohr)
 Number     Number              X              Y              Z
 -------------------------------------------------------------------
      1        1           0.000000616    0.000007277   -0.000007944
      2        1           0.000002523    0.000003274   -0.000000912
      3       45          -0.000006573   -0.000000289   -0.000041921
      4        6           0.000000999   -0.000005631   -0.000011462
      5        8           0.000000426   -0.000008747   -0.000003287
      6        6           0.000002432    0.000004854   -0.000006747
      7        6           0.000001768    0.000004923   -0.000001591
      8        1           0.000000369    0.000009749   -0.000001190
      9        1           0.000001188    0.000007508   -0.000008813
     10        1           0.000000445    0.000009574   -0.000003473
     11        1           0.000000634    0.000002830    0.000001789
     12        1           0.000001137    0.000002513   -0.000006948
     13        6          -0.000004589    0.000006680    0.000003794
     14        8           0.000002000   -0.000009605   -0.000012274
     15       15           0.000002756   -0.000009824    0.000014331
     16        6          -0.000001183    0.000002274    0.000010859
     17        6          -0.000002421    0.000002971    0.000013560
     18        6           0.000000280   -0.000009473    0.000003667
     19        1          -0.000000558   -0.000013078    0.000002817
     20        1          -0.000001889   -0.000009619    0.000007871
     21        1          -0.000004843   -0.000004691    0.000009991
     22        1          -0.000002682   -0.000001343    0.000003734
     23        1          -0.000001440    0.000002501    0.000005945
     24        1          -0.000001423   -0.000002192    0.000013948
     25        1          -0.000001155    0.000007255    0.000008280
     26        1          -0.000000666    0.000001995    0.000008301
     27        1          -0.000002912    0.000002215    0.000014194
     28        6           0.000013996   -0.000003378   -0.000006764
     29        8           0.000000764   -0.000000523   -0.000009756
 -------------------------------------------------------------------
 Cartesian Forces:  Max     0.000041921 RMS     0.000007782
 Leave Link  716 at Tue Oct  4 22:29:50 2022, MaxMem=  2952790016 cpu:               0.3 elap:               0.0
 (Enter /mnt/data/applications/G16/g16/l103.exe)

 GradGradGradGradGradGradGradGradGradGradGradGradGradGradGradGradGradGrad
 Berny optimization.
 FormGI is forming the generalized inverse of G from B-inverse, IUseBI=4.
 Internal  Forces:  Max     0.000029167 RMS     0.000006026
 Search for a saddle point.
 Step number   2 out of a maximum of  162
 All quantities printed in internal units (Hartrees-Bohrs-Radians)
 Swapping is turned off.
 Update second derivatives using D2CorX and points    1    2
 ITU=  0  0
     Eigenvalues ---   -0.04985   0.00095   0.00130   0.00198   0.00206
     Eigenvalues ---    0.00260   0.00285   0.00323   0.01488   0.01867
     Eigenvalues ---    0.02039   0.02141   0.02269   0.02583   0.03015
     Eigenvalues ---    0.03476   0.03826   0.03948   0.03955   0.04020
     Eigenvalues ---    0.04057   0.04060   0.04118   0.04162   0.04402
     Eigenvalues ---    0.04527   0.04877   0.05396   0.05641   0.07309
     Eigenvalues ---    0.07457   0.07658   0.07845   0.08397   0.09349
     Eigenvalues ---    0.09489   0.10621   0.10703   0.11061   0.11096
     Eigenvalues ---    0.11210   0.11354   0.11869   0.12077   0.12227
     Eigenvalues ---    0.12326   0.13457   0.13552   0.13921   0.14387
     Eigenvalues ---    0.14440   0.14556   0.14706   0.15857   0.16025
     Eigenvalues ---    0.17186   0.18141   0.21477   0.22333   0.22455
     Eigenvalues ---    0.23556   0.25701   0.29972   0.31465   0.33411
     Eigenvalues ---    0.34041   0.34075   0.34111   0.34179   0.34192
     Eigenvalues ---    0.34332   0.34458   0.34520   0.34611   0.34807
     Eigenvalues ---    0.34850   0.34930   0.34941   0.81682   1.19070
     Eigenvalues ---    1.21564
 Eigenvectors required to have negative eigenvalues:
                          A1        A8        A3        D3        D4
   1                   -0.53161  -0.31424  -0.29927  -0.26841  -0.26711
                          D2        D1        R1        A4        A7
   1                    0.26569   0.26439   0.23062   0.21790   0.21788
 RFO step:  Lambda0=5.939475006D-09 Lambda=-1.60352351D-07.
 Linear search not attempted -- option 19 set.
 Iteration  1 RMS(Cart)=  0.00108290 RMS(Int)=  0.00000030
 Iteration  2 RMS(Cart)=  0.00000049 RMS(Int)=  0.00000002
 ITry= 1 IFail=0 DXMaxC= 5.44D-03 DCOld= 1.00D+10 DXMaxT= 2.00D-02 DXLimC= 3.00D+00 Rises=F
 Variable       Old X    -DE/DX   Delta X   Delta X   Delta X     New X
                                 (Linear)    (Quad)   (Total)
    R1        3.10247   0.00000   0.00000   0.00017   0.00017   3.10265
    R2        3.09501  -0.00000   0.00000   0.00011   0.00011   3.09512
    R3        3.94508   0.00000   0.00000  -0.00005  -0.00005   3.94503
    R4        3.68312   0.00001   0.00000   0.00012   0.00012   3.68324
    R5        4.49307   0.00001   0.00000   0.00007   0.00007   4.49313
    R6        3.70998  -0.00001   0.00000  -0.00004  -0.00004   3.70994
    R7        2.28348  -0.00000   0.00000   0.00000   0.00000   2.28349
    R8        2.88482   0.00001   0.00000   0.00003   0.00003   2.88486
    R9        2.86833   0.00000   0.00000   0.00001   0.00001   2.86833
   R10        2.06702   0.00000   0.00000   0.00000   0.00000   2.06703
   R11        2.06638   0.00000   0.00000  -0.00000  -0.00000   2.06637
   R12        2.06324   0.00000   0.00000   0.00000   0.00000   2.06324
   R13        2.06178  -0.00000   0.00000  -0.00000  -0.00000   2.06177
   R14        2.06067  -0.00000   0.00000  -0.00000  -0.00000   2.06067
   R15        2.14444   0.00000   0.00000  -0.00001  -0.00001   2.14443
   R16        3.43915   0.00000   0.00000   0.00002   0.00002   3.43917
   R17        3.43798  -0.00000   0.00000   0.00000   0.00000   3.43799
   R18        3.43095   0.00000   0.00000   0.00004   0.00004   3.43098
   R19        2.06180  -0.00000   0.00000   0.00000   0.00000   2.06180
   R20        2.06185   0.00000   0.00000   0.00000   0.00000   2.06186
   R21        2.06355   0.00000   0.00000   0.00000   0.00000   2.06355
   R22        2.06114   0.00000   0.00000   0.00000   0.00000   2.06114
   R23        2.06054   0.00000   0.00000   0.00000   0.00000   2.06054
   R24        2.06370   0.00000   0.00000   0.00001   0.00001   2.06370
   R25        2.06202   0.00000   0.00000   0.00000   0.00000   2.06202
   R26        2.06378   0.00000   0.00000   0.00000   0.00000   2.06378
   R27        2.06085  -0.00000   0.00000  -0.00001  -0.00001   2.06084
   R28        2.14169   0.00000   0.00000   0.00001   0.00001   2.14169
    A1        0.70550   0.00000   0.00000  -0.00032  -0.00032   0.70518
    A2        1.52012  -0.00001   0.00000  -0.00006  -0.00006   1.52006
    A3        2.61246   0.00001   0.00000   0.00016   0.00016   2.61261
    A4        1.76908   0.00002   0.00000   0.00086   0.00086   1.76994
    A5        1.56680  -0.00000   0.00000  -0.00011  -0.00011   1.56669
    A6        1.52180  -0.00001   0.00000  -0.00016  -0.00016   1.52163
    A7        1.91394   0.00001   0.00000   0.00047   0.00047   1.91440
    A8        2.46616   0.00002   0.00000   0.00052   0.00052   2.46668
    A9        1.58972  -0.00001   0.00000  -0.00013  -0.00013   1.58959
   A10        1.50593  -0.00000   0.00000   0.00005   0.00005   1.50598
   A11        1.47083   0.00002   0.00000   0.00011   0.00011   1.47094
   A12        1.87365  -0.00003   0.00000  -0.00100  -0.00100   1.87266
   A13        1.69198  -0.00000   0.00000  -0.00001  -0.00001   1.69197
   A14        1.66428   0.00001   0.00000   0.00020   0.00020   1.66448
   A15        2.14529   0.00000   0.00000   0.00002   0.00002   2.14531
   A16        2.05363  -0.00000   0.00000  -0.00001  -0.00001   2.05361
   A17        2.08423   0.00000   0.00000  -0.00001  -0.00001   2.08422
   A18        2.00190   0.00001   0.00000   0.00001   0.00001   2.00191
   A19        1.86598  -0.00000   0.00000  -0.00002  -0.00002   1.86596
   A20        1.85867  -0.00000   0.00000   0.00002   0.00002   1.85869
   A21        1.94580  -0.00000   0.00000  -0.00001  -0.00001   1.94578
   A22        1.94390  -0.00000   0.00000  -0.00002  -0.00002   1.94388
   A23        1.83758   0.00000   0.00000   0.00002   0.00002   1.83759
   A24        1.92412  -0.00000   0.00000  -0.00001  -0.00001   1.92410
   A25        1.94490   0.00000   0.00000   0.00001   0.00001   1.94491
   A26        1.94183   0.00000   0.00000   0.00000   0.00000   1.94184
   A27        1.88695  -0.00000   0.00000  -0.00000  -0.00000   1.88695
   A28        1.88860  -0.00000   0.00000  -0.00001  -0.00001   1.88859
   A29        1.87530  -0.00000   0.00000   0.00000   0.00000   1.87530
   A30        2.02931   0.00000   0.00000  -0.00001  -0.00001   2.02930
   A31        2.02223   0.00000   0.00000   0.00032   0.00032   2.02255
   A32        1.99172   0.00001   0.00000  -0.00007  -0.00007   1.99166
   A33        1.78776  -0.00000   0.00000  -0.00002  -0.00002   1.78774
   A34        1.80236  -0.00001   0.00000  -0.00018  -0.00018   1.80219
   A35        1.79898  -0.00000   0.00000  -0.00009  -0.00009   1.79889
   A36        1.91262   0.00000   0.00000   0.00001   0.00001   1.91264
   A37        1.91113   0.00000   0.00000   0.00001   0.00001   1.91114
   A38        1.94304  -0.00000   0.00000  -0.00002  -0.00002   1.94302
   A39        1.89067  -0.00000   0.00000  -0.00001  -0.00001   1.89066
   A40        1.90102  -0.00000   0.00000  -0.00002  -0.00002   1.90100
   A41        1.90457   0.00000   0.00000   0.00003   0.00003   1.90459
   A42        1.90915   0.00000   0.00000   0.00003   0.00003   1.90918
   A43        1.91462   0.00000   0.00000   0.00002   0.00002   1.91464
   A44        1.93906  -0.00000   0.00000  -0.00004  -0.00004   1.93902
   A45        1.89539  -0.00000   0.00000   0.00001   0.00001   1.89540
   A46        1.90655  -0.00000   0.00000  -0.00002  -0.00002   1.90654
   A47        1.89850  -0.00000   0.00000   0.00000   0.00000   1.89850
   A48        1.90369  -0.00000   0.00000   0.00002   0.00002   1.90371
   A49        1.94982  -0.00001   0.00000  -0.00010  -0.00010   1.94972
   A50        1.89522   0.00001   0.00000   0.00020   0.00020   1.89543
   A51        1.90813   0.00000   0.00000  -0.00003  -0.00003   1.90810
   A52        1.89010  -0.00000   0.00000   0.00000   0.00000   1.89010
   A53        1.91587  -0.00000   0.00000  -0.00008  -0.00008   1.91579
   A54        3.08692  -0.00001   0.00000  -0.00017  -0.00017   3.08675
   A55        3.12290  -0.00000   0.00000  -0.00012  -0.00012   3.12278
   A56        3.14490   0.00001   0.00000   0.00020   0.00020   3.14510
   A57        3.15939  -0.00003   0.00000  -0.00023  -0.00023   3.15916
   A58        3.15273  -0.00000   0.00000  -0.00048  -0.00048   3.15225
   A59        3.12125  -0.00000   0.00000  -0.00008  -0.00008   3.12117
    D1        2.93771   0.00000   0.00000   0.00122   0.00122   2.93893
    D2       -0.19437   0.00000   0.00000   0.00122   0.00122  -0.19315
    D3       -2.63905   0.00001   0.00000   0.00090   0.00090  -2.63815
    D4        0.51205   0.00000   0.00000   0.00090   0.00090   0.51295
    D5       -0.72055   0.00002   0.00000   0.00138   0.00138  -0.71917
    D6        2.43055   0.00001   0.00000   0.00138   0.00138   2.43194
    D7        1.16218  -0.00001   0.00000   0.00036   0.00036   1.16253
    D8       -1.96991  -0.00002   0.00000   0.00036   0.00036  -1.96955
    D9        1.42362   0.00000   0.00000  -0.00046  -0.00046   1.42316
   D10       -0.67783  -0.00000   0.00000  -0.00069  -0.00069  -0.67853
   D11       -2.76357  -0.00000   0.00000  -0.00077  -0.00077  -2.76433
   D12        1.55684   0.00000   0.00000  -0.00028  -0.00028   1.55656
   D13       -0.54461   0.00000   0.00000  -0.00051  -0.00051  -0.54512
   D14       -2.63034   0.00000   0.00000  -0.00058  -0.00058  -2.63093
   D15        2.92227  -0.00000   0.00000  -0.00059  -0.00059   2.92168
   D16        0.82082  -0.00001   0.00000  -0.00083  -0.00083   0.81999
   D17       -1.26491  -0.00001   0.00000  -0.00090  -0.00090  -1.26581
   D18       -1.88988   0.00000   0.00000  -0.00038  -0.00038  -1.89025
   D19        2.29186   0.00000   0.00000  -0.00061  -0.00061   2.29125
   D20        0.20613  -0.00000   0.00000  -0.00068  -0.00068   0.20544
   D21       -0.16193  -0.00000   0.00000  -0.00047  -0.00047  -0.16239
   D22       -2.26338  -0.00000   0.00000  -0.00070  -0.00070  -2.26408
   D23        1.93408  -0.00000   0.00000  -0.00077  -0.00077   1.93330
   D24        3.10241   0.00000   0.00000   0.00013   0.00013   3.10255
   D25        0.93573   0.00000   0.00000   0.00016   0.00016   0.93589
   D26       -1.02206   0.00000   0.00000   0.00014   0.00014  -1.02192
   D27       -0.03002   0.00000   0.00000   0.00014   0.00014  -0.02988
   D28       -2.19670  -0.00000   0.00000   0.00016   0.00016  -2.19654
   D29        2.12870   0.00000   0.00000   0.00014   0.00014   2.12883
   D30        3.13649   0.00000   0.00000   0.00012   0.00012   3.13661
   D31       -1.05139   0.00000   0.00000   0.00012   0.00012  -1.05127
   D32        1.04111   0.00000   0.00000   0.00014   0.00014   1.04124
   D33       -1.02297   0.00000   0.00000   0.00010   0.00010  -1.02288
   D34        1.07233   0.00000   0.00000   0.00009   0.00009   1.07243
   D35       -3.11835   0.00000   0.00000   0.00011   0.00011  -3.11824
   D36        1.02394  -0.00000   0.00000   0.00010   0.00010   1.02403
   D37        3.11925  -0.00000   0.00000   0.00010   0.00010   3.11934
   D38       -1.07144   0.00000   0.00000   0.00011   0.00011  -1.07133
   D39        1.04120   0.00000   0.00000  -0.00028  -0.00028   1.04092
   D40       -1.03032  -0.00000   0.00000  -0.00028  -0.00028  -1.03060
   D41       -3.13787  -0.00000   0.00000  -0.00031  -0.00031  -3.13818
   D42       -3.01892   0.00000   0.00000   0.00011   0.00011  -3.01881
   D43        1.19275   0.00000   0.00000   0.00011   0.00011   1.19286
   D44       -0.91481   0.00000   0.00000   0.00008   0.00008  -0.91473
   D45       -1.15393  -0.00000   0.00000  -0.00005  -0.00005  -1.15398
   D46        3.05774  -0.00000   0.00000  -0.00005  -0.00005   3.05769
   D47        0.95018  -0.00000   0.00000  -0.00008  -0.00008   0.95010
   D48        1.01931  -0.00000   0.00000   0.00018   0.00018   1.01950
   D49       -1.05797  -0.00000   0.00000   0.00014   0.00014  -1.05783
   D50        3.12549  -0.00000   0.00000   0.00015   0.00015   3.12565
   D51       -1.20826  -0.00000   0.00000   0.00001   0.00001  -1.20826
   D52        2.99764  -0.00000   0.00000  -0.00004  -0.00004   2.99761
   D53        0.89791  -0.00000   0.00000  -0.00002  -0.00002   0.89789
   D54       -3.07586   0.00001   0.00000   0.00023   0.00023  -3.07563
   D55        1.13005   0.00000   0.00000   0.00019   0.00019   1.13024
   D56       -0.96968   0.00001   0.00000   0.00020   0.00020  -0.96948
   D57       -1.10882  -0.00000   0.00000   0.00042   0.00042  -1.10840
   D58        3.06295   0.00000   0.00000   0.00051   0.00051   3.06347
   D59        0.94753   0.00000   0.00000   0.00054   0.00054   0.94808
   D60        1.11024   0.00000   0.00000   0.00023   0.00023   1.11047
   D61       -1.00117   0.00000   0.00000   0.00033   0.00033  -1.00084
   D62       -3.11659   0.00000   0.00000   0.00036   0.00036  -3.11623
   D63        2.96672  -0.00000   0.00000   0.00012   0.00012   2.96684
   D64        0.85531  -0.00000   0.00000   0.00022   0.00022   0.85553
   D65       -1.26011  -0.00000   0.00000   0.00025   0.00025  -1.25986
         Item               Value     Threshold  Converged?
 Maximum Force            0.000029     0.000450     YES
 RMS     Force            0.000006     0.000300     YES
 Maximum Displacement     0.005445     0.001800     NO 
 RMS     Displacement     0.001083     0.001200     YES
 Predicted change in Energy=-7.720642D-08
 Lowest energy point so far.  Saving SCF results.
 GradGradGradGradGradGradGradGradGradGradGradGradGradGradGradGradGradGrad

 Leave Link  103 at Tue Oct  4 22:29:50 2022, MaxMem=  2952790016 cpu:               0.6 elap:               0.1
 (Enter /mnt/data/applications/G16/g16/l202.exe)
                          Input orientation:                          
 ---------------------------------------------------------------------
 Center     Atomic      Atomic             Coordinates (Angstroms)
 Number     Number       Type             X           Y           Z
 ---------------------------------------------------------------------
      1          1           0        0.139817   -0.630008   -1.938837
      2          1           0        0.302498   -1.686078   -1.563311
      3         45           0       -0.276061   -0.744273   -0.354646
      4          6           0        1.708756   -0.274731    0.090547
      5          8           0        2.081645    0.013652    1.203178
      6          6           0        2.715355   -0.290437   -1.057066
      7          6           0        4.126324    0.112371   -0.668737
      8          1           0        2.314643    0.359024   -1.840699
      9          1           0        2.690487   -1.299309   -1.478081
     10          1           0        4.784070    0.071110   -1.539217
     11          1           0        4.155579    1.127232   -0.269265
     12          1           0        4.530832   -0.551705    0.095772
     13          6           0       -0.280331   -1.748658    1.315722
     14          8           0       -0.258660   -2.332091    2.288794
     15         15           0       -0.687563    1.533508    0.189106
     16          6           0       -2.321707    2.189031   -0.271343
     17          6           0        0.445183    2.745484   -0.557801
     18          6           0       -0.574670    1.904783    1.962749
     19          1           0       -1.351516    1.351622    2.493014
     20          1           0       -0.692370    2.972404    2.160303
     21          1           0        0.395869    1.566967    2.327755
     22          1           0       -3.101316    1.611667    0.227922
     23          1           0       -2.461646    2.094207   -1.349255
     24          1           0       -2.422561    3.238908    0.011534
     25          1           0        0.405561    2.656544   -1.644155
     26          1           0        1.465636    2.545829   -0.229516
     27          1           0        0.176340    3.764102   -0.270148
     28          6           0       -2.125415   -1.145295   -0.877416
     29          8           0       -3.186608   -1.376365   -1.201338
 ---------------------------------------------------------------------
                    Distance matrix (angstroms):
                    1          2          3          4          5
     1  H    0.000000
     2  H    1.132594   0.000000
     3  Rh   1.641850   1.637864   0.000000
     4  C    2.589631   2.589345   2.087621   0.000000
     5  O    3.749300   3.702419   2.925754   1.208370   0.000000
     6  C    2.743397   2.833016   3.106112   1.526600   2.367016
     7  C    4.249296   4.319297   4.495941   2.563396   2.773901
     8  H    2.391168   2.882380   3.183922   2.120957   3.072256
     9  H    2.676971   2.420608   3.220337   2.115218   3.046917
    10  H    4.713846   4.813810   5.260511   3.497613   3.850602
    11  H    4.690597   4.943227   4.811366   2.842870   2.776572
    12  H    4.840121   4.681684   4.831788   2.835640   2.746725
    13  C    3.466995   2.938101   1.949086   2.762242   2.949124
    14  O    4.574793   3.946003   3.083706   3.596629   3.486846
    15  P    3.145393   3.796962   2.377664   3.003629   3.317652
    16  C    4.097147   4.855112   3.577133   4.737691   5.127962
    17  C    3.659843   4.546444   3.569295   3.337464   3.638950
    18  C    4.707231   5.108503   3.532277   3.670075   3.348034
    19  H    5.078605   5.330774   3.695746   4.216886   3.903899
    20  H    5.520223   6.046199   4.506880   4.537971   4.167189
    21  H    4.805837   5.072614   3.603969   3.181293   2.553292
    22  H    4.497209   5.066517   3.724501   5.168574   5.510704
    23  H    3.812685   4.687950   3.717930   5.007709   5.611160
    24  H    5.033710   5.844791   4.539524   5.423991   5.666583
    25  H    3.310420   4.344598   3.700405   3.646901   4.231010
    26  H    3.842592   4.587040   3.724773   2.849054   2.973887
    27  H    4.700431   5.602914   4.531804   4.334809   4.457213
    28  C    2.554096   2.580244   1.963216   4.049160   4.834395
    29  O    3.487988   3.521479   3.096404   5.181424   5.955530
                    6          7          8          9         10
     6  C    0.000000
     7  C    1.517856   0.000000
     8  H    1.093824   2.171755   0.000000
     9  H    1.093478   2.170140   1.738626   0.000000
    10  H    2.154707   1.091819   2.504367   2.502973   0.000000
    11  H    2.169023   1.091043   2.539408   3.081531   1.767250
    12  H    2.166392   1.090458   3.080721   2.534323   1.767828
    13  C    4.090314   5.178814   4.597739   4.102804   6.091830
    14  O    4.920152   5.826703   5.560279   4.894226   6.771866
    15  P    4.057040   5.092056   3.809561   4.713341   5.921526
    16  C    5.668961   6.785834   5.225662   6.224694   7.522310
    17  C    3.823580   4.527293   3.291792   4.716847   5.190510
    18  C    4.976197   5.677746   5.020330   5.724226   6.658995
    19  H    5.642594   6.445086   5.762555   6.255782   7.452785
    20  H    5.710534   6.277186   5.646229   6.552029   7.217711
    21  H    4.504107   5.001111   4.745190   5.288213   6.037166
    22  H    6.253228   7.435769   5.931350   6.702925   8.226506
    23  H    5.707298   6.913185   5.105420   6.170658   7.525251
    24  H    6.324268   7.288751   5.845135   6.996972   8.023422
    25  H    3.790056   4.611761   2.993630   4.571350   5.085944
    26  H    3.207966   3.632340   2.845846   4.224247   4.341838
    27  H    4.848208   5.394106   4.316656   5.780844   6.039859
    28  C    4.918954   6.380400   4.785917   4.855659   7.046885
    29  O    6.002768   7.481910   5.803802   5.884111   8.108085
                   11         12         13         14         15
    11  H    0.000000
    12  H    1.758664   0.000000
    13  C    5.519078   5.105709   0.000000
    14  O    6.164097   5.560428   1.134783   0.000000
    15  P    4.881719   5.620362   3.493954   4.419899   0.000000
    16  C    6.563737   7.389431   4.710773   5.590260   1.819931
    17  C    4.058205   5.290665   4.922781   5.863468   1.819304
    18  C    5.287885   5.965408   3.721950   4.261135   1.815599
    19  H    6.165114   6.631097   3.484995   3.847828   2.404560
    20  H    5.728008   6.630496   4.813681   5.323747   2.440505
    21  H    4.590566   5.154458   3.531972   3.953806   2.397658
    22  H    7.290020   7.933935   4.520293   5.280257   2.415330
    23  H    6.774149   7.614704   5.160218   6.138458   2.414189
    24  H    6.914474   7.919945   5.582640   6.395655   2.439291
    25  H    4.276886   5.508001   5.351367   6.387156   2.411840
    26  H    3.041347   4.369892   4.886592   5.754058   2.415844
    27  H    4.773617   6.141798   5.754481   6.625781   2.435732
    28  C    6.707094   6.753152   2.928862   3.862401   3.221937
    29  O    7.813096   7.869018   3.862724   4.654816   4.079942
                   16         17         18         19         20
    16  C    0.000000
    17  C    2.836790   0.000000
    18  C    2.850281   2.846058   0.000000
    19  H    3.046997   3.805056   1.091173   0.000000
    20  H    3.030068   2.955268   1.092106   1.781041   0.000000
    21  H    3.811495   3.117334   1.090548   1.768343   1.785374
    22  H    1.091057   3.805333   3.078877   2.874033   3.374718
    23  H    1.091087   3.082242   3.816534   4.067782   4.027229
    24  H    1.091985   2.965058   3.000305   3.296472   2.771605
    25  H    3.088878   1.090709   3.812578   4.680417   3.972295
    26  H    3.804342   1.090393   3.062648   4.095686   3.248106
    27  H    2.953148   1.092064   3.001152   3.973597   2.699729
    28  C    3.394641   4.674215   4.446833   4.265362   5.313832
    29  O    3.784838   5.531156   5.253532   4.945473   6.036029
                   21         22         23         24         25
    21  H    0.000000
    22  H    4.079412   0.000000
    23  H    4.686553   1.769042   0.000000
    24  H    4.012956   1.776357   1.778656   0.000000
    25  H    4.118658   4.110307   2.936676   3.328472   0.000000
    26  H    2.939764   4.683904   4.108689   3.956835   1.771220
    27  H    3.409501   3.952731   3.303331   2.666357   1.779640
    28  C    4.897587   3.126499   3.290906   4.483277   4.631167
    29  O    5.826821   3.313366   3.548566   4.832760   5.418867
                   26         27         28         29
    26  H    0.000000
    27  H    1.774295   0.000000
    28  C    5.190358   5.456100   0.000000
    29  O    6.162095   6.212965   1.133336   0.000000
 Stoichiometry    C8H16O3PRh
 Framework group  C1[X(C8H16O3PRh)]
 Deg. of freedom    81
 Full point group                 C1      NOp   1
 RotChk:  IX=0 Diff= 6.09D-04
 Largest Abelian subgroup         C1      NOp   1
 Largest concise Abelian subgroup C1      NOp   1
                         Standard orientation:                         
 ---------------------------------------------------------------------
 Center     Atomic      Atomic             Coordinates (Angstroms)
 Number     Number       Type             X           Y           Z
 ---------------------------------------------------------------------
      1          1           0        0.136590   -0.627303   -1.940347
      2          1           0        0.299354   -1.684144   -1.567033
      3         45           0       -0.276206   -0.744139   -0.355538
      4          6           0        1.709787   -0.276636    0.086540
      5          8           0        2.085071    0.009525    1.198939
      6          6           0        2.714091   -0.290920   -1.063103
      7          6           0        4.126083    0.110311   -0.676865
      8          1           0        2.312228    0.360192   -1.844774
      9          1           0        2.687750   -1.299022   -1.485868
     10          1           0        4.782069    0.070194   -1.548726
     11          1           0        4.156771    1.124438   -0.275640
     12          1           0        4.531694   -0.555384    0.085649
     13          6           0       -0.277784   -1.751506    1.313038
     14          8           0       -0.254543   -2.336691    2.285021
     15         15           0       -0.685192    1.532923    0.193100
     16          6           0       -2.319836    2.190290   -0.262922
     17          6           0        0.446827    2.745523   -0.553895
     18          6           0       -0.568536    1.900956    1.967175
     19          1           0       -1.344673    1.347334    2.497997
     20          1           0       -0.685171    2.968296    2.166870
     21          1           0        0.402515    1.561881    2.329644
     22          1           0       -3.098814    1.612522    0.236862
     23          1           0       -2.461981    2.097481   -1.340721
     24          1           0       -2.419467    3.239723    0.022030
     25          1           0        0.404987    2.658550   -1.640325
     26          1           0        1.467806    2.544644   -0.228000
     27          1           0        0.179198    3.763793   -0.263889
     28          6           0       -2.126849   -1.143070   -0.875340
     29          8           0       -3.188830   -1.372896   -1.197560
 ---------------------------------------------------------------------
 Rotational constants (GHZ):           0.6063483           0.4640024           0.3699308
 Leave Link  202 at Tue Oct  4 22:29:50 2022, MaxMem=  2952790016 cpu:               0.1 elap:               0.0
 (Enter /mnt/data/applications/G16/g16/l301.exe)
 Basis read from rwf:  (5D, 7F)
 Pseudo-potential data read from rwf file.
 There are   573 symmetry adapted cartesian basis functions of A   symmetry.
 There are   510 symmetry adapted basis functions of A   symmetry.
   510 basis functions,   823 primitive gaussians,   573 cartesian basis functions
    60 alpha electrons       60 beta electrons
       nuclear repulsion energy      1121.3738108335 Hartrees.
 IExCor= 4639 DFT=T Ex+Corr=wB97XD ExCW=0 ScaHFX=  1.000000
 ScaDFX=  1.000000  1.000000  1.000000  1.000000 ScalE2=  1.000000  1.000000
 IRadAn=      5 IRanWt=     -1 IRanGd=            0 ICorTp=0 IEmpDi=121
 HFx  wShort=  0.000000 wLong=  0.200000 cFull=  0.222036 cShort=  0.000000 cLong=  0.777964
 DFx  wShort=  0.000000 wLong=  0.200000 cFull=  0.000000 cShort=  0.000000 cLong=  1.000000
 NAtoms=   29 NActive=   29 NUniq=   29 SFac= 1.00D+00 NAtFMM=   60 NAOKFM=F Big=F
 Integral buffers will be    131072 words long.
 Raffenetti 2 integral format.
 Two-electron integral symmetry is turned on.
 R6Disp:  Grimme-D2 Dispersion energy=       -0.0251172617 Hartrees.
 Nuclear repulsion after empirical dispersion term =     1121.3486935718 Hartrees.
 No density basis found on file   724.
 ------------------------------------------------------------------------------
 Polarizable Continuum Model (PCM)
 =================================
 Model                : PCM.
 Atomic radii         : SMD-Coulomb.
 Polarization charges : Total charges.
 Charge compensation  : None.
 Solution method      : Matrix inversion.
 Cavity type          : VdW (van der Waals Surface) (Alpha=1.000).
 Cavity algorithm     : GePol (No added spheres)
                        Default sphere list used, NSphG=   29.
                        Lebedev-Laikov grids with approx.  5.0 points / Ang**2.
                        Smoothing algorithm: York/Karplus (Gamma=1.0000).
                        Polarization charges: spherical gaussians, with
                                              point-specific exponents (IZeta= 3).
                        Self-potential: point-specific (ISelfS= 7).
                        Self-field    : sphere-specific E.n sum rule (ISelfD= 2).
 1st derivatives      : Analytical E(r).r(x)/FMM algorithm (CHGder, D1EAlg=3).
                        Cavity 1st derivative terms included.
 Solvent              : Toluene, Eps=   2.374100 Eps(inf)=   2.238315
 ------------------------------------------------------------------------------
 GePol: Number of generator spheres                  =      29
 GePol: Total number of spheres                      =      29
 GePol: Number of exposed spheres                    =      29 (100.00%)
 GePol: Number of points                             =    2528
 GePol: Average weight of points                     =       0.12
 GePol: Minimum weight of points                     =   0.92D-10
 GePol: Maximum weight of points                     =    0.20359
 GePol: Number of points with low weight             =     126
 GePol: Fraction of low-weight points (<1% of avg)   =       4.98%
 GePol: Cavity surface area                          =    307.010 Ang**2
 GePol: Cavity volume                                =    291.735 Ang**3
 ------------------------------------------------------------------------------
 Atomic radii for non-electrostatic terms: SMD-CDS.
 ------------------------------------------------------------------------------
 PCM non-electrostatic energy =        -0.0003974249 Hartrees.
 Nuclear repulsion after PCM non-electrostatic terms =     1121.3482961468 Hartrees.
 Leave Link  301 at Tue Oct  4 22:29:50 2022, MaxMem=  2952790016 cpu:               1.9 elap:               0.2
 (Enter /mnt/data/applications/G16/g16/l302.exe)
 NPDir=0 NMtPBC=     1 NCelOv=     1 NCel=       1 NClECP=     1 NCelD=      1
         NCelK=      1 NCelE2=     1 NClLst=     1 CellRange=     0.0.
 One-electron integrals computed using PRISM.
 One-electron integral symmetry used in STVInt
   1 Symmetry operations used in ECPInt.
 ECPInt:  NShTT=   22578 NPrTT=   66767 LenC2=   21054 LenP2D=   46542.
 LDataN:  DoStor=T MaxTD1= 7 Len=  274
 NBasis=   510 RedAO= T EigKep=  1.37D-04  NBF=   510
 NBsUse=   510 1.00D-06 EigRej= -1.00D+00 NBFU=   510
 Precomputing XC quadrature grid using
 IXCGrd= 4 IRadAn=           5 IRanWt=          -1 IRanGd=           0 AccXCQ= 0.00D+00.
 Defaulting to unpruned grid for atomic number  45.
 Generated NRdTot=       0 NPtTot=           0 NUsed=           0 NTot=          32
 NSgBfM=   568   568   568   568   568 MxSgAt=    29 MxSgA2=    29.
 Leave Link  302 at Tue Oct  4 22:29:52 2022, MaxMem=  2952790016 cpu:              19.7 elap:               1.7
 (Enter /mnt/data/applications/G16/g16/l303.exe)
 DipDrv:  MaxL=1.
 Leave Link  303 at Tue Oct  4 22:29:52 2022, MaxMem=  2952790016 cpu:               1.2 elap:               0.1
 (Enter /mnt/data/applications/G16/g16/l401.exe)
 Initial guess from the checkpoint file:  "TS3.chk"
 B after Tr=     0.000000   -0.000000   -0.000000
         Rot=    1.000000    0.000226    0.000144    0.000071 Ang=   0.03 deg.
 Guess basis will be translated and rotated to current coordinates.
 JPrj=2 DoOrth=T DoCkMO=T.
 Leave Link  401 at Tue Oct  4 22:29:53 2022, MaxMem=  2952790016 cpu:              12.4 elap:               1.1
 (Enter /mnt/data/applications/G16/g16/l502.exe)
 Integral symmetry usage will be decided dynamically.
 Closed shell SCF:
 Using DIIS extrapolation, IDIIS=  1040.
 NGot=  2952790016 LenX=  2952121135 LenY=  2951792233
 Requested convergence on RMS density matrix=1.00D-08 within 128 cycles.
 Requested convergence on MAX density matrix=1.00D-06.
 Requested convergence on             energy=1.00D-06.
 No special actions if energy rises.
 Fock matrices will be formed incrementally for  20 cycles.

 Cycle   1  Pass 1  IDiag  1:
 FoFJK:  IHMeth= 1 ICntrl=       0 DoSepK=T KAlg= 0 I1Cent=           0 FoldK=F
 IRaf=         1 NMat=       1 IRICut=       1 DoRegI=T DoRafI=F ISym2E= 0 IDoP0=0 IntGTp=1.
 FoFCou: FMM=F IPFlag=           0 FMFlag=      100000 FMFlg1=           0
         NFxFlg=           0 DoJE=T BraDBF=F KetDBF=F FulRan=T
         wScrn=  0.000000 ICntrl=       500 IOpCl=  0 I1Cent=           0 NGrid=           0
         NMat0=    1 NMatS0=      1 NMatT0=    0 NMatD0=    1 NMtDS0=    0 NMtDT0=    0
 Symmetry not used in FoFCou.
 Defaulting to unpruned grid for atomic number  45.
 Defaulting to unpruned grid for atomic number  45.
 Defaulting to unpruned grid for atomic number  45.
 Defaulting to unpruned grid for atomic number  45.
 Defaulting to unpruned grid for atomic number  45.
 Defaulting to unpruned grid for atomic number  45.
 Defaulting to unpruned grid for atomic number  45.
 Defaulting to unpruned grid for atomic number  45.
 Defaulting to unpruned grid for atomic number  45.
 Defaulting to unpruned grid for atomic number  45.
 Defaulting to unpruned grid for atomic number  45.
 Defaulting to unpruned grid for atomic number  45.
 Inv3:  Mode=1 IEnd=    19172352.
 Iteration    1 A*A^-1 deviation from unit magnitude is 2.66D-15 for     66.
 Iteration    1 A*A^-1 deviation from orthogonality  is 1.43D-15 for   1337    549.
 Iteration    1 A^-1*A deviation from unit magnitude is 2.44D-15 for     66.
 Iteration    1 A^-1*A deviation from orthogonality  is 1.15D-15 for   2372    634.
 E= -992.211164075994    
 DIIS: error= 5.46D-05 at cycle   1 NSaved=   1.
 NSaved= 1 IEnMin= 1 EnMin= -992.211164075994     IErMin= 1 ErrMin= 5.46D-05
 ErrMax= 5.46D-05  0.00D+00 EMaxC= 1.00D-01 BMatC= 2.15D-06 BMatP= 2.15D-06
 IDIUse=1 WtCom= 1.00D+00 WtEn= 0.00D+00
 Coeff-Com:  0.100D+01
 Coeff:      0.100D+01
 Gap=     1.188 Goal=   None    Shift=    0.000
 RMSDP=2.99D-06 MaxDP=1.70D-04              OVMax= 3.05D-04

 Cycle   2  Pass 1  IDiag  1:
 RMSU=  2.99D-06    CP:  1.00D+00
 E= -992.211166685758     Delta-E=       -0.000002609763 Rises=F Damp=F
 DIIS: error= 8.28D-06 at cycle   2 NSaved=   2.
 NSaved= 2 IEnMin= 2 EnMin= -992.211166685758     IErMin= 2 ErrMin= 8.28D-06
 ErrMax= 8.28D-06  0.00D+00 EMaxC= 1.00D-01 BMatC= 6.88D-08 BMatP= 2.15D-06
 IDIUse=1 WtCom= 1.00D+00 WtEn= 0.00D+00
 Coeff-Com: -0.131D+00 0.113D+01
 Coeff:     -0.131D+00 0.113D+01
 Gap=     0.328 Goal=   None    Shift=    0.000
 RMSDP=1.01D-06 MaxDP=6.30D-05 DE=-2.61D-06 OVMax= 1.10D-04

 Cycle   3  Pass 1  IDiag  1:
 RMSU=  7.74D-07    CP:  1.00D+00  1.21D+00
 E= -992.211166850491     Delta-E=       -0.000000164733 Rises=F Damp=F
 DIIS: error= 4.18D-06 at cycle   3 NSaved=   3.
 NSaved= 3 IEnMin= 3 EnMin= -992.211166850491     IErMin= 3 ErrMin= 4.18D-06
 ErrMax= 4.18D-06  0.00D+00 EMaxC= 1.00D-01 BMatC= 1.91D-08 BMatP= 6.88D-08
 IDIUse=1 WtCom= 1.00D+00 WtEn= 0.00D+00
 Coeff-Com: -0.551D-01 0.372D+00 0.683D+00
 Coeff:     -0.551D-01 0.372D+00 0.683D+00
 Gap=     0.328 Goal=   None    Shift=    0.000
 RMSDP=4.56D-07 MaxDP=5.76D-05 DE=-1.65D-07 OVMax= 5.06D-05

 Cycle   4  Pass 1  IDiag  1:
 RMSU=  4.17D-07    CP:  1.00D+00  1.24D+00  8.05D-01
 E= -992.211166850936     Delta-E=       -0.000000000446 Rises=F Damp=F
 DIIS: error= 5.67D-06 at cycle   4 NSaved=   4.
 NSaved= 4 IEnMin= 4 EnMin= -992.211166850936     IErMin= 3 ErrMin= 4.18D-06
 ErrMax= 5.67D-06  0.00D+00 EMaxC= 1.00D-01 BMatC= 2.78D-08 BMatP= 1.91D-08
 IDIUse=1 WtCom= 1.00D+00 WtEn= 0.00D+00
 Coeff-Com:  0.208D-02-0.105D+00 0.597D+00 0.506D+00
 Coeff:      0.208D-02-0.105D+00 0.597D+00 0.506D+00
 Gap=     0.328 Goal=   None    Shift=    0.000
 RMSDP=2.88D-07 MaxDP=4.00D-05 DE=-4.46D-10 OVMax= 4.06D-05

 Cycle   5  Pass 1  IDiag  1:
 RMSU=  1.69D-07    CP:  1.00D+00  1.26D+00  1.04D+00  6.86D-01
 E= -992.211166872033     Delta-E=       -0.000000021097 Rises=F Damp=F
 DIIS: error= 1.14D-06 at cycle   5 NSaved=   5.
 NSaved= 5 IEnMin= 5 EnMin= -992.211166872033     IErMin= 5 ErrMin= 1.14D-06
 ErrMax= 1.14D-06  0.00D+00 EMaxC= 1.00D-01 BMatC= 1.65D-09 BMatP= 1.91D-08
 IDIUse=1 WtCom= 1.00D+00 WtEn= 0.00D+00
 Coeff-Com:  0.727D-02-0.105D+00 0.268D+00 0.293D+00 0.536D+00
 Coeff:      0.727D-02-0.105D+00 0.268D+00 0.293D+00 0.536D+00
 Gap=     0.328 Goal=   None    Shift=    0.000
 RMSDP=8.25D-08 MaxDP=7.79D-06 DE=-2.11D-08 OVMax= 8.52D-06

 Cycle   6  Pass 1  IDiag  1:
 RMSU=  5.24D-08    CP:  1.00D+00  1.26D+00  1.10D+00  7.59D-01  8.27D-01
 E= -992.211166873459     Delta-E=       -0.000000001427 Rises=F Damp=F
 DIIS: error= 3.92D-07 at cycle   6 NSaved=   6.
 NSaved= 6 IEnMin= 6 EnMin= -992.211166873459     IErMin= 6 ErrMin= 3.92D-07
 ErrMax= 3.92D-07  0.00D+00 EMaxC= 1.00D-01 BMatC= 1.55D-10 BMatP= 1.65D-09
 IDIUse=1 WtCom= 1.00D+00 WtEn= 0.00D+00
 Coeff-Com:  0.305D-02-0.288D-01-0.696D-03 0.330D-01 0.243D+00 0.750D+00
 Coeff:      0.305D-02-0.288D-01-0.696D-03 0.330D-01 0.243D+00 0.750D+00
 Gap=     0.328 Goal=   None    Shift=    0.000
 RMSDP=4.08D-08 MaxDP=2.90D-06 DE=-1.43D-09 OVMax= 4.87D-06

 Cycle   7  Pass 1  IDiag  1:
 RMSU=  2.46D-08    CP:  1.00D+00  1.26D+00  1.13D+00  7.86D-01  9.20D-01
                    CP:  1.12D+00
 E= -992.211166873641     Delta-E=       -0.000000000181 Rises=F Damp=F
 DIIS: error= 1.05D-07 at cycle   7 NSaved=   7.
 NSaved= 7 IEnMin= 7 EnMin= -992.211166873641     IErMin= 7 ErrMin= 1.05D-07
 ErrMax= 1.05D-07  0.00D+00 EMaxC= 1.00D-01 BMatC= 1.50D-11 BMatP= 1.55D-10
 IDIUse=1 WtCom= 1.00D+00 WtEn= 0.00D+00
 Coeff-Com:  0.247D-04 0.549D-02-0.396D-01-0.296D-01 0.417D-02 0.252D+00
 Coeff-Com:  0.808D+00
 Coeff:      0.247D-04 0.549D-02-0.396D-01-0.296D-01 0.417D-02 0.252D+00
 Coeff:      0.808D+00
 Gap=     0.328 Goal=   None    Shift=    0.000
 RMSDP=1.87D-08 MaxDP=1.32D-06 DE=-1.81D-10 OVMax= 2.94D-06

 Cycle   8  Pass 1  IDiag  1:
 RMSU=  8.34D-09    CP:  1.00D+00  1.26D+00  1.13D+00  8.08D-01  9.92D-01
                    CP:  1.25D+00  1.07D+00
 E= -992.211166873690     Delta-E=       -0.000000000049 Rises=F Damp=F
 DIIS: error= 3.14D-08 at cycle   8 NSaved=   8.
 NSaved= 8 IEnMin= 8 EnMin= -992.211166873690     IErMin= 8 ErrMin= 3.14D-08
 ErrMax= 3.14D-08  0.00D+00 EMaxC= 1.00D-01 BMatC= 1.81D-12 BMatP= 1.50D-11
 IDIUse=1 WtCom= 1.00D+00 WtEn= 0.00D+00
 Coeff-Com: -0.363D-03 0.558D-02-0.129D-01-0.138D-01-0.289D-01-0.101D-01
 Coeff-Com:  0.257D+00 0.804D+00
 Coeff:     -0.363D-03 0.558D-02-0.129D-01-0.138D-01-0.289D-01-0.101D-01
 Coeff:      0.257D+00 0.804D+00
 Gap=     0.328 Goal=   None    Shift=    0.000
 RMSDP=6.68D-09 MaxDP=4.98D-07 DE=-4.87D-11 OVMax= 1.12D-06

 Error on total polarization charges =  0.03086
 SCF Done:  E(RwB97XD) =  -992.211166874     A.U. after    8 cycles
            NFock=  8  Conv=0.67D-08     -V/T= 2.0799
 KE= 9.188070801664D+02 PE=-4.549654438088D+03 EE= 1.517287894901D+03
 SMD-CDS (non-electrostatic) energy       (kcal/mol) =      -0.25
 (included in total energy above)
 Leave Link  502 at Tue Oct  4 22:38:54 2022, MaxMem=  2952790016 cpu:            6434.9 elap:             540.9
 (Enter /mnt/data/applications/G16/g16/l701.exe)
 ... and contract with generalized density number  0.
 Compute integral first derivatives.
 R6Disp: Adding Grimme-D2 dispersion energy 1st derivatives to the gradient.
   1 Symmetry operations used in ECPInt.
 ECPInt:  NShTT=   22578 NPrTT=   66767 LenC2=   21054 LenP2D=   46542.
 LDataN:  DoStor=T MaxTD1= 8 Len=  415
 D1PCM: PCM CHGder 1st derivatives, ID1Alg=3 FixD1E=F DoIter=F DoCFld=F I1PDM=0.
 GePol: Maximum number of non-zero 1st derivatives   =     415
 Leave Link  701 at Tue Oct  4 22:39:06 2022, MaxMem=  2952790016 cpu:             137.2 elap:              11.5
 (Enter /mnt/data/applications/G16/g16/l702.exe)
 L702 exits ... SP integral derivatives will be done elsewhere.
 Leave Link  702 at Tue Oct  4 22:39:06 2022, MaxMem=  2952790016 cpu:               0.2 elap:               0.0
 (Enter /mnt/data/applications/G16/g16/l703.exe)
 Integral derivatives from FoFJK, PRISM(SPDF).
 Compute integral first derivatives, UseDBF=F ICtDFT=           0.
 Calling FoFJK, ICntrl=      2127 FMM=F ISym2X=0 I1Cent= 0 IOpClX= 0 NMat=1 NMatS=1 NMatT=0.
 FoFJK:  IHMeth= 1 ICntrl=    2127 DoSepK=T KAlg= 0 I1Cent=           0 FoldK=F
 IRaf=         1 NMat=       1 IRICut=       1 DoRegI=T DoRafI=F ISym2E= 0 IDoP0=0 IntGTp=1.
 FoFCou: FMM=F IPFlag=           0 FMFlag=      100000 FMFlg1=         800
         NFxFlg=           0 DoJE=F BraDBF=F KetDBF=F FulRan=T
         wScrn=  0.000000 ICntrl=      2527 IOpCl=  0 I1Cent=           0 NGrid=           0
         NMat0=    1 NMatS0=      1 NMatT0=    0 NMatD0=    1 NMtDS0=    0 NMtDT0=    0
 Symmetry not used in FoFCou.
 Defaulting to unpruned grid for atomic number  45.
 Defaulting to unpruned grid for atomic number  45.
 Defaulting to unpruned grid for atomic number  45.
 Defaulting to unpruned grid for atomic number  45.
 Defaulting to unpruned grid for atomic number  45.
 Defaulting to unpruned grid for atomic number  45.
 Defaulting to unpruned grid for atomic number  45.
 Defaulting to unpruned grid for atomic number  45.
 Defaulting to unpruned grid for atomic number  45.
 Defaulting to unpruned grid for atomic number  45.
 Defaulting to unpruned grid for atomic number  45.
 Defaulting to unpruned grid for atomic number  45.
 Leave Link  703 at Tue Oct  4 22:43:44 2022, MaxMem=  2952790016 cpu:            3331.4 elap:             278.4
 (Enter /mnt/data/applications/G16/g16/l716.exe)
 Dipole        =-8.31292199D-01 1.71752014D+00-7.03466215D-01
 ***** Axes restored to original set *****
 -------------------------------------------------------------------
 Center     Atomic                   Forces (Hartrees/Bohr)
 Number     Number              X              Y              Z
 -------------------------------------------------------------------
      1        1           0.000000482    0.000007476   -0.000005573
      2        1           0.000001203    0.000007452   -0.000010962
      3       45           0.000001403    0.000000110   -0.000004490
      4        6           0.000000220    0.000000004   -0.000004814
      5        8          -0.000000797   -0.000003131   -0.000001996
      6        6           0.000000796    0.000005831   -0.000004235
      7        6           0.000000367    0.000005008   -0.000002854
      8        1           0.000000066    0.000009129   -0.000001486
      9        1           0.000001254    0.000007721   -0.000009020
     10        1           0.000000359    0.000009344   -0.000002924
     11        1          -0.000000379    0.000003453    0.000001707
     12        1           0.000000817    0.000002062   -0.000005572
     13        6           0.000002374   -0.000008068   -0.000012036
     14        8           0.000002177   -0.000011117   -0.000013382
     15       15          -0.000001801   -0.000000138    0.000004942
     16        6          -0.000001260   -0.000000746    0.000006212
     17        6          -0.000001256    0.000001570    0.000008927
     18        6          -0.000001216   -0.000009117    0.000005889
     19        1          -0.000000278   -0.000012629    0.000003092
     20        1          -0.000001584   -0.000010641    0.000010242
     21        1           0.000002441   -0.000012828    0.000002787
     22        1          -0.000000669   -0.000004099    0.000004347
     23        1          -0.000001035    0.000003457    0.000006388
     24        1          -0.000001840   -0.000002437    0.000011412
     25        1          -0.000001374    0.000006856    0.000008635
     26        1          -0.000001383    0.000001235    0.000008261
     27        1          -0.000002030    0.000000410    0.000013389
     28        6           0.000001463    0.000001281   -0.000008176
     29        8           0.000001480    0.000002552   -0.000008712
 -------------------------------------------------------------------
 Cartesian Forces:  Max     0.000013389 RMS     0.000005784
 Leave Link  716 at Tue Oct  4 22:43:44 2022, MaxMem=  2952790016 cpu:               0.2 elap:               0.0
 (Enter /mnt/data/applications/G16/g16/l103.exe)

 GradGradGradGradGradGradGradGradGradGradGradGradGradGradGradGradGradGrad
 Berny optimization.
 FormGI is forming the generalized inverse of G from B-inverse, IUseBI=4.
 Internal  Forces:  Max     0.000005219 RMS     0.000001022
 Search for a saddle point.
 Step number   3 out of a maximum of  162
 All quantities printed in internal units (Hartrees-Bohrs-Radians)
 Swapping is turned off.
 Update second derivatives using D2CorX and points    1    2    3
 ITU=  0  0  0
     Eigenvalues ---   -0.04998   0.00089   0.00133   0.00198   0.00206
     Eigenvalues ---    0.00259   0.00283   0.00320   0.01494   0.01878
     Eigenvalues ---    0.02039   0.02160   0.02277   0.02606   0.03027
     Eigenvalues ---    0.03476   0.03827   0.03951   0.03955   0.04021
     Eigenvalues ---    0.04057   0.04062   0.04118   0.04162   0.04402
     Eigenvalues ---    0.04527   0.04884   0.05396   0.05644   0.07313
     Eigenvalues ---    0.07458   0.07658   0.07845   0.08399   0.09349
     Eigenvalues ---    0.09489   0.10620   0.10703   0.11065   0.11096
     Eigenvalues ---    0.11211   0.11354   0.11871   0.12078   0.12227
     Eigenvalues ---    0.12326   0.13457   0.13552   0.13922   0.14388
     Eigenvalues ---    0.14441   0.14558   0.14708   0.15857   0.16026
     Eigenvalues ---    0.17185   0.18146   0.21477   0.22333   0.22455
     Eigenvalues ---    0.23556   0.25701   0.29972   0.31465   0.33411
     Eigenvalues ---    0.34041   0.34075   0.34111   0.34179   0.34192
     Eigenvalues ---    0.34332   0.34458   0.34520   0.34611   0.34808
     Eigenvalues ---    0.34850   0.34930   0.34941   0.81682   1.19070
     Eigenvalues ---    1.21564
 Eigenvectors required to have negative eigenvalues:
                          A1        A8        A3        D2        D1
   1                   -0.53165  -0.31342  -0.29923   0.26839   0.26699
                          D3        D4        R1        A4        A7
   1                   -0.26587  -0.26447   0.23063   0.21886   0.21792
 RFO step:  Lambda0=8.973451149D-11 Lambda= 0.00000000D+00.
 Linear search not attempted -- option 19 set.
 Iteration  1 RMS(Cart)=  0.00028192 RMS(Int)=  0.00000001
 Iteration  2 RMS(Cart)=  0.00000003 RMS(Int)=  0.00000000
 ITry= 1 IFail=0 DXMaxC= 8.61D-04 DCOld= 1.00D+10 DXMaxT= 2.00D-02 DXLimC= 3.00D+00 Rises=F
 Variable       Old X    -DE/DX   Delta X   Delta X   Delta X     New X
                                 (Linear)    (Quad)   (Total)
    R1        3.10265  -0.00000   0.00000  -0.00001  -0.00001   3.10264
    R2        3.09512  -0.00000   0.00000  -0.00001  -0.00001   3.09510
    R3        3.94503  -0.00000   0.00000   0.00001   0.00001   3.94504
    R4        3.68324  -0.00000   0.00000  -0.00001  -0.00001   3.68323
    R5        4.49313  -0.00000   0.00000   0.00001   0.00001   4.49314
    R6        3.70994  -0.00000   0.00000  -0.00001  -0.00001   3.70993
    R7        2.28349   0.00000   0.00000   0.00000   0.00000   2.28349
    R8        2.88486  -0.00000   0.00000  -0.00000  -0.00000   2.88485
    R9        2.86833   0.00000   0.00000   0.00000   0.00000   2.86833
   R10        2.06703  -0.00000   0.00000   0.00000   0.00000   2.06703
   R11        2.06637   0.00000   0.00000  -0.00000  -0.00000   2.06637
   R12        2.06324  -0.00000   0.00000  -0.00000  -0.00000   2.06324
   R13        2.06177   0.00000   0.00000   0.00000   0.00000   2.06177
   R14        2.06067   0.00000   0.00000   0.00000   0.00000   2.06067
   R15        2.14443  -0.00000   0.00000   0.00000   0.00000   2.14443
   R16        3.43917   0.00000   0.00000  -0.00000  -0.00000   3.43917
   R17        3.43799  -0.00000   0.00000   0.00000   0.00000   3.43799
   R18        3.43098  -0.00000   0.00000  -0.00001  -0.00001   3.43098
   R19        2.06180   0.00000   0.00000   0.00000   0.00000   2.06180
   R20        2.06186   0.00000   0.00000   0.00000   0.00000   2.06186
   R21        2.06355  -0.00000   0.00000  -0.00000  -0.00000   2.06355
   R22        2.06114   0.00000   0.00000  -0.00000  -0.00000   2.06114
   R23        2.06054  -0.00000   0.00000   0.00000   0.00000   2.06054
   R24        2.06370  -0.00000   0.00000  -0.00000  -0.00000   2.06370
   R25        2.06202  -0.00000   0.00000  -0.00000  -0.00000   2.06202
   R26        2.06378   0.00000   0.00000  -0.00000  -0.00000   2.06378
   R27        2.06084   0.00000   0.00000   0.00001   0.00001   2.06084
   R28        2.14169  -0.00000   0.00000  -0.00000  -0.00000   2.14169
    A1        0.70518  -0.00000   0.00000   0.00002   0.00002   0.70520
    A2        1.52006   0.00000   0.00000   0.00000   0.00000   1.52006
    A3        2.61261  -0.00000   0.00000  -0.00001  -0.00001   2.61260
    A4        1.76994  -0.00000   0.00000  -0.00005  -0.00005   1.76989
    A5        1.56669  -0.00000   0.00000   0.00000   0.00000   1.56669
    A6        1.52163   0.00000   0.00000   0.00001   0.00001   1.52164
    A7        1.91440  -0.00000   0.00000  -0.00003  -0.00003   1.91438
    A8        2.46668  -0.00000   0.00000  -0.00003  -0.00003   2.46665
    A9        1.58959  -0.00000   0.00000   0.00000   0.00000   1.58959
   A10        1.50598   0.00000   0.00000  -0.00001  -0.00001   1.50597
   A11        1.47094  -0.00001   0.00000  -0.00002  -0.00002   1.47092
   A12        1.87266   0.00000   0.00000   0.00005   0.00005   1.87271
   A13        1.69197  -0.00000   0.00000   0.00001   0.00001   1.69198
   A14        1.66448   0.00000   0.00000   0.00001   0.00001   1.66449
   A15        2.14531  -0.00000   0.00000  -0.00000  -0.00000   2.14531
   A16        2.05361   0.00000   0.00000   0.00001   0.00001   2.05362
   A17        2.08422   0.00000   0.00000  -0.00000  -0.00000   2.08422
   A18        2.00191  -0.00000   0.00000  -0.00000  -0.00000   2.00191
   A19        1.86596   0.00000   0.00000  -0.00000  -0.00000   1.86596
   A20        1.85869   0.00000   0.00000   0.00000   0.00000   1.85869
   A21        1.94578   0.00000   0.00000   0.00000   0.00000   1.94579
   A22        1.94388   0.00000   0.00000   0.00000   0.00000   1.94389
   A23        1.83759  -0.00000   0.00000  -0.00000  -0.00000   1.83759
   A24        1.92410   0.00000   0.00000   0.00000   0.00000   1.92411
   A25        1.94491  -0.00000   0.00000  -0.00000  -0.00000   1.94491
   A26        1.94184  -0.00000   0.00000  -0.00000  -0.00000   1.94184
   A27        1.88695   0.00000   0.00000   0.00000   0.00000   1.88695
   A28        1.88859  -0.00000   0.00000   0.00000   0.00000   1.88859
   A29        1.87530  -0.00000   0.00000  -0.00000  -0.00000   1.87530
   A30        2.02930   0.00000   0.00000   0.00002   0.00002   2.02932
   A31        2.02255  -0.00000   0.00000  -0.00006  -0.00006   2.02249
   A32        1.99166  -0.00000   0.00000   0.00000   0.00000   1.99166
   A33        1.78774  -0.00000   0.00000   0.00001   0.00001   1.78775
   A34        1.80219   0.00000   0.00000   0.00003   0.00003   1.80222
   A35        1.79889   0.00000   0.00000   0.00000   0.00000   1.79889
   A36        1.91264  -0.00000   0.00000   0.00000   0.00000   1.91264
   A37        1.91114  -0.00000   0.00000  -0.00000  -0.00000   1.91114
   A38        1.94302   0.00000   0.00000   0.00000   0.00000   1.94302
   A39        1.89066   0.00000   0.00000  -0.00000  -0.00000   1.89066
   A40        1.90100   0.00000   0.00000   0.00000   0.00000   1.90101
   A41        1.90459  -0.00000   0.00000  -0.00000  -0.00000   1.90459
   A42        1.90918   0.00000   0.00000  -0.00000  -0.00000   1.90918
   A43        1.91464  -0.00000   0.00000  -0.00001  -0.00001   1.91463
   A44        1.93902   0.00000   0.00000   0.00001   0.00001   1.93903
   A45        1.89540   0.00000   0.00000  -0.00001  -0.00001   1.89540
   A46        1.90654  -0.00000   0.00000   0.00000   0.00000   1.90654
   A47        1.89850   0.00000   0.00000  -0.00000  -0.00000   1.89850
   A48        1.90371   0.00000   0.00000   0.00000   0.00000   1.90371
   A49        1.94972   0.00000   0.00000   0.00001   0.00001   1.94972
   A50        1.89543  -0.00000   0.00000  -0.00004  -0.00004   1.89538
   A51        1.90810  -0.00000   0.00000   0.00000   0.00000   1.90810
   A52        1.89010   0.00000   0.00000   0.00001   0.00001   1.89011
   A53        1.91579   0.00000   0.00000   0.00002   0.00002   1.91581
   A54        3.08675   0.00000   0.00000   0.00001   0.00001   3.08676
   A55        3.12278   0.00000   0.00000   0.00001   0.00001   3.12279
   A56        3.14510  -0.00000   0.00000  -0.00000  -0.00000   3.14509
   A57        3.15916   0.00000   0.00000   0.00001   0.00001   3.15917
   A58        3.15225   0.00000   0.00000   0.00003   0.00003   3.15228
   A59        3.12117   0.00000   0.00000   0.00001   0.00001   3.12117
    D1        2.93893  -0.00000   0.00000  -0.00021  -0.00021   2.93873
    D2       -0.19315   0.00000   0.00000  -0.00021  -0.00021  -0.19336
    D3       -2.63815  -0.00000   0.00000  -0.00019  -0.00019  -2.63834
    D4        0.51295  -0.00000   0.00000  -0.00019  -0.00019   0.51276
    D5       -0.71917  -0.00000   0.00000  -0.00022  -0.00022  -0.71938
    D6        2.43194  -0.00000   0.00000  -0.00022  -0.00022   2.43172
    D7        1.16253   0.00000   0.00000  -0.00016  -0.00016   1.16237
    D8       -1.96955   0.00000   0.00000  -0.00017  -0.00017  -1.96972
    D9        1.42316  -0.00000   0.00000   0.00025   0.00025   1.42340
   D10       -0.67853   0.00000   0.00000   0.00027   0.00027  -0.67826
   D11       -2.76433   0.00000   0.00000   0.00031   0.00031  -2.76402
   D12        1.55656   0.00000   0.00000   0.00025   0.00025   1.55681
   D13       -0.54512   0.00000   0.00000   0.00027   0.00027  -0.54485
   D14       -2.63093   0.00000   0.00000   0.00031   0.00031  -2.63061
   D15        2.92168   0.00000   0.00000   0.00025   0.00025   2.92193
   D16        0.81999   0.00000   0.00000   0.00027   0.00027   0.82026
   D17       -1.26581   0.00000   0.00000   0.00031   0.00031  -1.26550
   D18       -1.89025  -0.00000   0.00000   0.00023   0.00023  -1.89002
   D19        2.29125  -0.00000   0.00000   0.00025   0.00025   2.29150
   D20        0.20544   0.00000   0.00000   0.00029   0.00029   0.20573
   D21       -0.16239  -0.00000   0.00000   0.00025   0.00025  -0.16215
   D22       -2.26408  -0.00000   0.00000   0.00027   0.00027  -2.26381
   D23        1.93330   0.00000   0.00000   0.00031   0.00031   1.93361
   D24        3.10255  -0.00000   0.00000   0.00001   0.00001   3.10256
   D25        0.93589  -0.00000   0.00000   0.00002   0.00002   0.93590
   D26       -1.02192  -0.00000   0.00000   0.00002   0.00002  -1.02191
   D27       -0.02988   0.00000   0.00000   0.00001   0.00001  -0.02987
   D28       -2.19654   0.00000   0.00000   0.00001   0.00001  -2.19653
   D29        2.12883   0.00000   0.00000   0.00001   0.00001   2.12885
   D30        3.13661  -0.00000   0.00000  -0.00002  -0.00002   3.13659
   D31       -1.05127  -0.00000   0.00000  -0.00002  -0.00002  -1.05129
   D32        1.04124  -0.00000   0.00000  -0.00003  -0.00003   1.04122
   D33       -1.02288  -0.00000   0.00000  -0.00003  -0.00003  -1.02291
   D34        1.07243  -0.00000   0.00000  -0.00003  -0.00003   1.07240
   D35       -3.11824  -0.00000   0.00000  -0.00003  -0.00003  -3.11828
   D36        1.02403   0.00000   0.00000  -0.00003  -0.00003   1.02401
   D37        3.11934   0.00000   0.00000  -0.00003  -0.00003   3.11932
   D38       -1.07133  -0.00000   0.00000  -0.00003  -0.00003  -1.07136
   D39        1.04092  -0.00000   0.00000   0.00001   0.00001   1.04092
   D40       -1.03060   0.00000   0.00000   0.00001   0.00001  -1.03059
   D41       -3.13818   0.00000   0.00000   0.00001   0.00001  -3.13817
   D42       -3.01881  -0.00000   0.00000  -0.00005  -0.00005  -3.01886
   D43        1.19286  -0.00000   0.00000  -0.00005  -0.00005   1.19281
   D44       -0.91473  -0.00000   0.00000  -0.00004  -0.00004  -0.91477
   D45       -1.15398   0.00000   0.00000  -0.00003  -0.00003  -1.15402
   D46        3.05769   0.00000   0.00000  -0.00003  -0.00003   3.05766
   D47        0.95010   0.00000   0.00000  -0.00003  -0.00003   0.95007
   D48        1.01950   0.00000   0.00000  -0.00006  -0.00006   1.01943
   D49       -1.05783   0.00000   0.00000  -0.00005  -0.00005  -1.05787
   D50        3.12565   0.00000   0.00000  -0.00005  -0.00005   3.12560
   D51       -1.20826   0.00000   0.00000  -0.00006  -0.00006  -1.20832
   D52        2.99761   0.00000   0.00000  -0.00004  -0.00004   2.99756
   D53        0.89789   0.00000   0.00000  -0.00004  -0.00004   0.89785
   D54       -3.07563  -0.00000   0.00000  -0.00009  -0.00009  -3.07572
   D55        1.13024  -0.00000   0.00000  -0.00008  -0.00008   1.13016
   D56       -0.96948  -0.00000   0.00000  -0.00008  -0.00008  -0.96956
   D57       -1.10840  -0.00000   0.00000  -0.00012  -0.00012  -1.10853
   D58        3.06347  -0.00000   0.00000  -0.00014  -0.00014   3.06333
   D59        0.94808  -0.00000   0.00000  -0.00014  -0.00014   0.94794
   D60        1.11047   0.00000   0.00000  -0.00007  -0.00007   1.11040
   D61       -1.00084  -0.00000   0.00000  -0.00008  -0.00008  -1.00093
   D62       -3.11623  -0.00000   0.00000  -0.00009  -0.00009  -3.11632
   D63        2.96684   0.00000   0.00000  -0.00005  -0.00005   2.96679
   D64        0.85553   0.00000   0.00000  -0.00006  -0.00006   0.85547
   D65       -1.25986   0.00000   0.00000  -0.00007  -0.00007  -1.25993
         Item               Value     Threshold  Converged?
 Maximum Force            0.000005     0.000450     YES
 RMS     Force            0.000001     0.000300     YES
 Maximum Displacement     0.000861     0.001800     YES
 RMS     Displacement     0.000282     0.001200     YES
 Predicted change in Energy=-2.101892D-09
 Optimization completed.
    -- Stationary point found.
                           ----------------------------
                           !   Optimized Parameters   !
                           ! (Angstroms and Degrees)  !
 --------------------------                            --------------------------
 ! Name  Definition              Value          Derivative Info.                !
 --------------------------------------------------------------------------------
 ! R1    R(1,3)                  1.6419         -DE/DX =    0.0                 !
 ! R2    R(2,3)                  1.6379         -DE/DX =    0.0                 !
 ! R3    R(3,4)                  2.0876         -DE/DX =    0.0                 !
 ! R4    R(3,13)                 1.9491         -DE/DX =    0.0                 !
 ! R5    R(3,15)                 2.3777         -DE/DX =    0.0                 !
 ! R6    R(3,28)                 1.9632         -DE/DX =    0.0                 !
 ! R7    R(4,5)                  1.2084         -DE/DX =    0.0                 !
 ! R8    R(4,6)                  1.5266         -DE/DX =    0.0                 !
 ! R9    R(6,7)                  1.5179         -DE/DX =    0.0                 !
 ! R10   R(6,8)                  1.0938         -DE/DX =    0.0                 !
 ! R11   R(6,9)                  1.0935         -DE/DX =    0.0                 !
 ! R12   R(7,10)                 1.0918         -DE/DX =    0.0                 !
 ! R13   R(7,11)                 1.091          -DE/DX =    0.0                 !
 ! R14   R(7,12)                 1.0905         -DE/DX =    0.0                 !
 ! R15   R(13,14)                1.1348         -DE/DX =    0.0                 !
 ! R16   R(15,16)                1.8199         -DE/DX =    0.0                 !
 ! R17   R(15,17)                1.8193         -DE/DX =    0.0                 !
 ! R18   R(15,18)                1.8156         -DE/DX =    0.0                 !
 ! R19   R(16,22)                1.0911         -DE/DX =    0.0                 !
 ! R20   R(16,23)                1.0911         -DE/DX =    0.0                 !
 ! R21   R(16,24)                1.092          -DE/DX =    0.0                 !
 ! R22   R(17,25)                1.0907         -DE/DX =    0.0                 !
 ! R23   R(17,26)                1.0904         -DE/DX =    0.0                 !
 ! R24   R(17,27)                1.0921         -DE/DX =    0.0                 !
 ! R25   R(18,19)                1.0912         -DE/DX =    0.0                 !
 ! R26   R(18,20)                1.0921         -DE/DX =    0.0                 !
 ! R27   R(18,21)                1.0905         -DE/DX =    0.0                 !
 ! R28   R(28,29)                1.1333         -DE/DX =    0.0                 !
 ! A1    A(1,3,2)               40.404          -DE/DX =    0.0                 !
 ! A2    A(1,3,4)               87.0931         -DE/DX =    0.0                 !
 ! A3    A(1,3,13)             149.6917         -DE/DX =    0.0                 !
 ! A4    A(1,3,15)             101.4099         -DE/DX =    0.0                 !
 ! A5    A(1,3,28)              89.7646         -DE/DX =    0.0                 !
 ! A6    A(2,3,4)               87.1833         -DE/DX =    0.0                 !
 ! A7    A(2,3,13)             109.6872         -DE/DX =    0.0                 !
 ! A8    A(2,3,15)             141.3305         -DE/DX =    0.0                 !
 ! A9    A(2,3,28)              91.0767         -DE/DX =    0.0                 !
 ! A10   A(4,3,13)              86.2862         -DE/DX =    0.0                 !
 ! A11   A(4,3,15)              84.2786         -DE/DX =    0.0                 !
 ! A12   A(13,3,15)            107.2952         -DE/DX =    0.0                 !
 ! A13   A(13,3,28)             96.9428         -DE/DX =    0.0                 !
 ! A14   A(15,3,28)             95.3679         -DE/DX =    0.0                 !
 ! A15   A(3,4,5)              122.9172         -DE/DX =    0.0                 !
 ! A16   A(3,4,6)              117.6634         -DE/DX =    0.0                 !
 ! A17   A(5,4,6)              119.4171         -DE/DX =    0.0                 !
 ! A18   A(4,6,7)              114.701          -DE/DX =    0.0                 !
 ! A19   A(4,6,8)              106.9117         -DE/DX =    0.0                 !
 ! A20   A(4,6,9)              106.4952         -DE/DX =    0.0                 !
 ! A21   A(7,6,8)              111.4853         -DE/DX =    0.0                 !
 ! A22   A(7,6,9)              111.3764         -DE/DX =    0.0                 !
 ! A23   A(8,6,9)              105.2864         -DE/DX =    0.0                 !
 ! A24   A(6,7,10)             110.243          -DE/DX =    0.0                 !
 ! A25   A(6,7,11)             111.4351         -DE/DX =    0.0                 !
 ! A26   A(6,7,12)             111.259          -DE/DX =    0.0                 !
 ! A27   A(10,7,11)            108.1142         -DE/DX =    0.0                 !
 ! A28   A(10,7,12)            108.2084         -DE/DX =    0.0                 !
 ! A29   A(11,7,12)            107.4471         -DE/DX =    0.0                 !
 ! A30   A(3,15,16)            116.27           -DE/DX =    0.0                 !
 ! A31   A(3,15,17)            115.8836         -DE/DX =    0.0                 !
 ! A32   A(3,15,18)            114.1136         -DE/DX =    0.0                 !
 ! A33   A(16,15,17)           102.4299         -DE/DX =    0.0                 !
 ! A34   A(16,15,18)           103.2578         -DE/DX =    0.0                 !
 ! A35   A(17,15,18)           103.0685         -DE/DX =    0.0                 !
 ! A36   A(15,16,22)           109.586          -DE/DX =    0.0                 !
 ! A37   A(15,16,23)           109.5001         -DE/DX =    0.0                 !
 ! A38   A(15,16,24)           111.3271         -DE/DX =    0.0                 !
 ! A39   A(22,16,23)           108.3268         -DE/DX =    0.0                 !
 ! A40   A(22,16,24)           108.9195         -DE/DX =    0.0                 !
 ! A41   A(23,16,24)           109.1251         -DE/DX =    0.0                 !
 ! A42   A(15,17,25)           109.3882         -DE/DX =    0.0                 !
 ! A43   A(15,17,26)           109.7008         -DE/DX =    0.0                 !
 ! A44   A(15,17,27)           111.0975         -DE/DX =    0.0                 !
 ! A45   A(25,17,26)           108.5985         -DE/DX =    0.0                 !
 ! A46   A(25,17,27)           109.2364         -DE/DX =    0.0                 !
 ! A47   A(26,17,27)           108.7763         -DE/DX =    0.0                 !
 ! A48   A(15,18,19)           109.0744         -DE/DX =    0.0                 !
 ! A49   A(15,18,20)           111.7106         -DE/DX =    0.0                 !
 ! A50   A(15,18,21)           108.5999         -DE/DX =    0.0                 !
 ! A51   A(19,18,20)           109.3259         -DE/DX =    0.0                 !
 ! A52   A(19,18,21)           108.2949         -DE/DX =    0.0                 !
 ! A53   A(20,18,21)           109.7667         -DE/DX =    0.0                 !
 ! A54   L(4,3,28,1,-1)        176.8577         -DE/DX =    0.0                 !
 ! A55   L(3,13,14,5,-1)       178.9222         -DE/DX =    0.0                 !
 ! A56   L(3,28,29,16,-1)      180.2008         -DE/DX =    0.0                 !
 ! A57   L(4,3,28,1,-2)        181.0064         -DE/DX =    0.0                 !
 ! A58   L(3,13,14,5,-2)       180.6108         -DE/DX =    0.0                 !
 ! A59   L(3,28,29,16,-2)      178.8297         -DE/DX =    0.0                 !
 ! D1    D(1,3,4,5)            168.3885         -DE/DX =    0.0                 !
 ! D2    D(1,3,4,6)            -11.0666         -DE/DX =    0.0                 !
 ! D3    D(2,3,4,5)           -151.1549         -DE/DX =    0.0                 !
 ! D4    D(2,3,4,6)             29.39           -DE/DX =    0.0                 !
 ! D5    D(13,3,4,5)           -41.2052         -DE/DX =    0.0                 !
 ! D6    D(13,3,4,6)           139.3397         -DE/DX =    0.0                 !
 ! D7    D(15,3,4,5)            66.6081         -DE/DX =    0.0                 !
 ! D8    D(15,3,4,6)          -112.847          -DE/DX =    0.0                 !
 ! D9    D(1,3,15,16)           81.5408         -DE/DX =    0.0                 !
 ! D10   D(1,3,15,17)          -38.8766         -DE/DX =    0.0                 !
 ! D11   D(1,3,15,18)         -158.3846         -DE/DX =    0.0                 !
 ! D12   D(2,3,15,16)           89.1844         -DE/DX =    0.0                 !
 ! D13   D(2,3,15,17)          -31.233          -DE/DX =    0.0                 !
 ! D14   D(2,3,15,18)         -150.741          -DE/DX =    0.0                 !
 ! D15   D(4,3,15,16)          167.3997         -DE/DX =    0.0                 !
 ! D16   D(4,3,15,17)           46.9822         -DE/DX =    0.0                 !
 ! D17   D(4,3,15,18)          -72.5258         -DE/DX =    0.0                 !
 ! D18   D(13,3,15,16)        -108.3036         -DE/DX =    0.0                 !
 ! D19   D(13,3,15,17)         131.2789         -DE/DX =    0.0                 !
 ! D20   D(13,3,15,18)          11.7709         -DE/DX =    0.0                 !
 ! D21   D(28,3,15,16)          -9.3045         -DE/DX =    0.0                 !
 ! D22   D(28,3,15,17)        -129.722          -DE/DX =    0.0                 !
 ! D23   D(28,3,15,18)         110.77           -DE/DX =    0.0                 !
 ! D24   D(3,4,6,7)            177.7628         -DE/DX =    0.0                 !
 ! D25   D(3,4,6,8)             53.6223         -DE/DX =    0.0                 !
 ! D26   D(3,4,6,9)            -58.5519         -DE/DX =    0.0                 !
 ! D27   D(5,4,6,7)             -1.7121         -DE/DX =    0.0                 !
 ! D28   D(5,4,6,8)           -125.8526         -DE/DX =    0.0                 !
 ! D29   D(5,4,6,9)            121.9732         -DE/DX =    0.0                 !
 ! D30   D(4,6,7,10)           179.7145         -DE/DX =    0.0                 !
 ! D31   D(4,6,7,11)           -60.2332         -DE/DX =    0.0                 !
 ! D32   D(4,6,7,12)            59.6589         -DE/DX =    0.0                 !
 ! D33   D(8,6,7,10)           -58.6067         -DE/DX =    0.0                 !
 ! D34   D(8,6,7,11)            61.4456         -DE/DX =    0.0                 !
 ! D35   D(8,6,7,12)          -178.6623         -DE/DX =    0.0                 !
 ! D36   D(9,6,7,10)            58.6729         -DE/DX =    0.0                 !
 ! D37   D(9,6,7,11)           178.7251         -DE/DX =    0.0                 !
 ! D38   D(9,6,7,12)           -61.3827         -DE/DX =    0.0                 !
 ! D39   D(3,15,16,22)          59.6401         -DE/DX =    0.0                 !
 ! D40   D(3,15,16,23)         -59.0489         -DE/DX =    0.0                 !
 ! D41   D(3,15,16,24)        -179.8046         -DE/DX =    0.0                 !
 ! D42   D(17,15,16,22)       -172.9653         -DE/DX =    0.0                 !
 ! D43   D(17,15,16,23)         68.3457         -DE/DX =    0.0                 !
 ! D44   D(17,15,16,24)        -52.41           -DE/DX =    0.0                 !
 ! D45   D(18,15,16,22)        -66.1184         -DE/DX =    0.0                 !
 ! D46   D(18,15,16,23)        175.1926         -DE/DX =    0.0                 !
 ! D47   D(18,15,16,24)         54.4369         -DE/DX =    0.0                 !
 ! D48   D(3,15,17,25)          58.4128         -DE/DX =    0.0                 !
 ! D49   D(3,15,17,26)         -60.609          -DE/DX =    0.0                 !
 ! D50   D(3,15,17,27)         179.0863         -DE/DX =    0.0                 !
 ! D51   D(16,15,17,25)        -69.2281         -DE/DX =    0.0                 !
 ! D52   D(16,15,17,26)        171.7502         -DE/DX =    0.0                 !
 ! D53   D(16,15,17,27)         51.4455         -DE/DX =    0.0                 !
 ! D54   D(18,15,17,25)       -176.2205         -DE/DX =    0.0                 !
 ! D55   D(18,15,17,26)         64.7578         -DE/DX =    0.0                 !
 ! D56   D(18,15,17,27)        -55.5469         -DE/DX =    0.0                 !
 ! D57   D(3,15,18,19)         -63.5069         -DE/DX =    0.0                 !
 ! D58   D(3,15,18,20)         175.5237         -DE/DX =    0.0                 !
 ! D59   D(3,15,18,21)          54.3209         -DE/DX =    0.0                 !
 ! D60   D(16,15,18,19)         63.6253         -DE/DX =    0.0                 !
 ! D61   D(16,15,18,20)        -57.3441         -DE/DX =    0.0                 !
 ! D62   D(16,15,18,21)       -178.5469         -DE/DX =    0.0                 !
 ! D63   D(17,15,18,19)        169.9877         -DE/DX =    0.0                 !
 ! D64   D(17,15,18,20)         49.0183         -DE/DX =    0.0                 !
 ! D65   D(17,15,18,21)        -72.1845         -DE/DX =    0.0                 !
 --------------------------------------------------------------------------------
 Largest change from initial coordinates is atom   14       0.011 Angstoms.
 GradGradGradGradGradGradGradGradGradGradGradGradGradGradGradGradGradGrad

 Leave Link  103 at Tue Oct  4 22:43:44 2022, MaxMem=  2952790016 cpu:               0.6 elap:               0.1
 (Enter /mnt/data/applications/G16/g16/l202.exe)
                          Input orientation:                          
 ---------------------------------------------------------------------
 Center     Atomic      Atomic             Coordinates (Angstroms)
 Number     Number       Type             X           Y           Z
 ---------------------------------------------------------------------
      1          1           0        0.139817   -0.630008   -1.938837
      2          1           0        0.302498   -1.686078   -1.563311
      3         45           0       -0.276061   -0.744273   -0.354646
      4          6           0        1.708756   -0.274731    0.090547
      5          8           0        2.081645    0.013652    1.203178
      6          6           0        2.715355   -0.290437   -1.057066
      7          6           0        4.126324    0.112371   -0.668737
      8          1           0        2.314643    0.359024   -1.840699
      9          1           0        2.690487   -1.299309   -1.478081
     10          1           0        4.784070    0.071110   -1.539217
     11          1           0        4.155579    1.127232   -0.269265
     12          1           0        4.530832   -0.551705    0.095772
     13          6           0       -0.280331   -1.748658    1.315722
     14          8           0       -0.258660   -2.332091    2.288794
     15         15           0       -0.687563    1.533508    0.189106
     16          6           0       -2.321707    2.189031   -0.271343
     17          6           0        0.445183    2.745484   -0.557801
     18          6           0       -0.574670    1.904783    1.962749
     19          1           0       -1.351516    1.351622    2.493014
     20          1           0       -0.692370    2.972404    2.160303
     21          1           0        0.395869    1.566967    2.327755
     22          1           0       -3.101316    1.611667    0.227922
     23          1           0       -2.461646    2.094207   -1.349255
     24          1           0       -2.422561    3.238908    0.011534
     25          1           0        0.405561    2.656544   -1.644155
     26          1           0        1.465636    2.545829   -0.229516
     27          1           0        0.176340    3.764102   -0.270148
     28          6           0       -2.125415   -1.145295   -0.877416
     29          8           0       -3.186608   -1.376365   -1.201338
 ---------------------------------------------------------------------
                    Distance matrix (angstroms):
                    1          2          3          4          5
     1  H    0.000000
     2  H    1.132594   0.000000
     3  Rh   1.641850   1.637864   0.000000
     4  C    2.589631   2.589345   2.087621   0.000000
     5  O    3.749300   3.702419   2.925754   1.208370   0.000000
     6  C    2.743397   2.833016   3.106112   1.526600   2.367016
     7  C    4.249296   4.319297   4.495941   2.563396   2.773901
     8  H    2.391168   2.882380   3.183922   2.120957   3.072256
     9  H    2.676971   2.420608   3.220337   2.115218   3.046917
    10  H    4.713846   4.813810   5.260511   3.497613   3.850602
    11  H    4.690597   4.943227   4.811366   2.842870   2.776572
    12  H    4.840121   4.681684   4.831788   2.835640   2.746725
    13  C    3.466995   2.938101   1.949086   2.762242   2.949124
    14  O    4.574793   3.946003   3.083706   3.596629   3.486846
    15  P    3.145393   3.796962   2.377664   3.003629   3.317652
    16  C    4.097147   4.855112   3.577133   4.737691   5.127962
    17  C    3.659843   4.546444   3.569295   3.337464   3.638950
    18  C    4.707231   5.108503   3.532277   3.670075   3.348034
    19  H    5.078605   5.330774   3.695746   4.216886   3.903899
    20  H    5.520223   6.046199   4.506880   4.537971   4.167189
    21  H    4.805837   5.072614   3.603969   3.181293   2.553292
    22  H    4.497209   5.066517   3.724501   5.168574   5.510704
    23  H    3.812685   4.687950   3.717930   5.007709   5.611160
    24  H    5.033710   5.844791   4.539524   5.423991   5.666583
    25  H    3.310420   4.344598   3.700405   3.646901   4.231010
    26  H    3.842592   4.587040   3.724773   2.849054   2.973887
    27  H    4.700431   5.602914   4.531804   4.334809   4.457213
    28  C    2.554096   2.580244   1.963216   4.049160   4.834395
    29  O    3.487988   3.521479   3.096404   5.181424   5.955530
                    6          7          8          9         10
     6  C    0.000000
     7  C    1.517856   0.000000
     8  H    1.093824   2.171755   0.000000
     9  H    1.093478   2.170140   1.738626   0.000000
    10  H    2.154707   1.091819   2.504367   2.502973   0.000000
    11  H    2.169023   1.091043   2.539408   3.081531   1.767250
    12  H    2.166392   1.090458   3.080721   2.534323   1.767828
    13  C    4.090314   5.178814   4.597739   4.102804   6.091830
    14  O    4.920152   5.826703   5.560279   4.894226   6.771866
    15  P    4.057040   5.092056   3.809561   4.713341   5.921526
    16  C    5.668961   6.785834   5.225662   6.224694   7.522310
    17  C    3.823580   4.527293   3.291792   4.716847   5.190510
    18  C    4.976197   5.677746   5.020330   5.724226   6.658995
    19  H    5.642594   6.445086   5.762555   6.255782   7.452785
    20  H    5.710534   6.277186   5.646229   6.552029   7.217711
    21  H    4.504107   5.001111   4.745190   5.288213   6.037166
    22  H    6.253228   7.435769   5.931350   6.702925   8.226506
    23  H    5.707298   6.913185   5.105420   6.170658   7.525251
    24  H    6.324268   7.288751   5.845135   6.996972   8.023422
    25  H    3.790056   4.611761   2.993630   4.571350   5.085944
    26  H    3.207966   3.632340   2.845846   4.224247   4.341838
    27  H    4.848208   5.394106   4.316656   5.780844   6.039859
    28  C    4.918954   6.380400   4.785917   4.855659   7.046885
    29  O    6.002768   7.481910   5.803802   5.884111   8.108085
                   11         12         13         14         15
    11  H    0.000000
    12  H    1.758664   0.000000
    13  C    5.519078   5.105709   0.000000
    14  O    6.164097   5.560428   1.134783   0.000000
    15  P    4.881719   5.620362   3.493954   4.419899   0.000000
    16  C    6.563737   7.389431   4.710773   5.590260   1.819931
    17  C    4.058205   5.290665   4.922781   5.863468   1.819304
    18  C    5.287885   5.965408   3.721950   4.261135   1.815599
    19  H    6.165114   6.631097   3.484995   3.847828   2.404560
    20  H    5.728008   6.630496   4.813681   5.323747   2.440505
    21  H    4.590566   5.154458   3.531972   3.953806   2.397658
    22  H    7.290020   7.933935   4.520293   5.280257   2.415330
    23  H    6.774149   7.614704   5.160218   6.138458   2.414189
    24  H    6.914474   7.919945   5.582640   6.395655   2.439291
    25  H    4.276886   5.508001   5.351367   6.387156   2.411840
    26  H    3.041347   4.369892   4.886592   5.754058   2.415844
    27  H    4.773617   6.141798   5.754481   6.625781   2.435732
    28  C    6.707094   6.753152   2.928862   3.862401   3.221937
    29  O    7.813096   7.869018   3.862724   4.654816   4.079942
                   16         17         18         19         20
    16  C    0.000000
    17  C    2.836790   0.000000
    18  C    2.850281   2.846058   0.000000
    19  H    3.046997   3.805056   1.091173   0.000000
    20  H    3.030068   2.955268   1.092106   1.781041   0.000000
    21  H    3.811495   3.117334   1.090548   1.768343   1.785374
    22  H    1.091057   3.805333   3.078877   2.874033   3.374718
    23  H    1.091087   3.082242   3.816534   4.067782   4.027229
    24  H    1.091985   2.965058   3.000305   3.296472   2.771605
    25  H    3.088878   1.090709   3.812578   4.680417   3.972295
    26  H    3.804342   1.090393   3.062648   4.095686   3.248106
    27  H    2.953148   1.092064   3.001152   3.973597   2.699729
    28  C    3.394641   4.674215   4.446833   4.265362   5.313832
    29  O    3.784838   5.531156   5.253532   4.945473   6.036029
                   21         22         23         24         25
    21  H    0.000000
    22  H    4.079412   0.000000
    23  H    4.686553   1.769042   0.000000
    24  H    4.012956   1.776357   1.778656   0.000000
    25  H    4.118658   4.110307   2.936676   3.328472   0.000000
    26  H    2.939764   4.683904   4.108689   3.956835   1.771220
    27  H    3.409501   3.952731   3.303331   2.666357   1.779640
    28  C    4.897587   3.126499   3.290906   4.483277   4.631167
    29  O    5.826821   3.313366   3.548566   4.832760   5.418867
                   26         27         28         29
    26  H    0.000000
    27  H    1.774295   0.000000
    28  C    5.190358   5.456100   0.000000
    29  O    6.162095   6.212965   1.133336   0.000000
 Stoichiometry    C8H16O3PRh
 Framework group  C1[X(C8H16O3PRh)]
 Deg. of freedom    81
 Full point group                 C1      NOp   1
 RotChk:  IX=0 Diff= 1.05D-15
 Largest Abelian subgroup         C1      NOp   1
 Largest concise Abelian subgroup C1      NOp   1
                         Standard orientation:                         
 ---------------------------------------------------------------------
 Center     Atomic      Atomic             Coordinates (Angstroms)
 Number     Number       Type             X           Y           Z
 ---------------------------------------------------------------------
      1          1           0        0.136590   -0.627303   -1.940347
      2          1           0        0.299354   -1.684144   -1.567033
      3         45           0       -0.276206   -0.744139   -0.355538
      4          6           0        1.709787   -0.276636    0.086540
      5          8           0        2.085071    0.009525    1.198939
      6          6           0        2.714091   -0.290920   -1.063103
      7          6           0        4.126083    0.110311   -0.676865
      8          1           0        2.312228    0.360192   -1.844774
      9          1           0        2.687750   -1.299022   -1.485868
     10          1           0        4.782069    0.070194   -1.548726
     11          1           0        4.156771    1.124438   -0.275640
     12          1           0        4.531694   -0.555384    0.085649
     13          6           0       -0.277784   -1.751506    1.313038
     14          8           0       -0.254543   -2.336691    2.285021
     15         15           0       -0.685192    1.532923    0.193100
     16          6           0       -2.319836    2.190290   -0.262922
     17          6           0        0.446827    2.745523   -0.553895
     18          6           0       -0.568536    1.900956    1.967175
     19          1           0       -1.344673    1.347334    2.497997
     20          1           0       -0.685171    2.968296    2.166870
     21          1           0        0.402515    1.561881    2.329644
     22          1           0       -3.098814    1.612522    0.236862
     23          1           0       -2.461981    2.097481   -1.340721
     24          1           0       -2.419467    3.239723    0.022030
     25          1           0        0.404987    2.658550   -1.640325
     26          1           0        1.467806    2.544644   -0.228000
     27          1           0        0.179198    3.763793   -0.263889
     28          6           0       -2.126849   -1.143070   -0.875340
     29          8           0       -3.188830   -1.372896   -1.197560
 ---------------------------------------------------------------------
 Rotational constants (GHZ):           0.6063483           0.4640024           0.3699308
 Leave Link  202 at Tue Oct  4 22:43:44 2022, MaxMem=  2952790016 cpu:               0.1 elap:               0.0
 (Enter /mnt/data/applications/G16/g16/l601.exe)
 Copying SCF densities to generalized density rwf, IOpCl= 0 IROHF=0.

 **********************************************************************

            Population analysis using the SCF density.

 **********************************************************************

 Orbital symmetries:
       Occupied  (A) (A) (A) (A) (A) (A) (A) (A) (A) (A) (A) (A)
                 (A) (A) (A) (A) (A) (A) (A) (A) (A) (A) (A) (A)
                 (A) (A) (A) (A) (A) (A) (A) (A) (A) (A) (A) (A)
                 (A) (A) (A) (A) (A) (A) (A) (A) (A) (A) (A) (A)
                 (A) (A) (A) (A) (A) (A) (A) (A) (A) (A) (A) (A)
       Virtual   (A) (A) (A) (A) (A) (A) (A) (A) (A) (A) (A) (A)
                 (A) (A) (A) (A) (A) (A) (A) (A) (A) (A) (A) (A)
                 (A) (A) (A) (A) (A) (A) (A) (A) (A) (A) (A) (A)
                 (A) (A) (A) (A) (A) (A) (A) (A) (A) (A) (A) (A)
                 (A) (A) (A) (A) (A) (A) (A) (A) (A) (A) (A) (A)
                 (A) (A) (A) (A) (A) (A) (A) (A) (A) (A) (A) (A)
                 (A) (A) (A) (A) (A) (A) (A) (A) (A) (A) (A) (A)
                 (A) (A) (A) (A) (A) (A) (A) (A) (A) (A) (A) (A)
                 (A) (A) (A) (A) (A) (A) (A) (A) (A) (A) (A) (A)
                 (A) (A) (A) (A) (A) (A) (A) (A) (A) (A) (A) (A)
                 (A) (A) (A) (A) (A) (A) (A) (A) (A) (A) (A) (A)
                 (A) (A) (A) (A) (A) (A) (A) (A) (A) (A) (A) (A)
                 (A) (A) (A) (A) (A) (A) (A) (A) (A) (A) (A) (A)
                 (A) (A) (A) (A) (A) (A) (A) (A) (A) (A) (A) (A)
                 (A) (A) (A) (A) (A) (A) (A) (A) (A) (A) (A) (A)
                 (A) (A) (A) (A) (A) (A) (A) (A) (A) (A) (A) (A)
                 (A) (A) (A) (A) (A) (A) (A) (A) (A) (A) (A) (A)
                 (A) (A) (A) (A) (A) (A) (A) (A) (A) (A) (A) (A)
                 (A) (A) (A) (A) (A) (A) (A) (A) (A) (A) (A) (A)
                 (A) (A) (A) (A) (A) (A) (A) (A) (A) (A) (A) (A)
                 (A) (A) (A) (A) (A) (A) (A) (A) (A) (A) (A) (A)
                 (A) (A) (A) (A) (A) (A) (A) (A) (A) (A) (A) (A)
                 (A) (A) (A) (A) (A) (A) (A) (A) (A) (A) (A) (A)
                 (A) (A) (A) (A) (A) (A) (A) (A) (A) (A) (A) (A)
                 (A) (A) (A) (A) (A) (A) (A) (A) (A) (A) (A) (A)
                 (A) (A) (A) (A) (A) (A) (A) (A) (A) (A) (A) (A)
                 (A) (A) (A) (A) (A) (A) (A) (A) (A) (A) (A) (A)
                 (A) (A) (A) (A) (A) (A) (A) (A) (A) (A) (A) (A)
                 (A) (A) (A) (A) (A) (A) (A) (A) (A) (A) (A) (A)
                 (A) (A) (A) (A) (A) (A) (A) (A) (A) (A) (A) (A)
                 (A) (A) (A) (A) (A) (A) (A) (A) (A) (A) (A) (A)
                 (A) (A) (A) (A) (A) (A) (A) (A) (A) (A) (A) (A)
                 (A) (A) (A) (A) (A) (A) (A) (A) (A) (A) (A) (A)
                 (A) (A) (A) (A) (A) (A) (A) (A) (A) (A) (A) (A)
                 (A) (A) (A) (A) (A) (A) (A) (A) (A) (A) (A) (A)
                 (A) (A) (A) (A) (A) (A) (A) (A) (A) (A) (A) (A)
                 (A) (A) (A) (A) (A) (A) (A) (A) (A) (A) (A) (A)
                 (A) (A) (A) (A) (A) (A)
 The electronic state is 1-A.
 Alpha  occ. eigenvalues --  -77.24277 -19.33789 -19.32404 -19.22437 -10.41566
 Alpha  occ. eigenvalues --  -10.40379 -10.35576 -10.28635 -10.28419 -10.27916
 Alpha  occ. eigenvalues --  -10.27476 -10.26098  -6.68636  -4.83332  -4.83308
 Alpha  occ. eigenvalues --   -4.83028  -3.36755  -2.11948  -2.11508  -2.10249
 Alpha  occ. eigenvalues --   -1.25382  -1.23949  -1.13097  -0.88078  -0.86307
 Alpha  occ. eigenvalues --   -0.80071  -0.79719  -0.73776  -0.67412  -0.65814
 Alpha  occ. eigenvalues --   -0.64179  -0.60372  -0.57568  -0.56374  -0.56313
 Alpha  occ. eigenvalues --   -0.55446  -0.55130  -0.54784  -0.54483  -0.53267
 Alpha  occ. eigenvalues --   -0.52645  -0.52485  -0.52253  -0.51585  -0.49717
 Alpha  occ. eigenvalues --   -0.49313  -0.48709  -0.47674  -0.45536  -0.44415
 Alpha  occ. eigenvalues --   -0.42820  -0.42547  -0.42299  -0.41644  -0.40724
 Alpha  occ. eigenvalues --   -0.37102  -0.36108  -0.32405  -0.29652  -0.28458
 Alpha virt. eigenvalues --    0.04353   0.05343   0.06181   0.06512   0.06834
 Alpha virt. eigenvalues --    0.07233   0.07665   0.08206   0.08423   0.08938
 Alpha virt. eigenvalues --    0.10696   0.12604   0.13494   0.13622   0.15194
 Alpha virt. eigenvalues --    0.16109   0.16846   0.17178   0.17510   0.18549
 Alpha virt. eigenvalues --    0.19136   0.19424   0.19739   0.20395   0.20964
 Alpha virt. eigenvalues --    0.21173   0.21643   0.21883   0.23089   0.23468
 Alpha virt. eigenvalues --    0.24409   0.24639   0.25681   0.26437   0.26499
 Alpha virt. eigenvalues --    0.27272   0.27618   0.28405   0.28996   0.29615
 Alpha virt. eigenvalues --    0.30771   0.31190   0.32177   0.33280   0.34191
 Alpha virt. eigenvalues --    0.34631   0.35577   0.36403   0.38115   0.38625
 Alpha virt. eigenvalues --    0.40058   0.41202   0.42012   0.42574   0.42933
 Alpha virt. eigenvalues --    0.44821   0.45325   0.45823   0.46013   0.47047
 Alpha virt. eigenvalues --    0.47455   0.48243   0.48694   0.49524   0.49972
 Alpha virt. eigenvalues --    0.50674   0.51468   0.51779   0.52056   0.52510
 Alpha virt. eigenvalues --    0.52857   0.53555   0.54332   0.54649   0.54858
 Alpha virt. eigenvalues --    0.55338   0.55699   0.56149   0.56577   0.57390
 Alpha virt. eigenvalues --    0.57753   0.59230   0.59351   0.59803   0.60363
 Alpha virt. eigenvalues --    0.60972   0.61966   0.62670   0.63444   0.64217
 Alpha virt. eigenvalues --    0.64653   0.66052   0.66249   0.67763   0.68529
 Alpha virt. eigenvalues --    0.69563   0.69902   0.70428   0.71796   0.72475
 Alpha virt. eigenvalues --    0.73458   0.75001   0.75677   0.76417   0.77611
 Alpha virt. eigenvalues --    0.78465   0.79577   0.80392   0.81636   0.82883
 Alpha virt. eigenvalues --    0.84244   0.84867   0.85495   0.86499   0.87601
 Alpha virt. eigenvalues --    0.88978   0.89917   0.92051   0.92880   0.93418
 Alpha virt. eigenvalues --    0.94244   0.96017   0.96935   0.97773   0.98347
 Alpha virt. eigenvalues --    0.99055   1.00134   1.01389   1.03085   1.03401
 Alpha virt. eigenvalues --    1.04087   1.06314   1.08030   1.08967   1.09850
 Alpha virt. eigenvalues --    1.10542   1.12672   1.13373   1.13872   1.14267
 Alpha virt. eigenvalues --    1.15357   1.16587   1.18054   1.18658   1.19496
 Alpha virt. eigenvalues --    1.20520   1.21394   1.21979   1.23418   1.25216
 Alpha virt. eigenvalues --    1.26883   1.29100   1.31397   1.31595   1.35708
 Alpha virt. eigenvalues --    1.37652   1.43962   1.47474   1.47694   1.50187
 Alpha virt. eigenvalues --    1.50392   1.52544   1.53405   1.54588   1.55365
 Alpha virt. eigenvalues --    1.55691   1.56874   1.58091   1.58840   1.59561
 Alpha virt. eigenvalues --    1.59885   1.60763   1.61345   1.61830   1.62234
 Alpha virt. eigenvalues --    1.62591   1.63577   1.63803   1.64199   1.64704
 Alpha virt. eigenvalues --    1.65329   1.65994   1.66257   1.66400   1.66903
 Alpha virt. eigenvalues --    1.67763   1.68228   1.68948   1.69876   1.70604
 Alpha virt. eigenvalues --    1.71192   1.71795   1.72879   1.73118   1.74110
 Alpha virt. eigenvalues --    1.74382   1.75561   1.76495   1.78332   1.79493
 Alpha virt. eigenvalues --    1.81374   1.82540   1.84054   1.86056   1.89385
 Alpha virt. eigenvalues --    1.90091   1.93342   1.95117   1.96150   1.97412
 Alpha virt. eigenvalues --    1.98335   1.99319   2.00444   2.01811   2.03868
 Alpha virt. eigenvalues --    2.04567   2.05807   2.07097   2.10063   2.10743
 Alpha virt. eigenvalues --    2.11013   2.11805   2.13422   2.14337   2.15922
 Alpha virt. eigenvalues --    2.16288   2.17229   2.18064   2.19089   2.20505
 Alpha virt. eigenvalues --    2.21246   2.24164   2.25955   2.26476   2.27223
 Alpha virt. eigenvalues --    2.30092   2.31958   2.33140   2.35391   2.35969
 Alpha virt. eigenvalues --    2.37799   2.39761   2.40266   2.41293   2.42025
 Alpha virt. eigenvalues --    2.43244   2.43967   2.45060   2.45388   2.47047
 Alpha virt. eigenvalues --    2.48449   2.49783   2.51286   2.52551   2.54671
 Alpha virt. eigenvalues --    2.55785   2.56738   2.57195   2.59343   2.60073
 Alpha virt. eigenvalues --    2.61750   2.63225   2.64196   2.65789   2.66481
 Alpha virt. eigenvalues --    2.67198   2.68246   2.69144   2.69983   2.70720
 Alpha virt. eigenvalues --    2.71340   2.72449   2.74392   2.74622   2.74863
 Alpha virt. eigenvalues --    2.75561   2.76329   2.77951   2.79772   2.80897
 Alpha virt. eigenvalues --    2.84825   2.86306   2.86814   2.88098   2.89975
 Alpha virt. eigenvalues --    2.90795   2.91525   2.92434   2.93069   2.93947
 Alpha virt. eigenvalues --    2.94790   2.96848   2.98184   2.99143   2.99635
 Alpha virt. eigenvalues --    3.01243   3.01893   3.02985   3.04860   3.05731
 Alpha virt. eigenvalues --    3.06333   3.09386   3.10505   3.11190   3.13242
 Alpha virt. eigenvalues --    3.14086   3.14547   3.15036   3.16815   3.17468
 Alpha virt. eigenvalues --    3.18347   3.19455   3.20539   3.21271   3.22251
 Alpha virt. eigenvalues --    3.23536   3.23821   3.24322   3.25300   3.27115
 Alpha virt. eigenvalues --    3.27405   3.29014   3.30269   3.31161   3.31474
 Alpha virt. eigenvalues --    3.34063   3.35520   3.36202   3.37552   3.38778
 Alpha virt. eigenvalues --    3.39093   3.40218   3.41686   3.41912   3.42935
 Alpha virt. eigenvalues --    3.43694   3.44135   3.45265   3.46633   3.49035
 Alpha virt. eigenvalues --    3.50499   3.52781   3.55099   3.56611   3.57661
 Alpha virt. eigenvalues --    3.60787   3.61559   3.62640   3.63996   3.65558
 Alpha virt. eigenvalues --    3.68401   3.68786   3.69236   3.69772   3.70741
 Alpha virt. eigenvalues --    3.70895   3.71631   3.72331   3.73774   3.74468
 Alpha virt. eigenvalues --    3.75617   3.76529   3.80189   3.81417   3.81765
 Alpha virt. eigenvalues --    3.86059   3.87326   3.91466   3.98110   4.00571
 Alpha virt. eigenvalues --    4.01379   4.02375   4.09126   4.13987   4.19907
 Alpha virt. eigenvalues --    4.29433   4.32623   4.34944   4.35641   4.36563
 Alpha virt. eigenvalues --    4.38538   4.40055   4.40891   4.41611   4.45168
 Alpha virt. eigenvalues --    4.48441   4.50650   4.51537   4.53103   4.55862
 Alpha virt. eigenvalues --    4.61894   4.66184   4.70357   4.94032   4.94726
 Alpha virt. eigenvalues --    5.17863   5.17890   5.19207   5.19332   5.29097
 Alpha virt. eigenvalues --    5.29782   5.57472   5.58004   5.58714   5.60253
 Alpha virt. eigenvalues --    5.64485   5.69538   6.22567   6.29752   6.30925
 Alpha virt. eigenvalues --    6.32069   6.33663   6.34048   6.34192   6.35033
 Alpha virt. eigenvalues --    6.35925   6.42194   6.44708   6.51281   6.56154
 Alpha virt. eigenvalues --    6.63124   6.65342   6.80590   6.80964   6.82011
 Alpha virt. eigenvalues --    6.83439   6.94242   7.11244   7.16661   7.17662
 Alpha virt. eigenvalues --    7.20286   7.80266   7.89994   7.93897  15.68805
 Alpha virt. eigenvalues --   22.42089  22.42219  22.43514  22.46640  22.58865
 Alpha virt. eigenvalues --   22.69077  22.84013  23.17205  38.38406  38.55446
 Alpha virt. eigenvalues --   38.62198  43.92755  43.96219  44.13364  49.78601
          Condensed to atoms (all electrons):
               1          2          3          4          5          6
     1  H    0.617332   0.105367   0.247125  -0.014067   0.000259   0.001915
     2  H    0.105367   0.601809   0.219964   0.000688  -0.000128   0.002726
     3  Rh   0.247125   0.219964  16.006253   0.160863  -0.005348  -0.022133
     4  C   -0.014067   0.000688   0.160863   5.171436   0.476649   0.172838
     5  O    0.000259  -0.000128  -0.005348   0.476649   7.997399  -0.102712
     6  C    0.001915   0.002726  -0.022133   0.172838  -0.102712   5.281518
     7  C    0.001163   0.001126   0.018142  -0.028785   0.025789   0.237050
     8  H   -0.007096  -0.001191  -0.002017  -0.034833   0.001977   0.417839
     9  H   -0.003106  -0.003986  -0.011178  -0.028594   0.000364   0.410002
    10  H   -0.000067  -0.000032  -0.000426   0.011275   0.001022  -0.050907
    11  H    0.000006  -0.000021  -0.000825  -0.006681  -0.000137  -0.029947
    12  H   -0.000024   0.000008   0.000794  -0.008841   0.001735  -0.027829
    13  C   -0.010758   0.016747   0.159849   0.008472  -0.022672  -0.009984
    14  O    0.000245  -0.000667  -0.004687  -0.003438   0.001438   0.000405
    15  P    0.019214  -0.011470   0.297967   0.002416  -0.007053  -0.011399
    16  C   -0.000677   0.000542  -0.031040   0.001013   0.000254   0.000112
    17  C   -0.001665   0.000506  -0.030369  -0.008848  -0.005323   0.008987
    18  C    0.000297   0.000271  -0.032605  -0.003177  -0.007201   0.000021
    19  H   -0.000007  -0.000013  -0.003534   0.000855  -0.000294  -0.000024
    20  H    0.000014  -0.000009   0.007921  -0.000393   0.000097  -0.000019
    21  H   -0.000025   0.000006  -0.003470  -0.006724   0.012691   0.001113
    22  H   -0.000016  -0.000023  -0.005939  -0.000040   0.000000   0.000009
    23  H    0.000010   0.000075  -0.003302   0.000151  -0.000005  -0.000009
    24  H    0.000046  -0.000012   0.006981  -0.000091  -0.000007  -0.000010
    25  H   -0.000210   0.000096  -0.002806  -0.000242   0.000309  -0.000447
    26  H   -0.000042   0.000097  -0.011588   0.008881   0.003505  -0.004704
    27  H    0.000101  -0.000020   0.008445   0.000052  -0.000121  -0.000274
    28  C   -0.008741  -0.009183   0.121990  -0.021880   0.001693   0.002472
    29  O   -0.000688  -0.000558  -0.005296   0.000287  -0.000003  -0.000013
               7          8          9         10         11         12
     1  H    0.001163  -0.007096  -0.003106  -0.000067   0.000006  -0.000024
     2  H    0.001126  -0.001191  -0.003986  -0.000032  -0.000021   0.000008
     3  Rh   0.018142  -0.002017  -0.011178  -0.000426  -0.000825   0.000794
     4  C   -0.028785  -0.034833  -0.028594   0.011275  -0.006681  -0.008841
     5  O    0.025789   0.001977   0.000364   0.001022  -0.000137   0.001735
     6  C    0.237050   0.417839   0.410002  -0.050907  -0.029947  -0.027829
     7  C    4.909304  -0.037250  -0.021169   0.421014   0.413554   0.413399
     8  H   -0.037250   0.545835  -0.030538  -0.002929  -0.005128   0.006125
     9  H   -0.021169  -0.030538   0.539494  -0.003770   0.005898  -0.005728
    10  H    0.421014  -0.002929  -0.003770   0.553123  -0.026838  -0.024237
    11  H    0.413554  -0.005128   0.005898  -0.026838   0.556045  -0.023535
    12  H    0.413399   0.006125  -0.005728  -0.024237  -0.023535   0.540748
    13  C    0.000277   0.000513   0.000400   0.000014  -0.000000   0.000009
    14  O   -0.000012  -0.000008  -0.000027  -0.000000  -0.000001  -0.000006
    15  P    0.000066  -0.002066   0.000479  -0.000012  -0.000066   0.000014
    16  C   -0.000014   0.000033   0.000002  -0.000000  -0.000002   0.000000
    17  C   -0.001519   0.002836  -0.000351   0.000023  -0.000449   0.000065
    18  C    0.000065  -0.000039   0.000003   0.000001   0.000020  -0.000002
    19  H    0.000003  -0.000000   0.000001  -0.000000   0.000001  -0.000000
    20  H   -0.000006  -0.000002   0.000000  -0.000000   0.000001  -0.000000
    21  H   -0.000182  -0.000062  -0.000001  -0.000001  -0.000027  -0.000013
    22  H   -0.000000  -0.000000  -0.000000   0.000000  -0.000000  -0.000000
    23  H    0.000001  -0.000002  -0.000000  -0.000000  -0.000000  -0.000000
    24  H    0.000000  -0.000003   0.000000  -0.000000   0.000000  -0.000000
    25  H    0.000008  -0.000700   0.000072   0.000000   0.000018  -0.000006
    26  H    0.000768  -0.002416   0.000398  -0.000045   0.001848  -0.000070
    27  H    0.000046   0.000017  -0.000000  -0.000000   0.000014   0.000000
    28  C   -0.000172   0.000329   0.000249  -0.000000  -0.000000  -0.000003
    29  O    0.000000  -0.000002  -0.000002  -0.000000  -0.000000   0.000000
              13         14         15         16         17         18
     1  H   -0.010758   0.000245   0.019214  -0.000677  -0.001665   0.000297
     2  H    0.016747  -0.000667  -0.011470   0.000542   0.000506   0.000271
     3  Rh   0.159849  -0.004687   0.297967  -0.031040  -0.030369  -0.032605
     4  C    0.008472  -0.003438   0.002416   0.001013  -0.008848  -0.003177
     5  O   -0.022672   0.001438  -0.007053   0.000254  -0.005323  -0.007201
     6  C   -0.009984   0.000405  -0.011399   0.000112   0.008987   0.000021
     7  C    0.000277  -0.000012   0.000066  -0.000014  -0.001519   0.000065
     8  H    0.000513  -0.000008  -0.002066   0.000033   0.002836  -0.000039
     9  H    0.000400  -0.000027   0.000479   0.000002  -0.000351   0.000003
    10  H    0.000014  -0.000000  -0.000012  -0.000000   0.000023   0.000001
    11  H   -0.000000  -0.000001  -0.000066  -0.000002  -0.000449   0.000020
    12  H    0.000009  -0.000006   0.000014   0.000000   0.000065  -0.000002
    13  C    5.346985   0.549297  -0.012390   0.001023   0.000284  -0.000941
    14  O    0.549297   7.557194  -0.001014   0.000030  -0.000015   0.000757
    15  P   -0.012390  -0.001014  13.755491   0.328279   0.329586   0.333399
    16  C    0.001023   0.000030   0.328279   5.038576  -0.038392  -0.033698
    17  C    0.000284  -0.000015   0.329586  -0.038392   5.039317  -0.035589
    18  C   -0.000941   0.000757   0.333399  -0.033698  -0.035589   5.014115
    19  H    0.000387  -0.000138  -0.021803  -0.000751   0.004177   0.396097
    20  H   -0.000025  -0.000021  -0.029498  -0.006021  -0.004250   0.396460
    21  H   -0.000719  -0.000053  -0.019439   0.004200  -0.000595   0.398479
    22  H   -0.000096  -0.000011  -0.022413   0.398232   0.004676  -0.001448
    23  H   -0.000001  -0.000000  -0.023928   0.401077  -0.001084   0.004110
    24  H   -0.000038  -0.000000  -0.026068   0.395983  -0.005232  -0.004251
    25  H   -0.000019  -0.000000  -0.024404  -0.001028   0.399281   0.003992
    26  H    0.000180  -0.000004  -0.019591   0.004762   0.393577  -0.000320
    27  H   -0.000010  -0.000000  -0.028468  -0.005490   0.399511  -0.004929
    28  C    0.002490  -0.001940  -0.020021  -0.002022   0.000861   0.000140
    29  O   -0.002095   0.000139  -0.002812   0.001301   0.000008   0.000040
              19         20         21         22         23         24
     1  H   -0.000007   0.000014  -0.000025  -0.000016   0.000010   0.000046
     2  H   -0.000013  -0.000009   0.000006  -0.000023   0.000075  -0.000012
     3  Rh  -0.003534   0.007921  -0.003470  -0.005939  -0.003302   0.006981
     4  C    0.000855  -0.000393  -0.006724  -0.000040   0.000151  -0.000091
     5  O   -0.000294   0.000097   0.012691   0.000000  -0.000005  -0.000007
     6  C   -0.000024  -0.000019   0.001113   0.000009  -0.000009  -0.000010
     7  C    0.000003  -0.000006  -0.000182  -0.000000   0.000001   0.000000
     8  H   -0.000000  -0.000002  -0.000062  -0.000000  -0.000002  -0.000003
     9  H    0.000001   0.000000  -0.000001  -0.000000  -0.000000   0.000000
    10  H   -0.000000  -0.000000  -0.000001   0.000000  -0.000000  -0.000000
    11  H    0.000001   0.000001  -0.000027  -0.000000  -0.000000   0.000000
    12  H   -0.000000  -0.000000  -0.000013  -0.000000  -0.000000  -0.000000
    13  C    0.000387  -0.000025  -0.000719  -0.000096  -0.000001  -0.000038
    14  O   -0.000138  -0.000021  -0.000053  -0.000011  -0.000000  -0.000000
    15  P   -0.021803  -0.029498  -0.019439  -0.022413  -0.023928  -0.026068
    16  C   -0.000751  -0.006021   0.004200   0.398232   0.401077   0.395983
    17  C    0.004177  -0.004250  -0.000595   0.004676  -0.001084  -0.005232
    18  C    0.396097   0.396460   0.398479  -0.001448   0.004110  -0.004251
    19  H    0.505044  -0.021452  -0.012201   0.000763  -0.000090  -0.000143
    20  H   -0.021452   0.526383  -0.019785  -0.000142  -0.000161   0.003454
    21  H   -0.012201  -0.019785   0.465405  -0.000104  -0.000065  -0.000172
    22  H    0.000763  -0.000142  -0.000104   0.498329  -0.015790  -0.019351
    23  H   -0.000090  -0.000161  -0.000065  -0.015790   0.493283  -0.019725
    24  H   -0.000143   0.003454  -0.000172  -0.019351  -0.019725   0.513543
    25  H   -0.000079  -0.000102  -0.000086  -0.000087   0.000891  -0.000358
    26  H   -0.000007  -0.000542   0.000912  -0.000098  -0.000105  -0.000152
    27  H   -0.000100   0.003359  -0.000406  -0.000123  -0.000342   0.003914
    28  C   -0.000539   0.000044   0.000341   0.001051  -0.001590   0.000269
    29  O   -0.000026  -0.000003  -0.000003   0.000131  -0.000088  -0.000018
              25         26         27         28         29
     1  H   -0.000210  -0.000042   0.000101  -0.008741  -0.000688
     2  H    0.000096   0.000097  -0.000020  -0.009183  -0.000558
     3  Rh  -0.002806  -0.011588   0.008445   0.121990  -0.005296
     4  C   -0.000242   0.008881   0.000052  -0.021880   0.000287
     5  O    0.000309   0.003505  -0.000121   0.001693  -0.000003
     6  C   -0.000447  -0.004704  -0.000274   0.002472  -0.000013
     7  C    0.000008   0.000768   0.000046  -0.000172   0.000000
     8  H   -0.000700  -0.002416   0.000017   0.000329  -0.000002
     9  H    0.000072   0.000398  -0.000000   0.000249  -0.000002
    10  H    0.000000  -0.000045  -0.000000  -0.000000  -0.000000
    11  H    0.000018   0.001848   0.000014  -0.000000  -0.000000
    12  H   -0.000006  -0.000070   0.000000  -0.000003   0.000000
    13  C   -0.000019   0.000180  -0.000010   0.002490  -0.002095
    14  O   -0.000000  -0.000004  -0.000000  -0.001940   0.000139
    15  P   -0.024404  -0.019591  -0.028468  -0.020021  -0.002812
    16  C   -0.001028   0.004762  -0.005490  -0.002022   0.001301
    17  C    0.399281   0.393577   0.399511   0.000861   0.000008
    18  C    0.003992  -0.000320  -0.004929   0.000140   0.000040
    19  H   -0.000079  -0.000007  -0.000100  -0.000539  -0.000026
    20  H   -0.000102  -0.000542   0.003359   0.000044  -0.000003
    21  H   -0.000086   0.000912  -0.000406   0.000341  -0.000003
    22  H   -0.000087  -0.000098  -0.000123   0.001051   0.000131
    23  H    0.000891  -0.000105  -0.000342  -0.001590  -0.000088
    24  H   -0.000358  -0.000152   0.003914   0.000269  -0.000018
    25  H    0.495307  -0.013602  -0.020834   0.000254  -0.000008
    26  H   -0.013602   0.489324  -0.019768  -0.000101  -0.000000
    27  H   -0.020834  -0.019768   0.513179  -0.000050  -0.000001
    28  C    0.000254  -0.000101  -0.000050   5.376441   0.546239
    29  O   -0.000008  -0.000000  -0.000001   0.546239   7.550329
 Mulliken charges:
               1
     1  H    0.054095
     2  H    0.077287
     3  Rh  -0.079731
     4  C    0.150761
     5  O   -0.374176
     6  C   -0.276594
     7  C   -0.352665
     8  H    0.150780
     9  H    0.151092
    10  H    0.122794
    11  H    0.116254
    12  H    0.127399
    13  C   -0.027179
    14  O   -0.097462
    15  P    0.217006
    16  C   -0.456282
    17  C   -0.450012
    18  C   -0.424066
    19  H    0.153875
    20  H    0.144698
    21  H    0.180987
    22  H    0.162492
    23  H    0.166689
    24  H    0.151441
    25  H    0.164792
    26  H    0.168904
    27  H    0.152300
    28  C    0.011380
    29  O   -0.086857
 Sum of Mulliken charges =  -0.00000
 Mulliken charges with hydrogens summed into heavy atoms:
               1
     3  Rh   0.051651
     4  C    0.150761
     5  O   -0.374176
     6  C    0.025277
     7  C    0.013782
    13  C   -0.027179
    14  O   -0.097462
    15  P    0.217006
    16  C    0.024340
    17  C    0.035983
    18  C    0.055494
    28  C    0.011380
    29  O   -0.086857
 Electronic spatial extent (au):  <R**2>=           3427.0336
 Charge=             -0.0000 electrons
 Dipole moment (field-independent basis, Debye):
    X=             -2.1129    Y=              4.3655    Z=             -1.7880  Tot=              5.1691
 Quadrupole moment (field-independent basis, Debye-Ang):
   XX=           -104.9476   YY=            -96.9064   ZZ=           -105.6110
   XY=             -4.5829   XZ=             -7.4092   YZ=              2.0187
 Traceless Quadrupole moment (field-independent basis, Debye-Ang):
   XX=             -2.4593   YY=              5.5819   ZZ=             -3.1226
   XY=             -4.5829   XZ=             -7.4092   YZ=              2.0187
 Octapole moment (field-independent basis, Debye-Ang**2):
  XXX=            -23.1476  YYY=             -9.7698  ZZZ=            -17.3436  XYY=             -9.9552
  XXY=             -7.7483  XXZ=             -7.6811  XZZ=            -12.4798  YZZ=             -2.2661
  YYZ=             -4.4941  XYZ=              1.5038
 Hexadecapole moment (field-independent basis, Debye-Ang**3):
 XXXX=          -2322.8462 YYYY=          -1455.9956 ZZZZ=           -835.7672 XXXY=            -19.8198
 XXXZ=            -34.2203 YYYX=              3.3915 YYYZ=             21.6629 ZZZX=             12.4510
 ZZZY=             15.2180 XXYY=           -616.9749 XXZZ=           -518.9718 YYZZ=           -400.7853
 XXYZ=             -9.7971 YYXZ=              6.1656 ZZXY=             -0.8119
 N-N= 1.121348296147D+03 E-N=-4.549654455727D+03  KE= 9.188070801664D+02
 No NMR shielding tensors so no spin-rotation constants.
 Leave Link  601 at Tue Oct  4 22:43:45 2022, MaxMem=  2952790016 cpu:               6.8 elap:               0.7
 (Enter /mnt/data/applications/G16/g16/l9999.exe)
 1\1\GINC-KIMIK2156\FTS\RwB97XD\Gen\C8H16O3P1Rh1\DGARAY\04-Oct-2022\0\\
 #p opt=(ts,noeigentest,calcfc,maxstep=2) freq pseudo=read WB97XD gen s
 crf(smd,solvent=toluene)\\Auto-generated job for TS3\\0,1\H,0.13981702
 07,-0.6300076919,-1.9388367352\H,0.3024984517,-1.6860783294,-1.5633108
 34\Rh,-0.2760605291,-0.7442726508,-0.3546455876\C,1.7087557125,-0.2747
 312204,0.0905473621\O,2.0816446897,0.0136519597,1.2031782766\C,2.71535
 54277,-0.2904368858,-1.0570664963\C,4.1263240991,0.1123714622,-0.66873
 68864\H,2.3146428408,0.3590242214,-1.8406989073\H,2.6904865308,-1.2993
 090711,-1.4780805749\H,4.7840696277,0.0711097817,-1.5392174446\H,4.155
 57884,1.1272319602,-0.2692650526\H,4.5308320618,-0.5517054445,0.095771
 57\C,-0.2803310857,-1.7486581214,1.3157217697\O,-0.2586602893,-2.33209
 09833,2.2887935749\P,-0.687562701,1.5335083479,0.189105798\C,-2.321706
 5621,2.1890314927,-0.2713426497\C,0.4451831418,2.7454836567,-0.5578008
 617\C,-0.5746697335,1.9047830484,1.9627487803\H,-1.3515159142,1.351621
 6448,2.4930138083\H,-0.6923699482,2.9724042139,2.1603034146\H,0.395869
 1304,1.5669667666,2.3277553856\H,-3.1013159205,1.6116671395,0.22792194
 41\H,-2.4616462946,2.0942071875,-1.3492551624\H,-2.4225608866,3.238908
 2035,0.0115342626\H,0.4055605645,2.6565442848,-1.6441551324\H,1.465636
 1991,2.5458291945,-0.2295162723\H,0.1763402895,3.7641017609,-0.2701483
 006\C,-2.1254145565,-1.1452951889,-0.8774161744\O,-3.1866082066,-1.376
 3647393,-1.2013378742\\Version=AM64L-G16RevA.03\State=1-A\HF=-992.2111
 669\RMSD=6.679e-09\RMSF=5.784e-06\Dipole=-0.8309638,1.7157376,-0.70818
 82\Quadrupole=-1.8022206,4.1510641,-2.3488435,-3.4238288,-5.5023505,1.
 4790306\PG=C01 [X(C8H16O3P1Rh1)]\\@


 DO YOU KNOW THAT THE LETTERS IN "EPISCOPAL", WHEN
 REARRANGED, SPELL "PEPSI COLA"?
 Leave Link 9999 at Tue Oct  4 22:43:45 2022, MaxMem=  2952790016 cpu:               0.4 elap:               0.1
 Job cpu time:       1 days  6 hours  2 minutes 29.3 seconds.
 Elapsed time:       0 days  2 hours 30 minutes 47.1 seconds.
 File lengths (MBytes):  RWF=    810 Int=      0 D2E=      0 Chk=     28 Scr=      1
 Normal termination of Gaussian 16 at Tue Oct  4 22:43:45 2022.
 (Enter /mnt/data/applications/G16/g16/l1.exe)
 Link1:  Proceeding to internal job step number  2.
 -------------------------------------------------------------------
 #P Geom=AllCheck Guess=TCheck SCRF=Check GenChk RwB97XD/ChkBas Freq
 -------------------------------------------------------------------
 1/5=1,8=2,10=4,11=1,29=7,30=1,38=1,40=1/1,3;
 2/12=2,40=1/2;
 3/5=7,6=2,11=2,14=-4,16=1,17=8,25=1,30=1,67=1,70=2,71=2,74=-58,82=7,116=1,140=1/1,2,3;
 4/5=101/1;
 5/5=2,38=6,98=1/2;
 8/6=4,10=90,11=11/1;
 11/6=1,8=1,9=11,15=111,16=1/1,2,10;
 10/6=1/2;
 6/7=2,8=2,9=2,10=2,28=1/1;
 7/8=1,10=1,25=1/1,2,3,16;
 1/5=1,8=2,10=4,11=1,30=1/3;
 99//99;
 Leave Link    1 at Tue Oct  4 22:43:45 2022, MaxMem=  2952790016 cpu:               0.6 elap:               0.0
 (Enter /mnt/data/applications/G16/g16/l101.exe)
 Structure from the checkpoint file:  "TS3.chk"
 --------------------------
 Auto-generated job for TS3
 --------------------------
 Charge =  0 Multiplicity = 1
 Redundant internal coordinates found in file.  (old form).
 H,0,0.1398170207,-0.6300076919,-1.9388367352
 H,0,0.3024984517,-1.6860783294,-1.563310834
 Rh,0,-0.2760605291,-0.7442726508,-0.3546455876
 C,0,1.7087557125,-0.2747312204,0.0905473621
 O,0,2.0816446897,0.0136519597,1.2031782766
 C,0,2.7153554277,-0.2904368858,-1.0570664963
 C,0,4.1263240991,0.1123714622,-0.6687368864
 H,0,2.3146428408,0.3590242214,-1.8406989073
 H,0,2.6904865308,-1.2993090711,-1.4780805749
 H,0,4.7840696277,0.0711097817,-1.5392174446
 H,0,4.15557884,1.1272319602,-0.2692650526
 H,0,4.5308320618,-0.5517054445,0.09577157
 C,0,-0.2803310857,-1.7486581214,1.3157217697
 O,0,-0.2586602893,-2.3320909833,2.2887935749
 P,0,-0.687562701,1.5335083479,0.189105798
 C,0,-2.3217065621,2.1890314927,-0.2713426497
 C,0,0.4451831418,2.7454836567,-0.5578008617
 C,0,-0.5746697335,1.9047830484,1.9627487803
 H,0,-1.3515159142,1.3516216448,2.4930138083
 H,0,-0.6923699482,2.9724042139,2.1603034146
 H,0,0.3958691304,1.5669667666,2.3277553856
 H,0,-3.1013159205,1.6116671395,0.2279219441
 H,0,-2.4616462946,2.0942071875,-1.3492551624
 H,0,-2.4225608866,3.2389082035,0.0115342626
 H,0,0.4055605645,2.6565442848,-1.6441551324
 H,0,1.4656361991,2.5458291945,-0.2295162723
 H,0,0.1763402895,3.7641017609,-0.2701483006
 C,0,-2.1254145565,-1.1452951889,-0.8774161744
 O,0,-3.1866082066,-1.3763647393,-1.2013378742
 Recover connectivity data from disk.
 ITRead=  0  0  0  0  0  0  0  0  0  0  0  0  0  0  0  0  0  0  0  0
 ITRead=  0  0  0  0  0  0  0  0  0
 MicOpt= -1 -1 -1 -1 -1 -1 -1 -1 -1 -1 -1 -1 -1 -1 -1 -1 -1 -1 -1 -1
 MicOpt= -1 -1 -1 -1 -1 -1 -1 -1 -1
 NAtoms=     29 NQM=       29 NQMF=       0 NMMI=      0 NMMIF=      0
                NMic=       0 NMicF=      0.
                    Isotopes and Nuclear Properties:
 (Nuclear quadrupole moments (NQMom) in fm**2, nuclear magnetic moments (NMagM)
  in nuclear magnetons)

  Atom         1           2           3           4           5           6           7           8           9          10
 IAtWgt=           1           1         103          12          16          12          12           1           1           1
 AtmWgt=   1.0078250   1.0078250 102.9048000  12.0000000  15.9949146  12.0000000  12.0000000   1.0078250   1.0078250   1.0078250
 NucSpn=           1           1           1           0           0           0           0           1           1           1
 AtZEff=   1.0000000   1.0000000 229.5000000   3.6000000   5.6000000   3.6000000   3.6000000   1.0000000   1.0000000   1.0000000
 NQMom=    0.0000000   0.0000000   0.0000000   0.0000000   0.0000000   0.0000000   0.0000000   0.0000000   0.0000000   0.0000000
 NMagM=    2.7928460   2.7928460  -0.0884000   0.0000000   0.0000000   0.0000000   0.0000000   2.7928460   2.7928460   2.7928460
 AtZNuc=   1.0000000   1.0000000  45.0000000   6.0000000   8.0000000   6.0000000   6.0000000   1.0000000   1.0000000   1.0000000

  Atom        11          12          13          14          15          16          17          18          19          20
 IAtWgt=           1           1          12          16          31          12          12          12           1           1
 AtmWgt=   1.0078250   1.0078250  12.0000000  15.9949146  30.9737634  12.0000000  12.0000000  12.0000000   1.0078250   1.0078250
 NucSpn=           1           1           0           0           1           0           0           0           1           1
 AtZEff=   1.0000000   1.0000000   3.6000000   5.6000000  12.9400000   3.6000000   3.6000000   3.6000000   1.0000000   1.0000000
 NQMom=    0.0000000   0.0000000   0.0000000   0.0000000   0.0000000   0.0000000   0.0000000   0.0000000   0.0000000   0.0000000
 NMagM=    2.7928460   2.7928460   0.0000000   0.0000000   1.1316000   0.0000000   0.0000000   0.0000000   2.7928460   2.7928460
 AtZNuc=   1.0000000   1.0000000   6.0000000   8.0000000  15.0000000   6.0000000   6.0000000   6.0000000   1.0000000   1.0000000

  Atom        21          22          23          24          25          26          27          28          29
 IAtWgt=           1           1           1           1           1           1           1          12          16
 AtmWgt=   1.0078250   1.0078250   1.0078250   1.0078250   1.0078250   1.0078250   1.0078250  12.0000000  15.9949146
 NucSpn=           1           1           1           1           1           1           1           0           0
 AtZEff=   1.0000000   1.0000000   1.0000000   1.0000000   1.0000000   1.0000000   1.0000000   3.6000000   5.6000000
 NQMom=    0.0000000   0.0000000   0.0000000   0.0000000   0.0000000   0.0000000   0.0000000   0.0000000   0.0000000
 NMagM=    2.7928460   2.7928460   2.7928460   2.7928460   2.7928460   2.7928460   2.7928460   0.0000000   0.0000000
 AtZNuc=   1.0000000   1.0000000   1.0000000   1.0000000   1.0000000   1.0000000   1.0000000   6.0000000   8.0000000
 Leave Link  101 at Tue Oct  4 22:43:46 2022, MaxMem=  2952790016 cpu:               4.6 elap:               0.4
 (Enter /mnt/data/applications/G16/g16/l103.exe)

 GradGradGradGradGradGradGradGradGradGradGradGradGradGradGradGradGradGrad
 Berny optimization.
 Initialization pass.
                           ----------------------------
                           !    Initial Parameters    !
                           ! (Angstroms and Degrees)  !
 --------------------------                            --------------------------
 ! Name  Definition              Value          Derivative Info.                !
 --------------------------------------------------------------------------------
 ! R1    R(1,3)                  1.6419         calculate D2E/DX2 analytically  !
 ! R2    R(2,3)                  1.6379         calculate D2E/DX2 analytically  !
 ! R3    R(3,4)                  2.0876         calculate D2E/DX2 analytically  !
 ! R4    R(3,13)                 1.9491         calculate D2E/DX2 analytically  !
 ! R5    R(3,15)                 2.3777         calculate D2E/DX2 analytically  !
 ! R6    R(3,28)                 1.9632         calculate D2E/DX2 analytically  !
 ! R7    R(4,5)                  1.2084         calculate D2E/DX2 analytically  !
 ! R8    R(4,6)                  1.5266         calculate D2E/DX2 analytically  !
 ! R9    R(6,7)                  1.5179         calculate D2E/DX2 analytically  !
 ! R10   R(6,8)                  1.0938         calculate D2E/DX2 analytically  !
 ! R11   R(6,9)                  1.0935         calculate D2E/DX2 analytically  !
 ! R12   R(7,10)                 1.0918         calculate D2E/DX2 analytically  !
 ! R13   R(7,11)                 1.091          calculate D2E/DX2 analytically  !
 ! R14   R(7,12)                 1.0905         calculate D2E/DX2 analytically  !
 ! R15   R(13,14)                1.1348         calculate D2E/DX2 analytically  !
 ! R16   R(15,16)                1.8199         calculate D2E/DX2 analytically  !
 ! R17   R(15,17)                1.8193         calculate D2E/DX2 analytically  !
 ! R18   R(15,18)                1.8156         calculate D2E/DX2 analytically  !
 ! R19   R(16,22)                1.0911         calculate D2E/DX2 analytically  !
 ! R20   R(16,23)                1.0911         calculate D2E/DX2 analytically  !
 ! R21   R(16,24)                1.092          calculate D2E/DX2 analytically  !
 ! R22   R(17,25)                1.0907         calculate D2E/DX2 analytically  !
 ! R23   R(17,26)                1.0904         calculate D2E/DX2 analytically  !
 ! R24   R(17,27)                1.0921         calculate D2E/DX2 analytically  !
 ! R25   R(18,19)                1.0912         calculate D2E/DX2 analytically  !
 ! R26   R(18,20)                1.0921         calculate D2E/DX2 analytically  !
 ! R27   R(18,21)                1.0905         calculate D2E/DX2 analytically  !
 ! R28   R(28,29)                1.1333         calculate D2E/DX2 analytically  !
 ! A1    A(1,3,2)               40.404          calculate D2E/DX2 analytically  !
 ! A2    A(1,3,4)               87.0931         calculate D2E/DX2 analytically  !
 ! A3    A(1,3,13)             149.6917         calculate D2E/DX2 analytically  !
 ! A4    A(1,3,15)             101.4099         calculate D2E/DX2 analytically  !
 ! A5    A(1,3,28)              89.7646         calculate D2E/DX2 analytically  !
 ! A6    A(2,3,4)               87.1833         calculate D2E/DX2 analytically  !
 ! A7    A(2,3,13)             109.6872         calculate D2E/DX2 analytically  !
 ! A8    A(2,3,15)             141.3305         calculate D2E/DX2 analytically  !
 ! A9    A(2,3,28)              91.0767         calculate D2E/DX2 analytically  !
 ! A10   A(4,3,13)              86.2862         calculate D2E/DX2 analytically  !
 ! A11   A(4,3,15)              84.2786         calculate D2E/DX2 analytically  !
 ! A12   A(13,3,15)            107.2952         calculate D2E/DX2 analytically  !
 ! A13   A(13,3,28)             96.9428         calculate D2E/DX2 analytically  !
 ! A14   A(15,3,28)             95.3679         calculate D2E/DX2 analytically  !
 ! A15   A(3,4,5)              122.9172         calculate D2E/DX2 analytically  !
 ! A16   A(3,4,6)              117.6634         calculate D2E/DX2 analytically  !
 ! A17   A(5,4,6)              119.4171         calculate D2E/DX2 analytically  !
 ! A18   A(4,6,7)              114.701          calculate D2E/DX2 analytically  !
 ! A19   A(4,6,8)              106.9117         calculate D2E/DX2 analytically  !
 ! A20   A(4,6,9)              106.4952         calculate D2E/DX2 analytically  !
 ! A21   A(7,6,8)              111.4853         calculate D2E/DX2 analytically  !
 ! A22   A(7,6,9)              111.3764         calculate D2E/DX2 analytically  !
 ! A23   A(8,6,9)              105.2864         calculate D2E/DX2 analytically  !
 ! A24   A(6,7,10)             110.243          calculate D2E/DX2 analytically  !
 ! A25   A(6,7,11)             111.4351         calculate D2E/DX2 analytically  !
 ! A26   A(6,7,12)             111.259          calculate D2E/DX2 analytically  !
 ! A27   A(10,7,11)            108.1142         calculate D2E/DX2 analytically  !
 ! A28   A(10,7,12)            108.2084         calculate D2E/DX2 analytically  !
 ! A29   A(11,7,12)            107.4471         calculate D2E/DX2 analytically  !
 ! A30   A(3,15,16)            116.27           calculate D2E/DX2 analytically  !
 ! A31   A(3,15,17)            115.8836         calculate D2E/DX2 analytically  !
 ! A32   A(3,15,18)            114.1136         calculate D2E/DX2 analytically  !
 ! A33   A(16,15,17)           102.4299         calculate D2E/DX2 analytically  !
 ! A34   A(16,15,18)           103.2578         calculate D2E/DX2 analytically  !
 ! A35   A(17,15,18)           103.0685         calculate D2E/DX2 analytically  !
 ! A36   A(15,16,22)           109.586          calculate D2E/DX2 analytically  !
 ! A37   A(15,16,23)           109.5001         calculate D2E/DX2 analytically  !
 ! A38   A(15,16,24)           111.3271         calculate D2E/DX2 analytically  !
 ! A39   A(22,16,23)           108.3268         calculate D2E/DX2 analytically  !
 ! A40   A(22,16,24)           108.9195         calculate D2E/DX2 analytically  !
 ! A41   A(23,16,24)           109.1251         calculate D2E/DX2 analytically  !
 ! A42   A(15,17,25)           109.3882         calculate D2E/DX2 analytically  !
 ! A43   A(15,17,26)           109.7008         calculate D2E/DX2 analytically  !
 ! A44   A(15,17,27)           111.0975         calculate D2E/DX2 analytically  !
 ! A45   A(25,17,26)           108.5985         calculate D2E/DX2 analytically  !
 ! A46   A(25,17,27)           109.2364         calculate D2E/DX2 analytically  !
 ! A47   A(26,17,27)           108.7763         calculate D2E/DX2 analytically  !
 ! A48   A(15,18,19)           109.0744         calculate D2E/DX2 analytically  !
 ! A49   A(15,18,20)           111.7106         calculate D2E/DX2 analytically  !
 ! A50   A(15,18,21)           108.5999         calculate D2E/DX2 analytically  !
 ! A51   A(19,18,20)           109.3259         calculate D2E/DX2 analytically  !
 ! A52   A(19,18,21)           108.2949         calculate D2E/DX2 analytically  !
 ! A53   A(20,18,21)           109.7667         calculate D2E/DX2 analytically  !
 ! A54   L(4,3,28,1,-1)        176.8577         calculate D2E/DX2 analytically  !
 ! A55   L(3,13,14,5,-1)       178.9222         calculate D2E/DX2 analytically  !
 ! A56   L(3,28,29,16,-1)      180.2008         calculate D2E/DX2 analytically  !
 ! A57   L(4,3,28,1,-2)        181.0064         calculate D2E/DX2 analytically  !
 ! A58   L(3,13,14,5,-2)       180.6108         calculate D2E/DX2 analytically  !
 ! A59   L(3,28,29,16,-2)      178.8297         calculate D2E/DX2 analytically  !
 ! D1    D(1,3,4,5)            168.3885         calculate D2E/DX2 analytically  !
 ! D2    D(1,3,4,6)            -11.0666         calculate D2E/DX2 analytically  !
 ! D3    D(2,3,4,5)           -151.1549         calculate D2E/DX2 analytically  !
 ! D4    D(2,3,4,6)             29.39           calculate D2E/DX2 analytically  !
 ! D5    D(13,3,4,5)           -41.2052         calculate D2E/DX2 analytically  !
 ! D6    D(13,3,4,6)           139.3397         calculate D2E/DX2 analytically  !
 ! D7    D(15,3,4,5)            66.6081         calculate D2E/DX2 analytically  !
 ! D8    D(15,3,4,6)          -112.847          calculate D2E/DX2 analytically  !
 ! D9    D(1,3,15,16)           81.5408         calculate D2E/DX2 analytically  !
 ! D10   D(1,3,15,17)          -38.8766         calculate D2E/DX2 analytically  !
 ! D11   D(1,3,15,18)         -158.3846         calculate D2E/DX2 analytically  !
 ! D12   D(2,3,15,16)           89.1844         calculate D2E/DX2 analytically  !
 ! D13   D(2,3,15,17)          -31.233          calculate D2E/DX2 analytically  !
 ! D14   D(2,3,15,18)         -150.741          calculate D2E/DX2 analytically  !
 ! D15   D(4,3,15,16)          167.3997         calculate D2E/DX2 analytically  !
 ! D16   D(4,3,15,17)           46.9822         calculate D2E/DX2 analytically  !
 ! D17   D(4,3,15,18)          -72.5258         calculate D2E/DX2 analytically  !
 ! D18   D(13,3,15,16)        -108.3036         calculate D2E/DX2 analytically  !
 ! D19   D(13,3,15,17)         131.2789         calculate D2E/DX2 analytically  !
 ! D20   D(13,3,15,18)          11.7709         calculate D2E/DX2 analytically  !
 ! D21   D(28,3,15,16)          -9.3045         calculate D2E/DX2 analytically  !
 ! D22   D(28,3,15,17)        -129.722          calculate D2E/DX2 analytically  !
 ! D23   D(28,3,15,18)         110.77           calculate D2E/DX2 analytically  !
 ! D24   D(3,4,6,7)            177.7628         calculate D2E/DX2 analytically  !
 ! D25   D(3,4,6,8)             53.6223         calculate D2E/DX2 analytically  !
 ! D26   D(3,4,6,9)            -58.5519         calculate D2E/DX2 analytically  !
 ! D27   D(5,4,6,7)             -1.7121         calculate D2E/DX2 analytically  !
 ! D28   D(5,4,6,8)           -125.8526         calculate D2E/DX2 analytically  !
 ! D29   D(5,4,6,9)            121.9732         calculate D2E/DX2 analytically  !
 ! D30   D(4,6,7,10)           179.7145         calculate D2E/DX2 analytically  !
 ! D31   D(4,6,7,11)           -60.2332         calculate D2E/DX2 analytically  !
 ! D32   D(4,6,7,12)            59.6589         calculate D2E/DX2 analytically  !
 ! D33   D(8,6,7,10)           -58.6067         calculate D2E/DX2 analytically  !
 ! D34   D(8,6,7,11)            61.4456         calculate D2E/DX2 analytically  !
 ! D35   D(8,6,7,12)          -178.6623         calculate D2E/DX2 analytically  !
 ! D36   D(9,6,7,10)            58.6729         calculate D2E/DX2 analytically  !
 ! D37   D(9,6,7,11)           178.7251         calculate D2E/DX2 analytically  !
 ! D38   D(9,6,7,12)           -61.3827         calculate D2E/DX2 analytically  !
 ! D39   D(3,15,16,22)          59.6401         calculate D2E/DX2 analytically  !
 ! D40   D(3,15,16,23)         -59.0489         calculate D2E/DX2 analytically  !
 ! D41   D(3,15,16,24)        -179.8046         calculate D2E/DX2 analytically  !
 ! D42   D(17,15,16,22)       -172.9653         calculate D2E/DX2 analytically  !
 ! D43   D(17,15,16,23)         68.3457         calculate D2E/DX2 analytically  !
 ! D44   D(17,15,16,24)        -52.41           calculate D2E/DX2 analytically  !
 ! D45   D(18,15,16,22)        -66.1184         calculate D2E/DX2 analytically  !
 ! D46   D(18,15,16,23)        175.1926         calculate D2E/DX2 analytically  !
 ! D47   D(18,15,16,24)         54.4369         calculate D2E/DX2 analytically  !
 ! D48   D(3,15,17,25)          58.4128         calculate D2E/DX2 analytically  !
 ! D49   D(3,15,17,26)         -60.609          calculate D2E/DX2 analytically  !
 ! D50   D(3,15,17,27)         179.0863         calculate D2E/DX2 analytically  !
 ! D51   D(16,15,17,25)        -69.2281         calculate D2E/DX2 analytically  !
 ! D52   D(16,15,17,26)        171.7502         calculate D2E/DX2 analytically  !
 ! D53   D(16,15,17,27)         51.4455         calculate D2E/DX2 analytically  !
 ! D54   D(18,15,17,25)       -176.2205         calculate D2E/DX2 analytically  !
 ! D55   D(18,15,17,26)         64.7578         calculate D2E/DX2 analytically  !
 ! D56   D(18,15,17,27)        -55.5469         calculate D2E/DX2 analytically  !
 ! D57   D(3,15,18,19)         -63.5069         calculate D2E/DX2 analytically  !
 ! D58   D(3,15,18,20)         175.5237         calculate D2E/DX2 analytically  !
 ! D59   D(3,15,18,21)          54.3209         calculate D2E/DX2 analytically  !
 ! D60   D(16,15,18,19)         63.6253         calculate D2E/DX2 analytically  !
 ! D61   D(16,15,18,20)        -57.3441         calculate D2E/DX2 analytically  !
 ! D62   D(16,15,18,21)       -178.5469         calculate D2E/DX2 analytically  !
 ! D63   D(17,15,18,19)        169.9877         calculate D2E/DX2 analytically  !
 ! D64   D(17,15,18,20)         49.0183         calculate D2E/DX2 analytically  !
 ! D65   D(17,15,18,21)        -72.1845         calculate D2E/DX2 analytically  !
 --------------------------------------------------------------------------------
 Trust Radius=2.00D-02 FncErr=1.00D-07 GrdErr=1.00D-07 EigMax=2.50D+02 EigMin=1.00D-04
 Number of steps in this run=      2 maximum allowed number of steps=      2.
 Search for a saddle point of order  1.
 GradGradGradGradGradGradGradGradGradGradGradGradGradGradGradGradGradGrad

 Leave Link  103 at Tue Oct  4 22:43:46 2022, MaxMem=  2952790016 cpu:               0.1 elap:               0.0
 (Enter /mnt/data/applications/G16/g16/l202.exe)
                          Input orientation:                          
 ---------------------------------------------------------------------
 Center     Atomic      Atomic             Coordinates (Angstroms)
 Number     Number       Type             X           Y           Z
 ---------------------------------------------------------------------
      1          1           0        0.139817   -0.630008   -1.938837
      2          1           0        0.302498   -1.686078   -1.563311
      3         45           0       -0.276061   -0.744273   -0.354646
      4          6           0        1.708756   -0.274731    0.090547
      5          8           0        2.081645    0.013652    1.203178
      6          6           0        2.715355   -0.290437   -1.057066
      7          6           0        4.126324    0.112371   -0.668737
      8          1           0        2.314643    0.359024   -1.840699
      9          1           0        2.690487   -1.299309   -1.478081
     10          1           0        4.784070    0.071110   -1.539217
     11          1           0        4.155579    1.127232   -0.269265
     12          1           0        4.530832   -0.551705    0.095772
     13          6           0       -0.280331   -1.748658    1.315722
     14          8           0       -0.258660   -2.332091    2.288794
     15         15           0       -0.687563    1.533508    0.189106
     16          6           0       -2.321707    2.189031   -0.271343
     17          6           0        0.445183    2.745484   -0.557801
     18          6           0       -0.574670    1.904783    1.962749
     19          1           0       -1.351516    1.351622    2.493014
     20          1           0       -0.692370    2.972404    2.160303
     21          1           0        0.395869    1.566967    2.327755
     22          1           0       -3.101316    1.611667    0.227922
     23          1           0       -2.461646    2.094207   -1.349255
     24          1           0       -2.422561    3.238908    0.011534
     25          1           0        0.405561    2.656544   -1.644155
     26          1           0        1.465636    2.545829   -0.229516
     27          1           0        0.176340    3.764102   -0.270148
     28          6           0       -2.125415   -1.145295   -0.877416
     29          8           0       -3.186608   -1.376365   -1.201338
 ---------------------------------------------------------------------
                    Distance matrix (angstroms):
                    1          2          3          4          5
     1  H    0.000000
     2  H    1.132594   0.000000
     3  Rh   1.641850   1.637864   0.000000
     4  C    2.589631   2.589345   2.087621   0.000000
     5  O    3.749300   3.702419   2.925754   1.208370   0.000000
     6  C    2.743397   2.833016   3.106112   1.526600   2.367016
     7  C    4.249296   4.319297   4.495941   2.563396   2.773901
     8  H    2.391168   2.882380   3.183922   2.120957   3.072256
     9  H    2.676971   2.420608   3.220337   2.115218   3.046917
    10  H    4.713846   4.813810   5.260511   3.497613   3.850602
    11  H    4.690597   4.943227   4.811366   2.842870   2.776572
    12  H    4.840121   4.681684   4.831788   2.835640   2.746725
    13  C    3.466995   2.938101   1.949086   2.762242   2.949124
    14  O    4.574793   3.946003   3.083706   3.596629   3.486846
    15  P    3.145393   3.796962   2.377664   3.003629   3.317652
    16  C    4.097147   4.855112   3.577133   4.737691   5.127962
    17  C    3.659843   4.546444   3.569295   3.337464   3.638950
    18  C    4.707231   5.108503   3.532277   3.670075   3.348034
    19  H    5.078605   5.330774   3.695746   4.216886   3.903899
    20  H    5.520223   6.046199   4.506880   4.537971   4.167189
    21  H    4.805837   5.072614   3.603969   3.181293   2.553292
    22  H    4.497209   5.066517   3.724501   5.168574   5.510704
    23  H    3.812685   4.687950   3.717930   5.007709   5.611160
    24  H    5.033710   5.844791   4.539524   5.423991   5.666583
    25  H    3.310420   4.344598   3.700405   3.646901   4.231010
    26  H    3.842592   4.587040   3.724773   2.849054   2.973887
    27  H    4.700431   5.602914   4.531804   4.334809   4.457213
    28  C    2.554096   2.580244   1.963216   4.049160   4.834395
    29  O    3.487988   3.521479   3.096404   5.181424   5.955530
                    6          7          8          9         10
     6  C    0.000000
     7  C    1.517856   0.000000
     8  H    1.093824   2.171755   0.000000
     9  H    1.093478   2.170140   1.738626   0.000000
    10  H    2.154707   1.091819   2.504367   2.502973   0.000000
    11  H    2.169023   1.091043   2.539408   3.081531   1.767250
    12  H    2.166392   1.090458   3.080721   2.534323   1.767828
    13  C    4.090314   5.178814   4.597739   4.102804   6.091830
    14  O    4.920152   5.826703   5.560279   4.894226   6.771866
    15  P    4.057040   5.092056   3.809561   4.713341   5.921526
    16  C    5.668961   6.785834   5.225662   6.224694   7.522310
    17  C    3.823580   4.527293   3.291792   4.716847   5.190510
    18  C    4.976197   5.677746   5.020330   5.724226   6.658995
    19  H    5.642594   6.445086   5.762555   6.255782   7.452785
    20  H    5.710534   6.277186   5.646229   6.552029   7.217711
    21  H    4.504107   5.001111   4.745190   5.288213   6.037166
    22  H    6.253228   7.435769   5.931350   6.702925   8.226506
    23  H    5.707298   6.913185   5.105420   6.170658   7.525251
    24  H    6.324268   7.288751   5.845135   6.996972   8.023422
    25  H    3.790056   4.611761   2.993630   4.571350   5.085944
    26  H    3.207966   3.632340   2.845846   4.224247   4.341838
    27  H    4.848208   5.394106   4.316656   5.780844   6.039859
    28  C    4.918954   6.380400   4.785917   4.855659   7.046885
    29  O    6.002768   7.481910   5.803802   5.884111   8.108085
                   11         12         13         14         15
    11  H    0.000000
    12  H    1.758664   0.000000
    13  C    5.519078   5.105709   0.000000
    14  O    6.164097   5.560428   1.134783   0.000000
    15  P    4.881719   5.620362   3.493954   4.419899   0.000000
    16  C    6.563737   7.389431   4.710773   5.590260   1.819931
    17  C    4.058205   5.290665   4.922781   5.863468   1.819304
    18  C    5.287885   5.965408   3.721950   4.261135   1.815599
    19  H    6.165114   6.631097   3.484995   3.847828   2.404560
    20  H    5.728008   6.630496   4.813681   5.323747   2.440505
    21  H    4.590566   5.154458   3.531972   3.953806   2.397658
    22  H    7.290020   7.933935   4.520293   5.280257   2.415330
    23  H    6.774149   7.614704   5.160218   6.138458   2.414189
    24  H    6.914474   7.919945   5.582640   6.395655   2.439291
    25  H    4.276886   5.508001   5.351367   6.387156   2.411840
    26  H    3.041347   4.369892   4.886592   5.754058   2.415844
    27  H    4.773617   6.141798   5.754481   6.625781   2.435732
    28  C    6.707094   6.753152   2.928862   3.862401   3.221937
    29  O    7.813096   7.869018   3.862724   4.654816   4.079942
                   16         17         18         19         20
    16  C    0.000000
    17  C    2.836790   0.000000
    18  C    2.850281   2.846058   0.000000
    19  H    3.046997   3.805056   1.091173   0.000000
    20  H    3.030068   2.955268   1.092106   1.781041   0.000000
    21  H    3.811495   3.117334   1.090548   1.768343   1.785374
    22  H    1.091057   3.805333   3.078877   2.874033   3.374718
    23  H    1.091087   3.082242   3.816534   4.067782   4.027229
    24  H    1.091985   2.965058   3.000305   3.296472   2.771605
    25  H    3.088878   1.090709   3.812578   4.680417   3.972295
    26  H    3.804342   1.090393   3.062648   4.095686   3.248106
    27  H    2.953148   1.092064   3.001152   3.973597   2.699729
    28  C    3.394641   4.674215   4.446833   4.265362   5.313832
    29  O    3.784838   5.531156   5.253532   4.945473   6.036029
                   21         22         23         24         25
    21  H    0.000000
    22  H    4.079412   0.000000
    23  H    4.686553   1.769042   0.000000
    24  H    4.012956   1.776357   1.778656   0.000000
    25  H    4.118658   4.110307   2.936676   3.328472   0.000000
    26  H    2.939764   4.683904   4.108689   3.956835   1.771220
    27  H    3.409501   3.952731   3.303331   2.666357   1.779640
    28  C    4.897587   3.126499   3.290906   4.483277   4.631167
    29  O    5.826821   3.313366   3.548566   4.832760   5.418867
                   26         27         28         29
    26  H    0.000000
    27  H    1.774295   0.000000
    28  C    5.190358   5.456100   0.000000
    29  O    6.162095   6.212965   1.133336   0.000000
 Stoichiometry    C8H16O3PRh
 Framework group  C1[X(C8H16O3PRh)]
 Deg. of freedom    81
 Full point group                 C1      NOp   1
 RotChk:  IX=0 Diff= 1.44D-15
 Largest Abelian subgroup         C1      NOp   1
 Largest concise Abelian subgroup C1      NOp   1
                         Standard orientation:                         
 ---------------------------------------------------------------------
 Center     Atomic      Atomic             Coordinates (Angstroms)
 Number     Number       Type             X           Y           Z
 ---------------------------------------------------------------------
      1          1           0        0.136590   -0.627303   -1.940347
      2          1           0        0.299354   -1.684144   -1.567033
      3         45           0       -0.276206   -0.744139   -0.355538
      4          6           0        1.709787   -0.276636    0.086540
      5          8           0        2.085071    0.009525    1.198939
      6          6           0        2.714091   -0.290920   -1.063103
      7          6           0        4.126083    0.110311   -0.676865
      8          1           0        2.312228    0.360192   -1.844774
      9          1           0        2.687750   -1.299022   -1.485868
     10          1           0        4.782069    0.070194   -1.548726
     11          1           0        4.156771    1.124438   -0.275640
     12          1           0        4.531694   -0.555384    0.085649
     13          6           0       -0.277784   -1.751506    1.313038
     14          8           0       -0.254543   -2.336691    2.285021
     15         15           0       -0.685192    1.532923    0.193100
     16          6           0       -2.319836    2.190290   -0.262922
     17          6           0        0.446827    2.745523   -0.553895
     18          6           0       -0.568536    1.900956    1.967175
     19          1           0       -1.344673    1.347334    2.497997
     20          1           0       -0.685171    2.968296    2.166870
     21          1           0        0.402515    1.561881    2.329644
     22          1           0       -3.098814    1.612522    0.236862
     23          1           0       -2.461981    2.097481   -1.340721
     24          1           0       -2.419467    3.239723    0.022030
     25          1           0        0.404987    2.658550   -1.640325
     26          1           0        1.467806    2.544644   -0.228000
     27          1           0        0.179198    3.763793   -0.263889
     28          6           0       -2.126849   -1.143070   -0.875340
     29          8           0       -3.188830   -1.372896   -1.197560
 ---------------------------------------------------------------------
 Rotational constants (GHZ):           0.6063483           0.4640024           0.3699308
 Leave Link  202 at Tue Oct  4 22:43:46 2022, MaxMem=  2952790016 cpu:               0.1 elap:               0.0
 (Enter /mnt/data/applications/G16/g16/l301.exe)
 Basis read from chk: "TS3.chk" (5D, 7F)
 Pseudo-potential data read from chk file.
 There are   573 symmetry adapted cartesian basis functions of A   symmetry.
 There are   510 symmetry adapted basis functions of A   symmetry.
   510 basis functions,   823 primitive gaussians,   573 cartesian basis functions
    60 alpha electrons       60 beta electrons
       nuclear repulsion energy      1121.3738108335 Hartrees.
 IExCor= 4639 DFT=T Ex+Corr=wB97XD ExCW=0 ScaHFX=  1.000000
 ScaDFX=  1.000000  1.000000  1.000000  1.000000 ScalE2=  1.000000  1.000000
 IRadAn=      5 IRanWt=     -1 IRanGd=            0 ICorTp=0 IEmpDi=121
 HFx  wShort=  0.000000 wLong=  0.200000 cFull=  0.222036 cShort=  0.000000 cLong=  0.777964
 DFx  wShort=  0.000000 wLong=  0.200000 cFull=  0.000000 cShort=  0.000000 cLong=  1.000000
 NAtoms=   29 NActive=   29 NUniq=   29 SFac= 1.00D+00 NAtFMM=   60 NAOKFM=F Big=F
 Integral buffers will be    131072 words long.
 Raffenetti 2 integral format.
 Two-electron integral symmetry is turned on.
 R6Disp:  Grimme-D2 Dispersion energy=       -0.0251172617 Hartrees.
 Nuclear repulsion after empirical dispersion term =     1121.3486935718 Hartrees.
 No density basis found on file 20724.
 Force inversion solution in PCM.
 ------------------------------------------------------------------------------
 Polarizable Continuum Model (PCM)
 =================================
 Model                : PCM.
 Atomic radii         : SMD-Coulomb.
 Polarization charges : Total charges.
 Charge compensation  : None.
 Solution method      : Matrix inversion.
 Cavity type          : VdW (van der Waals Surface) (Alpha=1.000).
 Cavity algorithm     : GePol (No added spheres)
                        Default sphere list used, NSphG=   29.
                        Lebedev-Laikov grids with approx.  5.0 points / Ang**2.
                        Smoothing algorithm: York/Karplus (Gamma=1.0000).
                        Polarization charges: spherical gaussians, with
                                              point-specific exponents (IZeta= 3).
                        Self-potential: point-specific (ISelfS= 7).
                        Self-field    : sphere-specific E.n sum rule (ISelfD= 2).
 1st derivatives      : Analytical E(r).r(x)/FMM algorithm (CHGder, D1EAlg=3).
                        Cavity 1st derivative terms included.
 2nd derivatives      : Analytical E(r).r(xy)/FMM algorithm (CHGder, D2EAlg=3).
                        Cavity 2nd derivative terms included.
 Solvent              : Toluene, Eps=   2.374100 Eps(inf)=   2.238315
 ------------------------------------------------------------------------------
 GePol: Number of generator spheres                  =      29
 GePol: Total number of spheres                      =      29
 GePol: Number of exposed spheres                    =      29 (100.00%)
 GePol: Number of points                             =    2528
 GePol: Average weight of points                     =       0.12
 GePol: Minimum weight of points                     =   0.92D-10
 GePol: Maximum weight of points                     =    0.20359
 GePol: Number of points with low weight             =     126
 GePol: Fraction of low-weight points (<1% of avg)   =       4.98%
 GePol: Cavity surface area                          =    307.010 Ang**2
 GePol: Cavity volume                                =    291.735 Ang**3
 ------------------------------------------------------------------------------
 Atomic radii for non-electrostatic terms: SMD-CDS.
 ------------------------------------------------------------------------------
 PCM non-electrostatic energy =        -0.0003974249 Hartrees.
 Nuclear repulsion after PCM non-electrostatic terms =     1121.3482961468 Hartrees.
 Leave Link  301 at Tue Oct  4 22:43:46 2022, MaxMem=  2952790016 cpu:               1.9 elap:               0.2
 (Enter /mnt/data/applications/G16/g16/l302.exe)
 NPDir=0 NMtPBC=     1 NCelOv=     1 NCel=       1 NClECP=     1 NCelD=      1
         NCelK=      1 NCelE2=     1 NClLst=     1 CellRange=     0.0.
 One-electron integrals computed using PRISM.
 One-electron integral symmetry used in STVInt
   1 Symmetry operations used in ECPInt.
 ECPInt:  NShTT=   22578 NPrTT=   66767 LenC2=   21054 LenP2D=   46542.
 LDataN:  DoStor=T MaxTD1= 7 Len=  274
 NBasis=   510 RedAO= T EigKep=  1.37D-04  NBF=   510
 NBsUse=   510 1.00D-06 EigRej= -1.00D+00 NBFU=   510
 Precomputing XC quadrature grid using
 IXCGrd= 4 IRadAn=           5 IRanWt=          -1 IRanGd=           0 AccXCQ= 0.00D+00.
 Defaulting to unpruned grid for atomic number  45.
 Generated NRdTot=       0 NPtTot=           0 NUsed=           0 NTot=          32
 NSgBfM=   568   568   568   568   568 MxSgAt=    29 MxSgA2=    29.
 Leave Link  302 at Tue Oct  4 22:43:48 2022, MaxMem=  2952790016 cpu:              19.8 elap:               1.7
 (Enter /mnt/data/applications/G16/g16/l303.exe)
 DipDrv:  MaxL=1.
 Leave Link  303 at Tue Oct  4 22:43:48 2022, MaxMem=  2952790016 cpu:               1.2 elap:               0.1
 (Enter /mnt/data/applications/G16/g16/l401.exe)
 Initial guess from the checkpoint file:  "TS3.chk"
 B after Tr=    -0.000000   -0.000000    0.000000
         Rot=    1.000000    0.000000    0.000000   -0.000000 Ang=   0.00 deg.
 Guess basis will be translated and rotated to current coordinates.
 JPrj=2 DoOrth=T DoCkMO=T.
 Leave Link  401 at Tue Oct  4 22:43:49 2022, MaxMem=  2952790016 cpu:              17.3 elap:               1.5
 (Enter /mnt/data/applications/G16/g16/l502.exe)
 Integral symmetry usage will be decided dynamically.
 Closed shell SCF:
 Using DIIS extrapolation, IDIIS=  1040.
 NGot=  2952790016 LenX=  2952121135 LenY=  2951792233
 Requested convergence on RMS density matrix=1.00D-08 within 128 cycles.
 Requested convergence on MAX density matrix=1.00D-06.
 Requested convergence on             energy=1.00D-06.
 No special actions if energy rises.
 Fock matrices will be formed incrementally for  20 cycles.

 Cycle   1  Pass 1  IDiag  1:
 FoFJK:  IHMeth= 1 ICntrl=       0 DoSepK=T KAlg= 0 I1Cent=           0 FoldK=F
 IRaf=         1 NMat=       1 IRICut=       1 DoRegI=T DoRafI=F ISym2E= 0 IDoP0=0 IntGTp=1.
 FoFCou: FMM=F IPFlag=           0 FMFlag=      100000 FMFlg1=           0
         NFxFlg=           0 DoJE=T BraDBF=F KetDBF=F FulRan=T
         wScrn=  0.000000 ICntrl=       500 IOpCl=  0 I1Cent=           0 NGrid=           0
         NMat0=    1 NMatS0=      1 NMatT0=    0 NMatD0=    1 NMtDS0=    0 NMtDT0=    0
 Symmetry not used in FoFCou.
 Defaulting to unpruned grid for atomic number  45.
 Defaulting to unpruned grid for atomic number  45.
 Defaulting to unpruned grid for atomic number  45.
 Defaulting to unpruned grid for atomic number  45.
 Defaulting to unpruned grid for atomic number  45.
 Defaulting to unpruned grid for atomic number  45.
 Defaulting to unpruned grid for atomic number  45.
 Defaulting to unpruned grid for atomic number  45.
 Defaulting to unpruned grid for atomic number  45.
 Defaulting to unpruned grid for atomic number  45.
 Defaulting to unpruned grid for atomic number  45.
 Defaulting to unpruned grid for atomic number  45.
 Inv3:  Mode=1 IEnd=    19172352.
 Iteration    1 A*A^-1 deviation from unit magnitude is 2.44D-15 for     66.
 Iteration    1 A*A^-1 deviation from orthogonality  is 1.65D-15 for   1337    549.
 Iteration    1 A^-1*A deviation from unit magnitude is 2.89D-15 for     66.
 Iteration    1 A^-1*A deviation from orthogonality  is 1.45D-15 for   2372    634.
 E= -992.211166873719    
 DIIS: error= 1.28D-08 at cycle   1 NSaved=   1.
 NSaved= 1 IEnMin= 1 EnMin= -992.211166873719     IErMin= 1 ErrMin= 1.28D-08
 ErrMax= 1.28D-08  0.00D+00 EMaxC= 1.00D-01 BMatC= 2.45D-13 BMatP= 2.45D-13
 IDIUse=1 WtCom= 1.00D+00 WtEn= 0.00D+00
 Coeff-Com:  0.100D+01
 Coeff:      0.100D+01
 Gap=     0.328 Goal=   None    Shift=    0.000
 RMSDP=2.84D-09 MaxDP=2.47D-07              OVMax= 5.40D-07

 Error on total polarization charges =  0.03086
 SCF Done:  E(RwB97XD) =  -992.211166874     A.U. after    1 cycles
            NFock=  1  Conv=0.28D-08     -V/T= 2.0799
 KE= 9.188070760976D+02 PE=-4.549654451658D+03 EE= 1.517287912540D+03
 SMD-CDS (non-electrostatic) energy       (kcal/mol) =      -0.25
 (included in total energy above)
 Leave Link  502 at Tue Oct  4 22:45:20 2022, MaxMem=  2952790016 cpu:            1047.5 elap:              90.6
 (Enter /mnt/data/applications/G16/g16/l801.exe)
 DoSCS=F DFT=T ScalE2(SS,OS)=  1.000000  1.000000
 Range of M.O.s used for correlation:     1   510
 NBasis=   510 NAE=    60 NBE=    60 NFC=     0 NFV=     0
 NROrb=    510 NOA=    60 NOB=    60 NVA=   450 NVB=   450

 **** Warning!!: The largest alpha MO coefficient is  0.17675722D+02

 Leave Link  801 at Tue Oct  4 22:45:20 2022, MaxMem=  2952790016 cpu:               0.3 elap:               0.0
 (Enter /mnt/data/applications/G16/g16/l1101.exe)
 Using compressed storage, NAtomX=    29.
 Will process     30 centers per pass.
   1 Symmetry operations used in ECPInt.
 ECPInt:  NShTT=   22578 NPrTT=   66767 LenC2=   21054 LenP2D=   46542.
 LDataN:  DoStor=T MaxTD1= 8 Len=  415
 R6Disp: Adding Grimme-D2 dispersion energy 1st derivatives to the gradient.
 Leave Link 1101 at Tue Oct  4 22:45:23 2022, MaxMem=  2952790016 cpu:              40.7 elap:               3.4
 (Enter /mnt/data/applications/G16/g16/l1102.exe)
 Symmetrizing basis deriv contribution to polar:
 IMax=3 JMax=2 DiffMx= 0.00D+00
 Leave Link 1102 at Tue Oct  4 22:45:24 2022, MaxMem=  2952790016 cpu:               1.1 elap:               0.1
 (Enter /mnt/data/applications/G16/g16/l1110.exe)
 Forming Gx(P) for the SCF density, NAtomX=    29.
 Integral derivatives from FoFJK, PRISM(SPDF).
 Do as many integral derivatives as possible in FoFJK.
 G2DrvN: MDV=    2952787676.
 G2DrvN: will do    30 centers at a time, making    1 passes.
 Calling FoFCou, ICntrl=  3107 FMM=F I1Cent=   0 AccDes= 0.00D+00.
 FoFJK:  IHMeth= 1 ICntrl=    3107 DoSepK=T KAlg= 0 I1Cent=           0 FoldK=F
 IRaf=         1 NMat=       1 IRICut=       1 DoRegI=T DoRafI=F ISym2E= 0 IDoP0=0 IntGTp=1.
 FoFCou: FMM=F IPFlag=           0 FMFlag=      100000 FMFlg1=           0
         NFxFlg=           0 DoJE=F BraDBF=F KetDBF=F FulRan=T
         wScrn=  0.000000 ICntrl=      3507 IOpCl=  0 I1Cent=           0 NGrid=           0
         NMat0=    1 NMatS0=      1 NMatT0=    0 NMatD0=    1 NMtDS0=    0 NMtDT0=    0
 Symmetry not used in FoFCou.
 Defaulting to unpruned grid for atomic number  45.
 Defaulting to unpruned grid for atomic number  45.
 Defaulting to unpruned grid for atomic number  45.
 Defaulting to unpruned grid for atomic number  45.
 Defaulting to unpruned grid for atomic number  45.
 Defaulting to unpruned grid for atomic number  45.
 Defaulting to unpruned grid for atomic number  45.
 Defaulting to unpruned grid for atomic number  45.
 Defaulting to unpruned grid for atomic number  45.
 Defaulting to unpruned grid for atomic number  45.
 Defaulting to unpruned grid for atomic number  45.
 Defaulting to unpruned grid for atomic number  45.
 NEqPCM:  Using equilibrium solvation (IEInf=0, Eps=   2.3741, EpsInf=   2.2383)
 G2PCM: DoFxE=T DoFxN=T DoGrad=T DoDP/DQ/DG/TGxP=FFFF NFrqRd=   0 IEInf=0 SqF1=F DoCFld=F IF1Alg=4.
 GePol: Maximum number of non-zero 1st derivatives   =     415
 End of G2Drv F.D. properties file   721 does not exist.
 End of G2Drv F.D. properties file   722 does not exist.
 End of G2Drv F.D. properties file   788 does not exist.
 Leave Link 1110 at Tue Oct  4 23:04:25 2022, MaxMem=  2952790016 cpu:           13654.6 elap:            1140.9
 (Enter /mnt/data/applications/G16/g16/l1002.exe)
 Minotr:  Closed shell wavefunction.
          IDoAtm=11111111111111111111111111111
 NEqPCM:  Using equilibrium solvation (IEInf=0, Eps=   2.3741, EpsInf=   2.2383)
          Direct CPHF calculation.
          Differentiating once with respect to electric field.
                with respect to dipole field.
          Differentiating once with respect to nuclear coordinates.
          Requested convergence is 1.0D-08 RMS, and 1.0D-07 maximum.
          Secondary convergence is 1.0D-12 RMS, and 1.0D-12 maximum.
          NewPWx=T KeepS1=F KeepF1=F KeepIn=T MapXYZ=F SortEE=F KeepMc=T.
 Defaulting to unpruned grid for atomic number  45.
         8986 words used for storage of precomputed grid.
 Two-electron integrals replicated using symmetry.
          MDV=    2952790016 using IRadAn=       1.
          Solving linear equations simultaneously, MaxMat=     384.
 FoF2E skips out because all densities are zero.
 CalDSu exits because no D1Ps are significant.
 FoFJK:  IHMeth= 1 ICntrl=       0 DoSepK=T KAlg= 0 I1Cent=           0 FoldK=F
 IRaf=         1 NMat=      87 IRICut=       1 DoRegI=T DoRafI=F ISym2E= 2 IDoP0=3 IntGTp=3.
 Defaulting to unpruned grid for atomic number  45.
 Defaulting to unpruned grid for atomic number  45.
 Defaulting to unpruned grid for atomic number  45.
 Defaulting to unpruned grid for atomic number  45.
 Defaulting to unpruned grid for atomic number  45.
 Defaulting to unpruned grid for atomic number  45.
 Defaulting to unpruned grid for atomic number  45.
 Defaulting to unpruned grid for atomic number  45.
 Defaulting to unpruned grid for atomic number  45.
 Defaulting to unpruned grid for atomic number  45.
 Defaulting to unpruned grid for atomic number  45.
 Defaulting to unpruned grid for atomic number  45.
          There are    90 degrees of freedom in the 1st order CPHF.  IDoFFX=6 NUNeed=     3.
     87 vectors produced by pass  0 Test12= 3.00D-14 1.11D-09 XBig12= 9.14D+01 2.63D+00.
 AX will form    87 AO Fock derivatives at one time.
     87 vectors produced by pass  1 Test12= 3.00D-14 1.11D-09 XBig12= 1.09D+01 5.28D-01.
     87 vectors produced by pass  2 Test12= 3.00D-14 1.11D-09 XBig12= 4.27D-01 1.01D-01.
     87 vectors produced by pass  3 Test12= 3.00D-14 1.11D-09 XBig12= 8.96D-03 1.31D-02.
     87 vectors produced by pass  4 Test12= 3.00D-14 1.11D-09 XBig12= 1.34D-04 1.22D-03.
     87 vectors produced by pass  5 Test12= 3.00D-14 1.11D-09 XBig12= 1.20D-06 1.09D-04.
     87 vectors produced by pass  6 Test12= 3.00D-14 1.11D-09 XBig12= 8.47D-09 1.12D-05.
     44 vectors produced by pass  7 Test12= 3.00D-14 1.11D-09 XBig12= 6.09D-11 1.09D-06.
      7 vectors produced by pass  8 Test12= 3.00D-14 1.11D-09 XBig12= 4.44D-13 1.34D-07.
      3 vectors produced by pass  9 Test12= 3.00D-14 1.11D-09 XBig12= 3.72D-15 1.29D-08.
 InvSVY:  IOpt=1 It=  1 EMax= 2.05D-15
 Solved reduced A of dimension   663 with    90 vectors.
 FullF1:  Do perturbations      1 to       3.
 Isotropic polarizability for W=    0.000000      199.38 Bohr**3.
 End of Minotr F.D. properties file   721 does not exist.
 End of Minotr F.D. properties file   722 does not exist.
 End of Minotr F.D. properties file   788 does not exist.
 Leave Link 1002 at Wed Oct  5 00:10:00 2022, MaxMem=  2952790016 cpu:           47083.9 elap:            3935.3
 (Enter /mnt/data/applications/G16/g16/l601.exe)
 Copying SCF densities to generalized density rwf, IOpCl= 0 IROHF=0.

 **********************************************************************

            Population analysis using the SCF density.

 **********************************************************************

 Orbital symmetries:
       Occupied  (A) (A) (A) (A) (A) (A) (A) (A) (A) (A) (A) (A)
                 (A) (A) (A) (A) (A) (A) (A) (A) (A) (A) (A) (A)
                 (A) (A) (A) (A) (A) (A) (A) (A) (A) (A) (A) (A)
                 (A) (A) (A) (A) (A) (A) (A) (A) (A) (A) (A) (A)
                 (A) (A) (A) (A) (A) (A) (A) (A) (A) (A) (A) (A)
       Virtual   (A) (A) (A) (A) (A) (A) (A) (A) (A) (A) (A) (A)
                 (A) (A) (A) (A) (A) (A) (A) (A) (A) (A) (A) (A)
                 (A) (A) (A) (A) (A) (A) (A) (A) (A) (A) (A) (A)
                 (A) (A) (A) (A) (A) (A) (A) (A) (A) (A) (A) (A)
                 (A) (A) (A) (A) (A) (A) (A) (A) (A) (A) (A) (A)
                 (A) (A) (A) (A) (A) (A) (A) (A) (A) (A) (A) (A)
                 (A) (A) (A) (A) (A) (A) (A) (A) (A) (A) (A) (A)
                 (A) (A) (A) (A) (A) (A) (A) (A) (A) (A) (A) (A)
                 (A) (A) (A) (A) (A) (A) (A) (A) (A) (A) (A) (A)
                 (A) (A) (A) (A) (A) (A) (A) (A) (A) (A) (A) (A)
                 (A) (A) (A) (A) (A) (A) (A) (A) (A) (A) (A) (A)
                 (A) (A) (A) (A) (A) (A) (A) (A) (A) (A) (A) (A)
                 (A) (A) (A) (A) (A) (A) (A) (A) (A) (A) (A) (A)
                 (A) (A) (A) (A) (A) (A) (A) (A) (A) (A) (A) (A)
                 (A) (A) (A) (A) (A) (A) (A) (A) (A) (A) (A) (A)
                 (A) (A) (A) (A) (A) (A) (A) (A) (A) (A) (A) (A)
                 (A) (A) (A) (A) (A) (A) (A) (A) (A) (A) (A) (A)
                 (A) (A) (A) (A) (A) (A) (A) (A) (A) (A) (A) (A)
                 (A) (A) (A) (A) (A) (A) (A) (A) (A) (A) (A) (A)
                 (A) (A) (A) (A) (A) (A) (A) (A) (A) (A) (A) (A)
                 (A) (A) (A) (A) (A) (A) (A) (A) (A) (A) (A) (A)
                 (A) (A) (A) (A) (A) (A) (A) (A) (A) (A) (A) (A)
                 (A) (A) (A) (A) (A) (A) (A) (A) (A) (A) (A) (A)
                 (A) (A) (A) (A) (A) (A) (A) (A) (A) (A) (A) (A)
                 (A) (A) (A) (A) (A) (A) (A) (A) (A) (A) (A) (A)
                 (A) (A) (A) (A) (A) (A) (A) (A) (A) (A) (A) (A)
                 (A) (A) (A) (A) (A) (A) (A) (A) (A) (A) (A) (A)
                 (A) (A) (A) (A) (A) (A) (A) (A) (A) (A) (A) (A)
                 (A) (A) (A) (A) (A) (A) (A) (A) (A) (A) (A) (A)
                 (A) (A) (A) (A) (A) (A) (A) (A) (A) (A) (A) (A)
                 (A) (A) (A) (A) (A) (A) (A) (A) (A) (A) (A) (A)
                 (A) (A) (A) (A) (A) (A) (A) (A) (A) (A) (A) (A)
                 (A) (A) (A) (A) (A) (A) (A) (A) (A) (A) (A) (A)
                 (A) (A) (A) (A) (A) (A) (A) (A) (A) (A) (A) (A)
                 (A) (A) (A) (A) (A) (A) (A) (A) (A) (A) (A) (A)
                 (A) (A) (A) (A) (A) (A) (A) (A) (A) (A) (A) (A)
                 (A) (A) (A) (A) (A) (A) (A) (A) (A) (A) (A) (A)
                 (A) (A) (A) (A) (A) (A)
 The electronic state is 1-A.
 Alpha  occ. eigenvalues --  -77.24277 -19.33789 -19.32404 -19.22437 -10.41566
 Alpha  occ. eigenvalues --  -10.40379 -10.35576 -10.28636 -10.28419 -10.27916
 Alpha  occ. eigenvalues --  -10.27476 -10.26098  -6.68636  -4.83332  -4.83308
 Alpha  occ. eigenvalues --   -4.83028  -3.36755  -2.11948  -2.11508  -2.10249
 Alpha  occ. eigenvalues --   -1.25382  -1.23949  -1.13097  -0.88078  -0.86307
 Alpha  occ. eigenvalues --   -0.80071  -0.79719  -0.73776  -0.67413  -0.65814
 Alpha  occ. eigenvalues --   -0.64179  -0.60372  -0.57568  -0.56374  -0.56313
 Alpha  occ. eigenvalues --   -0.55446  -0.55130  -0.54784  -0.54483  -0.53267
 Alpha  occ. eigenvalues --   -0.52645  -0.52485  -0.52253  -0.51585  -0.49717
 Alpha  occ. eigenvalues --   -0.49313  -0.48709  -0.47674  -0.45536  -0.44415
 Alpha  occ. eigenvalues --   -0.42820  -0.42547  -0.42299  -0.41644  -0.40724
 Alpha  occ. eigenvalues --   -0.37102  -0.36108  -0.32405  -0.29652  -0.28458
 Alpha virt. eigenvalues --    0.04353   0.05343   0.06181   0.06512   0.06834
 Alpha virt. eigenvalues --    0.07233   0.07665   0.08206   0.08423   0.08938
 Alpha virt. eigenvalues --    0.10696   0.12604   0.13494   0.13622   0.15194
 Alpha virt. eigenvalues --    0.16109   0.16846   0.17178   0.17510   0.18549
 Alpha virt. eigenvalues --    0.19136   0.19424   0.19739   0.20395   0.20964
 Alpha virt. eigenvalues --    0.21173   0.21643   0.21883   0.23089   0.23468
 Alpha virt. eigenvalues --    0.24409   0.24639   0.25681   0.26437   0.26499
 Alpha virt. eigenvalues --    0.27272   0.27618   0.28405   0.28996   0.29615
 Alpha virt. eigenvalues --    0.30771   0.31190   0.32177   0.33280   0.34191
 Alpha virt. eigenvalues --    0.34631   0.35577   0.36403   0.38115   0.38625
 Alpha virt. eigenvalues --    0.40058   0.41202   0.42012   0.42574   0.42933
 Alpha virt. eigenvalues --    0.44821   0.45325   0.45823   0.46013   0.47047
 Alpha virt. eigenvalues --    0.47455   0.48243   0.48694   0.49524   0.49972
 Alpha virt. eigenvalues --    0.50674   0.51468   0.51779   0.52056   0.52510
 Alpha virt. eigenvalues --    0.52857   0.53555   0.54332   0.54649   0.54858
 Alpha virt. eigenvalues --    0.55338   0.55699   0.56149   0.56577   0.57390
 Alpha virt. eigenvalues --    0.57753   0.59230   0.59351   0.59803   0.60363
 Alpha virt. eigenvalues --    0.60972   0.61966   0.62670   0.63444   0.64217
 Alpha virt. eigenvalues --    0.64653   0.66052   0.66249   0.67763   0.68529
 Alpha virt. eigenvalues --    0.69563   0.69902   0.70428   0.71796   0.72475
 Alpha virt. eigenvalues --    0.73458   0.75001   0.75677   0.76417   0.77611
 Alpha virt. eigenvalues --    0.78465   0.79577   0.80392   0.81636   0.82883
 Alpha virt. eigenvalues --    0.84244   0.84867   0.85495   0.86499   0.87601
 Alpha virt. eigenvalues --    0.88978   0.89917   0.92051   0.92880   0.93418
 Alpha virt. eigenvalues --    0.94244   0.96017   0.96935   0.97773   0.98347
 Alpha virt. eigenvalues --    0.99055   1.00134   1.01389   1.03085   1.03401
 Alpha virt. eigenvalues --    1.04087   1.06314   1.08030   1.08967   1.09850
 Alpha virt. eigenvalues --    1.10542   1.12672   1.13373   1.13872   1.14267
 Alpha virt. eigenvalues --    1.15357   1.16587   1.18054   1.18658   1.19496
 Alpha virt. eigenvalues --    1.20520   1.21394   1.21979   1.23418   1.25216
 Alpha virt. eigenvalues --    1.26883   1.29100   1.31397   1.31595   1.35708
 Alpha virt. eigenvalues --    1.37652   1.43962   1.47474   1.47694   1.50187
 Alpha virt. eigenvalues --    1.50392   1.52544   1.53405   1.54588   1.55365
 Alpha virt. eigenvalues --    1.55691   1.56874   1.58091   1.58840   1.59561
 Alpha virt. eigenvalues --    1.59885   1.60763   1.61345   1.61830   1.62234
 Alpha virt. eigenvalues --    1.62591   1.63577   1.63803   1.64199   1.64704
 Alpha virt. eigenvalues --    1.65329   1.65994   1.66257   1.66400   1.66903
 Alpha virt. eigenvalues --    1.67763   1.68228   1.68948   1.69876   1.70604
 Alpha virt. eigenvalues --    1.71192   1.71795   1.72879   1.73118   1.74110
 Alpha virt. eigenvalues --    1.74382   1.75561   1.76495   1.78332   1.79493
 Alpha virt. eigenvalues --    1.81374   1.82540   1.84054   1.86056   1.89385
 Alpha virt. eigenvalues --    1.90091   1.93342   1.95117   1.96150   1.97412
 Alpha virt. eigenvalues --    1.98335   1.99319   2.00444   2.01811   2.03868
 Alpha virt. eigenvalues --    2.04567   2.05807   2.07097   2.10063   2.10743
 Alpha virt. eigenvalues --    2.11013   2.11805   2.13422   2.14337   2.15922
 Alpha virt. eigenvalues --    2.16288   2.17229   2.18064   2.19089   2.20505
 Alpha virt. eigenvalues --    2.21246   2.24164   2.25955   2.26476   2.27223
 Alpha virt. eigenvalues --    2.30092   2.31958   2.33140   2.35391   2.35969
 Alpha virt. eigenvalues --    2.37799   2.39761   2.40266   2.41293   2.42025
 Alpha virt. eigenvalues --    2.43244   2.43967   2.45060   2.45388   2.47047
 Alpha virt. eigenvalues --    2.48449   2.49783   2.51286   2.52551   2.54671
 Alpha virt. eigenvalues --    2.55785   2.56738   2.57195   2.59343   2.60073
 Alpha virt. eigenvalues --    2.61750   2.63225   2.64196   2.65789   2.66481
 Alpha virt. eigenvalues --    2.67198   2.68246   2.69144   2.69983   2.70720
 Alpha virt. eigenvalues --    2.71340   2.72449   2.74392   2.74622   2.74863
 Alpha virt. eigenvalues --    2.75561   2.76329   2.77951   2.79772   2.80897
 Alpha virt. eigenvalues --    2.84825   2.86306   2.86814   2.88098   2.89975
 Alpha virt. eigenvalues --    2.90795   2.91525   2.92434   2.93069   2.93947
 Alpha virt. eigenvalues --    2.94790   2.96848   2.98184   2.99143   2.99635
 Alpha virt. eigenvalues --    3.01243   3.01893   3.02985   3.04860   3.05731
 Alpha virt. eigenvalues --    3.06333   3.09386   3.10505   3.11190   3.13242
 Alpha virt. eigenvalues --    3.14086   3.14547   3.15036   3.16815   3.17468
 Alpha virt. eigenvalues --    3.18347   3.19455   3.20539   3.21271   3.22251
 Alpha virt. eigenvalues --    3.23536   3.23821   3.24322   3.25300   3.27115
 Alpha virt. eigenvalues --    3.27405   3.29014   3.30269   3.31161   3.31474
 Alpha virt. eigenvalues --    3.34063   3.35520   3.36202   3.37552   3.38778
 Alpha virt. eigenvalues --    3.39093   3.40218   3.41686   3.41912   3.42935
 Alpha virt. eigenvalues --    3.43694   3.44135   3.45265   3.46633   3.49035
 Alpha virt. eigenvalues --    3.50499   3.52781   3.55099   3.56611   3.57661
 Alpha virt. eigenvalues --    3.60787   3.61559   3.62640   3.63996   3.65558
 Alpha virt. eigenvalues --    3.68401   3.68786   3.69236   3.69772   3.70741
 Alpha virt. eigenvalues --    3.70895   3.71631   3.72331   3.73774   3.74468
 Alpha virt. eigenvalues --    3.75617   3.76529   3.80189   3.81417   3.81765
 Alpha virt. eigenvalues --    3.86059   3.87326   3.91466   3.98110   4.00571
 Alpha virt. eigenvalues --    4.01379   4.02375   4.09126   4.13987   4.19907
 Alpha virt. eigenvalues --    4.29433   4.32623   4.34944   4.35641   4.36563
 Alpha virt. eigenvalues --    4.38538   4.40055   4.40891   4.41611   4.45168
 Alpha virt. eigenvalues --    4.48441   4.50650   4.51537   4.53103   4.55862
 Alpha virt. eigenvalues --    4.61894   4.66184   4.70357   4.94032   4.94726
 Alpha virt. eigenvalues --    5.17863   5.17890   5.19207   5.19332   5.29097
 Alpha virt. eigenvalues --    5.29782   5.57472   5.58004   5.58714   5.60253
 Alpha virt. eigenvalues --    5.64485   5.69538   6.22567   6.29752   6.30925
 Alpha virt. eigenvalues --    6.32069   6.33663   6.34048   6.34192   6.35033
 Alpha virt. eigenvalues --    6.35925   6.42194   6.44708   6.51281   6.56154
 Alpha virt. eigenvalues --    6.63124   6.65342   6.80590   6.80964   6.82011
 Alpha virt. eigenvalues --    6.83439   6.94242   7.11244   7.16661   7.17662
 Alpha virt. eigenvalues --    7.20286   7.80266   7.89994   7.93897  15.68805
 Alpha virt. eigenvalues --   22.42089  22.42219  22.43514  22.46640  22.58865
 Alpha virt. eigenvalues --   22.69077  22.84013  23.17205  38.38406  38.55446
 Alpha virt. eigenvalues --   38.62198  43.92755  43.96219  44.13364  49.78601
          Condensed to atoms (all electrons):
               1          2          3          4          5          6
     1  H    0.617331   0.105367   0.247125  -0.014067   0.000259   0.001915
     2  H    0.105367   0.601809   0.219964   0.000688  -0.000128   0.002726
     3  Rh   0.247125   0.219964  16.006253   0.160863  -0.005348  -0.022133
     4  C   -0.014067   0.000688   0.160863   5.171436   0.476649   0.172838
     5  O    0.000259  -0.000128  -0.005348   0.476649   7.997398  -0.102712
     6  C    0.001915   0.002726  -0.022133   0.172838  -0.102712   5.281518
     7  C    0.001163   0.001126   0.018142  -0.028785   0.025789   0.237050
     8  H   -0.007096  -0.001191  -0.002017  -0.034833   0.001977   0.417839
     9  H   -0.003106  -0.003986  -0.011178  -0.028594   0.000364   0.410002
    10  H   -0.000067  -0.000032  -0.000426   0.011275   0.001022  -0.050907
    11  H    0.000006  -0.000021  -0.000825  -0.006681  -0.000137  -0.029947
    12  H   -0.000024   0.000008   0.000794  -0.008841   0.001735  -0.027829
    13  C   -0.010758   0.016747   0.159850   0.008472  -0.022672  -0.009984
    14  O    0.000245  -0.000667  -0.004687  -0.003438   0.001438   0.000405
    15  P    0.019214  -0.011470   0.297967   0.002416  -0.007053  -0.011399
    16  C   -0.000677   0.000542  -0.031040   0.001013   0.000254   0.000112
    17  C   -0.001665   0.000506  -0.030369  -0.008848  -0.005323   0.008987
    18  C    0.000297   0.000271  -0.032605  -0.003177  -0.007201   0.000021
    19  H   -0.000007  -0.000013  -0.003534   0.000855  -0.000294  -0.000024
    20  H    0.000014  -0.000009   0.007921  -0.000393   0.000097  -0.000019
    21  H   -0.000025   0.000006  -0.003470  -0.006724   0.012691   0.001113
    22  H   -0.000016  -0.000023  -0.005940  -0.000040   0.000000   0.000009
    23  H    0.000010   0.000075  -0.003302   0.000151  -0.000005  -0.000009
    24  H    0.000046  -0.000012   0.006981  -0.000091  -0.000007  -0.000010
    25  H   -0.000210   0.000096  -0.002806  -0.000242   0.000309  -0.000447
    26  H   -0.000042   0.000097  -0.011588   0.008881   0.003505  -0.004704
    27  H    0.000101  -0.000020   0.008445   0.000052  -0.000121  -0.000274
    28  C   -0.008741  -0.009183   0.121990  -0.021880   0.001693   0.002472
    29  O   -0.000688  -0.000558  -0.005296   0.000287  -0.000003  -0.000013
               7          8          9         10         11         12
     1  H    0.001163  -0.007096  -0.003106  -0.000067   0.000006  -0.000024
     2  H    0.001126  -0.001191  -0.003986  -0.000032  -0.000021   0.000008
     3  Rh   0.018142  -0.002017  -0.011178  -0.000426  -0.000825   0.000794
     4  C   -0.028785  -0.034833  -0.028594   0.011275  -0.006681  -0.008841
     5  O    0.025789   0.001977   0.000364   0.001022  -0.000137   0.001735
     6  C    0.237050   0.417839   0.410002  -0.050907  -0.029947  -0.027829
     7  C    4.909304  -0.037250  -0.021169   0.421014   0.413554   0.413399
     8  H   -0.037250   0.545835  -0.030538  -0.002929  -0.005128   0.006125
     9  H   -0.021169  -0.030538   0.539494  -0.003770   0.005898  -0.005728
    10  H    0.421014  -0.002929  -0.003770   0.553123  -0.026838  -0.024237
    11  H    0.413554  -0.005128   0.005898  -0.026838   0.556045  -0.023535
    12  H    0.413399   0.006125  -0.005728  -0.024237  -0.023535   0.540748
    13  C    0.000277   0.000513   0.000400   0.000014  -0.000000   0.000009
    14  O   -0.000012  -0.000008  -0.000027  -0.000000  -0.000001  -0.000006
    15  P    0.000066  -0.002066   0.000479  -0.000012  -0.000066   0.000014
    16  C   -0.000014   0.000033   0.000002  -0.000000  -0.000002   0.000000
    17  C   -0.001519   0.002836  -0.000351   0.000023  -0.000449   0.000065
    18  C    0.000065  -0.000039   0.000003   0.000001   0.000020  -0.000002
    19  H    0.000003  -0.000000   0.000001  -0.000000   0.000001  -0.000000
    20  H   -0.000006  -0.000002   0.000000  -0.000000   0.000001  -0.000000
    21  H   -0.000182  -0.000062  -0.000001  -0.000001  -0.000027  -0.000013
    22  H   -0.000000  -0.000000  -0.000000   0.000000  -0.000000  -0.000000
    23  H    0.000001  -0.000002  -0.000000  -0.000000  -0.000000  -0.000000
    24  H    0.000000  -0.000003   0.000000  -0.000000   0.000000  -0.000000
    25  H    0.000008  -0.000700   0.000072   0.000000   0.000018  -0.000006
    26  H    0.000768  -0.002416   0.000398  -0.000045   0.001848  -0.000070
    27  H    0.000046   0.000017  -0.000000  -0.000000   0.000014   0.000000
    28  C   -0.000172   0.000329   0.000249  -0.000000  -0.000000  -0.000003
    29  O    0.000000  -0.000002  -0.000002  -0.000000  -0.000000   0.000000
              13         14         15         16         17         18
     1  H   -0.010758   0.000245   0.019214  -0.000677  -0.001665   0.000297
     2  H    0.016747  -0.000667  -0.011470   0.000542   0.000506   0.000271
     3  Rh   0.159850  -0.004687   0.297967  -0.031040  -0.030369  -0.032605
     4  C    0.008472  -0.003438   0.002416   0.001013  -0.008848  -0.003177
     5  O   -0.022672   0.001438  -0.007053   0.000254  -0.005323  -0.007201
     6  C   -0.009984   0.000405  -0.011399   0.000112   0.008987   0.000021
     7  C    0.000277  -0.000012   0.000066  -0.000014  -0.001519   0.000065
     8  H    0.000513  -0.000008  -0.002066   0.000033   0.002836  -0.000039
     9  H    0.000400  -0.000027   0.000479   0.000002  -0.000351   0.000003
    10  H    0.000014  -0.000000  -0.000012  -0.000000   0.000023   0.000001
    11  H   -0.000000  -0.000001  -0.000066  -0.000002  -0.000449   0.000020
    12  H    0.000009  -0.000006   0.000014   0.000000   0.000065  -0.000002
    13  C    5.346986   0.549297  -0.012390   0.001023   0.000284  -0.000941
    14  O    0.549297   7.557193  -0.001014   0.000030  -0.000015   0.000757
    15  P   -0.012390  -0.001014  13.755491   0.328279   0.329586   0.333399
    16  C    0.001023   0.000030   0.328279   5.038576  -0.038392  -0.033698
    17  C    0.000284  -0.000015   0.329586  -0.038392   5.039317  -0.035589
    18  C   -0.000941   0.000757   0.333399  -0.033698  -0.035589   5.014115
    19  H    0.000387  -0.000138  -0.021803  -0.000751   0.004177   0.396097
    20  H   -0.000025  -0.000021  -0.029498  -0.006021  -0.004250   0.396460
    21  H   -0.000719  -0.000053  -0.019439   0.004200  -0.000595   0.398479
    22  H   -0.000096  -0.000011  -0.022413   0.398232   0.004676  -0.001448
    23  H   -0.000001  -0.000000  -0.023928   0.401077  -0.001084   0.004110
    24  H   -0.000038  -0.000000  -0.026068   0.395983  -0.005232  -0.004251
    25  H   -0.000019  -0.000000  -0.024404  -0.001028   0.399281   0.003992
    26  H    0.000180  -0.000004  -0.019591   0.004762   0.393577  -0.000320
    27  H   -0.000010  -0.000000  -0.028468  -0.005490   0.399511  -0.004929
    28  C    0.002490  -0.001940  -0.020022  -0.002022   0.000861   0.000140
    29  O   -0.002095   0.000139  -0.002812   0.001301   0.000008   0.000040
              19         20         21         22         23         24
     1  H   -0.000007   0.000014  -0.000025  -0.000016   0.000010   0.000046
     2  H   -0.000013  -0.000009   0.000006  -0.000023   0.000075  -0.000012
     3  Rh  -0.003534   0.007921  -0.003470  -0.005940  -0.003302   0.006981
     4  C    0.000855  -0.000393  -0.006724  -0.000040   0.000151  -0.000091
     5  O   -0.000294   0.000097   0.012691   0.000000  -0.000005  -0.000007
     6  C   -0.000024  -0.000019   0.001113   0.000009  -0.000009  -0.000010
     7  C    0.000003  -0.000006  -0.000182  -0.000000   0.000001   0.000000
     8  H   -0.000000  -0.000002  -0.000062  -0.000000  -0.000002  -0.000003
     9  H    0.000001   0.000000  -0.000001  -0.000000  -0.000000   0.000000
    10  H   -0.000000  -0.000000  -0.000001   0.000000  -0.000000  -0.000000
    11  H    0.000001   0.000001  -0.000027  -0.000000  -0.000000   0.000000
    12  H   -0.000000  -0.000000  -0.000013  -0.000000  -0.000000  -0.000000
    13  C    0.000387  -0.000025  -0.000719  -0.000096  -0.000001  -0.000038
    14  O   -0.000138  -0.000021  -0.000053  -0.000011  -0.000000  -0.000000
    15  P   -0.021803  -0.029498  -0.019439  -0.022413  -0.023928  -0.026068
    16  C   -0.000751  -0.006021   0.004200   0.398232   0.401077   0.395983
    17  C    0.004177  -0.004250  -0.000595   0.004676  -0.001084  -0.005232
    18  C    0.396097   0.396460   0.398479  -0.001448   0.004110  -0.004251
    19  H    0.505045  -0.021452  -0.012201   0.000763  -0.000090  -0.000143
    20  H   -0.021452   0.526383  -0.019785  -0.000142  -0.000161   0.003454
    21  H   -0.012201  -0.019785   0.465405  -0.000104  -0.000065  -0.000172
    22  H    0.000763  -0.000142  -0.000104   0.498329  -0.015790  -0.019351
    23  H   -0.000090  -0.000161  -0.000065  -0.015790   0.493283  -0.019725
    24  H   -0.000143   0.003454  -0.000172  -0.019351  -0.019725   0.513543
    25  H   -0.000079  -0.000102  -0.000086  -0.000087   0.000891  -0.000358
    26  H   -0.000007  -0.000542   0.000912  -0.000098  -0.000105  -0.000152
    27  H   -0.000100   0.003359  -0.000406  -0.000123  -0.000342   0.003914
    28  C   -0.000539   0.000044   0.000341   0.001051  -0.001590   0.000269
    29  O   -0.000026  -0.000003  -0.000003   0.000131  -0.000088  -0.000018
              25         26         27         28         29
     1  H   -0.000210  -0.000042   0.000101  -0.008741  -0.000688
     2  H    0.000096   0.000097  -0.000020  -0.009183  -0.000558
     3  Rh  -0.002806  -0.011588   0.008445   0.121990  -0.005296
     4  C   -0.000242   0.008881   0.000052  -0.021880   0.000287
     5  O    0.000309   0.003505  -0.000121   0.001693  -0.000003
     6  C   -0.000447  -0.004704  -0.000274   0.002472  -0.000013
     7  C    0.000008   0.000768   0.000046  -0.000172   0.000000
     8  H   -0.000700  -0.002416   0.000017   0.000329  -0.000002
     9  H    0.000072   0.000398  -0.000000   0.000249  -0.000002
    10  H    0.000000  -0.000045  -0.000000  -0.000000  -0.000000
    11  H    0.000018   0.001848   0.000014  -0.000000  -0.000000
    12  H   -0.000006  -0.000070   0.000000  -0.000003   0.000000
    13  C   -0.000019   0.000180  -0.000010   0.002490  -0.002095
    14  O   -0.000000  -0.000004  -0.000000  -0.001940   0.000139
    15  P   -0.024404  -0.019591  -0.028468  -0.020022  -0.002812
    16  C   -0.001028   0.004762  -0.005490  -0.002022   0.001301
    17  C    0.399281   0.393577   0.399511   0.000861   0.000008
    18  C    0.003992  -0.000320  -0.004929   0.000140   0.000040
    19  H   -0.000079  -0.000007  -0.000100  -0.000539  -0.000026
    20  H   -0.000102  -0.000542   0.003359   0.000044  -0.000003
    21  H   -0.000086   0.000912  -0.000406   0.000341  -0.000003
    22  H   -0.000087  -0.000098  -0.000123   0.001051   0.000131
    23  H    0.000891  -0.000105  -0.000342  -0.001590  -0.000088
    24  H   -0.000358  -0.000152   0.003914   0.000269  -0.000018
    25  H    0.495307  -0.013602  -0.020834   0.000254  -0.000008
    26  H   -0.013602   0.489324  -0.019768  -0.000101  -0.000000
    27  H   -0.020834  -0.019768   0.513179  -0.000050  -0.000001
    28  C    0.000254  -0.000101  -0.000050   5.376442   0.546239
    29  O   -0.000008  -0.000000  -0.000001   0.546239   7.550329
 Mulliken charges:
               1
     1  H    0.054095
     2  H    0.077286
     3  Rh  -0.079730
     4  C    0.150761
     5  O   -0.374176
     6  C   -0.276594
     7  C   -0.352665
     8  H    0.150780
     9  H    0.151092
    10  H    0.122794
    11  H    0.116254
    12  H    0.127399
    13  C   -0.027180
    14  O   -0.097461
    15  P    0.217006
    16  C   -0.456282
    17  C   -0.450012
    18  C   -0.424066
    19  H    0.153875
    20  H    0.144698
    21  H    0.180987
    22  H    0.162492
    23  H    0.166689
    24  H    0.151441
    25  H    0.164792
    26  H    0.168904
    27  H    0.152300
    28  C    0.011380
    29  O   -0.086857
 Sum of Mulliken charges =  -0.00000
 Mulliken charges with hydrogens summed into heavy atoms:
               1
     3  Rh   0.051651
     4  C    0.150761
     5  O   -0.374176
     6  C    0.025277
     7  C    0.013782
    13  C   -0.027180
    14  O   -0.097461
    15  P    0.217006
    16  C    0.024340
    17  C    0.035983
    18  C    0.055494
    28  C    0.011380
    29  O   -0.086857
 APT charges:
               1
     1  H    0.144821
     2  H    0.089231
     3  Rh  -1.649858
     4  C    1.214808
     5  O   -0.984430
     6  C   -0.134658
     7  C    0.045929
     8  H   -0.004489
     9  H   -0.001327
    10  H   -0.040531
    11  H   -0.010167
    12  H   -0.004394
    13  C    1.304378
    14  O   -0.870364
    15  P    1.310472
    16  C   -0.307489
    17  C   -0.308999
    18  C   -0.342277
    19  H    0.032966
    20  H   -0.008237
    21  H    0.071718
    22  H    0.030492
    23  H    0.033344
    24  H   -0.011288
    25  H    0.035675
    26  H    0.040063
    27  H   -0.006990
    28  C    1.226213
    29  O   -0.894614
 Sum of APT charges =   0.00000
 APT charges with hydrogens summed into heavy atoms:
               1
     3  Rh  -1.415805
     4  C    1.214808
     5  O   -0.984430
     6  C   -0.140475
     7  C   -0.009162
    13  C    1.304378
    14  O   -0.870364
    15  P    1.310472
    16  C   -0.254940
    17  C   -0.240252
    18  C   -0.245829
    28  C    1.226213
    29  O   -0.894614
 Electronic spatial extent (au):  <R**2>=           3427.0336
 Charge=              0.0000 electrons
 Dipole moment (field-independent basis, Debye):
    X=             -2.1129    Y=              4.3655    Z=             -1.7880  Tot=              5.1691
 Quadrupole moment (field-independent basis, Debye-Ang):
   XX=           -104.9476   YY=            -96.9064   ZZ=           -105.6110
   XY=             -4.5829   XZ=             -7.4092   YZ=              2.0187
 Traceless Quadrupole moment (field-independent basis, Debye-Ang):
   XX=             -2.4593   YY=              5.5819   ZZ=             -3.1226
   XY=             -4.5829   XZ=             -7.4092   YZ=              2.0187
 Octapole moment (field-independent basis, Debye-Ang**2):
  XXX=            -23.1477  YYY=             -9.7698  ZZZ=            -17.3436  XYY=             -9.9552
  XXY=             -7.7483  XXZ=             -7.6811  XZZ=            -12.4798  YZZ=             -2.2662
  YYZ=             -4.4940  XYZ=              1.5038
 Hexadecapole moment (field-independent basis, Debye-Ang**3):
 XXXX=          -2322.8462 YYYY=          -1455.9956 ZZZZ=           -835.7671 XXXY=            -19.8198
 XXXZ=            -34.2202 YYYX=              3.3915 YYYZ=             21.6629 ZZZX=             12.4510
 ZZZY=             15.2180 XXYY=           -616.9749 XXZZ=           -518.9718 YYZZ=           -400.7852
 XXYZ=             -9.7971 YYXZ=              6.1656 ZZXY=             -0.8119
 N-N= 1.121348296147D+03 E-N=-4.549654448833D+03  KE= 9.188070760976D+02
  Exact polarizability: 220.702   4.631 192.296   4.227   1.289 185.134
 Approx polarizability: 202.577   7.494 177.535  11.729  -2.789 196.769
 No NMR shielding tensors so no spin-rotation constants.
 Leave Link  601 at Wed Oct  5 00:10:01 2022, MaxMem=  2952790016 cpu:              12.0 elap:               1.1
 (Enter /mnt/data/applications/G16/g16/l701.exe)
 ... and contract with generalized density number  0.
 Compute integral second derivatives.
 R6Disp: Adding Grimme-D2 dispersion energy 2nd derivatives to the Hessian.
   1 Symmetry operations used in ECPInt.
 ECPInt:  NShTT=   22578 NPrTT=   66767 LenC2=   21054 LenP2D=   46542.
 LDataN:  DoStor=T MaxTD1= 9 Len=  602
 D2PCM: PCM CHGder 2nd derivatives, FixD1E=F FixD2E=F DoIter=F DoCFld=F I1PDM=0
 GePol: Maximum number of non-zero 2nd derivatives   =     415
 Leave Link  701 at Wed Oct  5 00:11:12 2022, MaxMem=  2952790016 cpu:             846.1 elap:              70.7
 (Enter /mnt/data/applications/G16/g16/l702.exe)
 L702 exits ... SP integral derivatives will be done elsewhere.
 Leave Link  702 at Wed Oct  5 00:11:12 2022, MaxMem=  2952790016 cpu:               0.2 elap:               0.0
 (Enter /mnt/data/applications/G16/g16/l703.exe)
 Integral derivatives from FoFJK, PRISM(SPDF).
 Compute integral second derivatives, UseDBF=F ICtDFT=           0.
 Calling FoFJK, ICntrl=    100127 FMM=F ISym2X=0 I1Cent= 0 IOpClX= 0 NMat=1 NMatS=1 NMatT=0.
 FoFJK:  IHMeth= 1 ICntrl=  100127 DoSepK=T KAlg= 0 I1Cent=           0 FoldK=F
 IRaf=         1 NMat=       1 IRICut=       1 DoRegI=T DoRafI=F ISym2E= 0 IDoP0=0 IntGTp=1.
 FoFCou: FMM=F IPFlag=           0 FMFlag=      100000 FMFlg1=         800
         NFxFlg=           0 DoJE=F BraDBF=F KetDBF=F FulRan=T
         wScrn=  0.000000 ICntrl=    100527 IOpCl=  0 I1Cent=           0 NGrid=           0
         NMat0=    1 NMatS0=      1 NMatT0=    0 NMatD0=    1 NMtDS0=    0 NMtDT0=    0
 Symmetry not used in FoFCou.
 Defaulting to unpruned grid for atomic number  45.
 Defaulting to unpruned grid for atomic number  45.
 Defaulting to unpruned grid for atomic number  45.
 Defaulting to unpruned grid for atomic number  45.
 Defaulting to unpruned grid for atomic number  45.
 Defaulting to unpruned grid for atomic number  45.
 Defaulting to unpruned grid for atomic number  45.
 Defaulting to unpruned grid for atomic number  45.
 Defaulting to unpruned grid for atomic number  45.
 Defaulting to unpruned grid for atomic number  45.
 Defaulting to unpruned grid for atomic number  45.
 Defaulting to unpruned grid for atomic number  45.
 Leave Link  703 at Wed Oct  5 00:49:38 2022, MaxMem=  2952790016 cpu:           27604.9 elap:            2306.5
 (Enter /mnt/data/applications/G16/g16/l716.exe)
 Dipole        =-8.31290544D-01 1.71752085D+00-7.03464895D-01
 Polarizability= 2.20702147D+02 4.63107338D+00 1.92295552D+02
                 4.22721945D+00 1.28852008D+00 1.85134435D+02
 Full mass-weighted force constant matrix:
 Low frequencies --- -888.4769  -13.9319   -8.2313   -0.0014   -0.0012    0.0011
 Low frequencies ---    3.4104   29.1650   41.4367
 ******    1 imaginary frequencies (negative Signs) ****** 
 Diagonal vibrational polarizability:
       51.6940552     102.5765443      37.7803046
 Harmonic frequencies (cm**-1), IR intensities (KM/Mole), Raman scattering
 activities (A**4/AMU), depolarization ratios for plane and unpolarized
 incident light, reduced masses (AMU), force constants (mDyne/A),
 and normal coordinates:
                      1                      2                      3
                      A                      A                      A
 Frequencies --   -888.4740                29.1484                41.3519
 Red. masses --      1.0447                 4.2432                 3.1368
 Frc consts  --      0.4859                 0.0021                 0.0032
 IR Inten    --    418.9825                 2.0773                 0.1029
  Atom  AN      X      Y      Z        X      Y      Z        X      Y      Z
     1   1    -0.21   0.65   0.20     0.01  -0.08   0.02     0.03   0.02   0.01
     2   1    -0.04  -0.43   0.55     0.01  -0.07   0.05     0.02   0.02  -0.00
     3  45     0.00  -0.00  -0.01    -0.01  -0.03   0.01     0.00   0.01   0.00
     4   6     0.01  -0.00  -0.01    -0.01  -0.04   0.02     0.00   0.00   0.03
     5   8    -0.01  -0.00  -0.00     0.01  -0.20   0.06    -0.01   0.02   0.03
     6   6     0.00   0.00   0.00    -0.05   0.20  -0.02     0.02  -0.03   0.05
     7   6     0.00   0.00  -0.00    -0.08   0.31  -0.02     0.02  -0.05   0.07
     8   1    -0.00  -0.00   0.00    -0.15   0.23   0.06     0.05  -0.03   0.03
     9   1    -0.01   0.00  -0.00     0.04   0.23  -0.11     0.01  -0.03   0.06
    10   1     0.00   0.00   0.00    -0.11   0.47  -0.05     0.04  -0.07   0.08
    11   1     0.00   0.00   0.00    -0.18   0.27   0.08     0.03  -0.05   0.06
    12   1     0.00   0.00  -0.00     0.02   0.27  -0.11    -0.01  -0.05   0.08
    13   6    -0.01   0.02   0.03    -0.07  -0.01   0.03    -0.02  -0.01  -0.01
    14   8     0.00  -0.01  -0.00    -0.11  -0.00   0.04    -0.04  -0.03  -0.02
    15  15    -0.00   0.00   0.01     0.06  -0.02  -0.03    -0.01   0.00   0.01
    16   6     0.00  -0.00  -0.00     0.07   0.02  -0.00    -0.09  -0.06   0.20
    17   6     0.00  -0.01  -0.00     0.08  -0.06  -0.08    -0.14   0.01  -0.19
    18   6    -0.00   0.00   0.00     0.12   0.02  -0.04     0.20   0.07  -0.02
    19   1    -0.00   0.00   0.00     0.11   0.06  -0.01     0.28   0.07   0.09
    20   1     0.00   0.00   0.01     0.15   0.03  -0.06     0.20   0.08  -0.05
    21   1    -0.00   0.00  -0.00     0.11   0.00  -0.05     0.25   0.10  -0.13
    22   1    -0.00   0.00   0.00     0.06   0.05   0.03    -0.01  -0.08   0.32
    23   1     0.00  -0.00  -0.00     0.04   0.00   0.00    -0.23  -0.09   0.22
    24   1     0.01  -0.00  -0.00     0.10   0.03  -0.02    -0.09  -0.06   0.19
    25   1     0.00  -0.01  -0.00     0.04  -0.08  -0.08    -0.27  -0.04  -0.18
    26   1     0.00  -0.00  -0.00     0.08  -0.09  -0.11    -0.10   0.04  -0.31
    27   1    -0.01  -0.01   0.00     0.12  -0.05  -0.09    -0.13   0.01  -0.20
    28   6    -0.00  -0.00  -0.01    -0.01   0.00  -0.00     0.02   0.01  -0.05
    29   8     0.00   0.00   0.00    -0.01   0.03  -0.02     0.03   0.02  -0.10
                      4                      5                      6
                      A                      A                      A
 Frequencies --     51.7978                70.1893                82.0792
 Red. masses --      8.3375                 7.6166                 4.8292
 Frc consts  --      0.0132                 0.0221                 0.0192
 IR Inten    --      0.3328                 0.4831                 1.2607
  Atom  AN      X      Y      Z        X      Y      Z        X      Y      Z
     1   1     0.04  -0.11  -0.03     0.02   0.13  -0.07     0.00  -0.00  -0.02
     2   1     0.02  -0.05  -0.00     0.04   0.11  -0.12    -0.02  -0.01  -0.03
     3  45     0.02  -0.02  -0.02     0.02   0.05  -0.08    -0.02  -0.01  -0.03
     4   6     0.02  -0.03  -0.06     0.02  -0.01  -0.01    -0.02  -0.04   0.02
     5   8     0.07  -0.05  -0.07    -0.00  -0.15   0.03    -0.03  -0.18   0.06
     6   6    -0.02  -0.00  -0.10     0.05   0.10   0.02    -0.01   0.14   0.03
     7   6     0.01  -0.05  -0.14     0.07  -0.10   0.14     0.02  -0.10   0.15
     8   1    -0.03   0.04  -0.06     0.13   0.29   0.13     0.05   0.37   0.19
     9   1    -0.05   0.01  -0.14    -0.02   0.19  -0.17    -0.10   0.25  -0.23
    10   1    -0.03  -0.02  -0.17     0.10   0.02   0.15     0.03   0.08   0.15
    11   1     0.04  -0.06  -0.10     0.15  -0.18   0.34     0.11  -0.22   0.44
    12   1     0.03  -0.09  -0.18    -0.01  -0.28   0.02    -0.05  -0.35  -0.03
    13   6    -0.07   0.19   0.10    -0.08   0.05  -0.08     0.11   0.04   0.01
    14   8    -0.16   0.42   0.25    -0.22   0.09  -0.06     0.32   0.14   0.06
    15  15    -0.01  -0.04   0.06     0.01   0.03  -0.01    -0.03  -0.02  -0.03
    16   6    -0.03  -0.06   0.13    -0.01   0.00   0.05    -0.04  -0.02  -0.01
    17   6    -0.04   0.04   0.14    -0.03   0.07   0.01    -0.04  -0.01  -0.03
    18   6    -0.00  -0.17   0.09     0.05  -0.03  -0.00    -0.02  -0.02  -0.03
    19   1     0.01  -0.21   0.05     0.07  -0.05  -0.00    -0.01  -0.03  -0.02
    20   1    -0.01  -0.18   0.16     0.05  -0.04   0.03    -0.03  -0.02  -0.02
    21   1     0.00  -0.18   0.06     0.06  -0.03  -0.04    -0.02  -0.02  -0.03
    22   1    -0.01  -0.12   0.10     0.02  -0.05   0.04    -0.03  -0.01   0.01
    23   1    -0.04   0.02   0.12    -0.03   0.05   0.05    -0.05  -0.03  -0.01
    24   1    -0.06  -0.08   0.21    -0.04  -0.01   0.11    -0.03  -0.02  -0.02
    25   1    -0.04   0.12   0.14    -0.04   0.11   0.00    -0.05  -0.01  -0.03
    26   1    -0.04   0.04   0.13    -0.01   0.08  -0.02    -0.04  -0.02  -0.05
    27   1    -0.07   0.01   0.22    -0.04   0.06   0.05    -0.04  -0.02  -0.02
    28   6     0.04  -0.03  -0.11     0.00  -0.10   0.09    -0.03   0.05  -0.01
    29   8     0.08  -0.05  -0.24    -0.03  -0.31   0.36    -0.06   0.14   0.01
                      7                      8                      9
                      A                      A                      A
 Frequencies --     83.1179                88.7759               117.3248
 Red. masses --      4.9435                 4.2849                 3.6682
 Frc consts  --      0.0201                 0.0199                 0.0297
 IR Inten    --      1.3597                 2.5353                 1.5611
  Atom  AN      X      Y      Z        X      Y      Z        X      Y      Z
     1   1     0.05  -0.05  -0.05     0.06  -0.06   0.03    -0.00  -0.09  -0.00
     2   1     0.05  -0.06  -0.03     0.05  -0.05   0.06     0.01  -0.08   0.04
     3  45     0.03  -0.04  -0.06     0.05  -0.01   0.04    -0.01  -0.04  -0.00
     4   6     0.01   0.00  -0.01     0.06   0.01  -0.01    -0.04   0.14  -0.02
     5   8    -0.06   0.12  -0.01     0.10  -0.04  -0.01    -0.08   0.27  -0.05
     6   6     0.09  -0.10   0.06     0.00   0.11  -0.07    -0.05   0.19  -0.02
     7   6     0.01   0.15   0.09     0.07  -0.10  -0.09     0.01  -0.08   0.05
     8   1     0.07  -0.31  -0.10     0.01   0.30   0.08     0.03   0.42   0.12
     9   1     0.24  -0.20   0.28    -0.12   0.20  -0.27    -0.18   0.29  -0.25
    10   1     0.09   0.03   0.15    -0.00   0.02  -0.15    -0.00   0.04   0.04
    11   1    -0.14   0.25  -0.14     0.19  -0.19   0.12     0.15  -0.19   0.30
    12   1     0.03   0.38   0.28     0.06  -0.30  -0.26    -0.07  -0.32  -0.11
    13   6    -0.01   0.02  -0.02    -0.04  -0.03   0.03    -0.01  -0.02   0.02
    14   8    -0.06   0.10   0.03    -0.18  -0.09  -0.00    -0.05  -0.02   0.02
    15  15    -0.01  -0.06  -0.01    -0.05  -0.01  -0.02     0.04  -0.04  -0.00
    16   6    -0.02  -0.05   0.05    -0.08  -0.12  -0.08     0.07   0.05   0.03
    17   6    -0.03  -0.03   0.00    -0.11   0.05  -0.02     0.08  -0.08  -0.01
    18   6     0.01  -0.13  -0.00    -0.12   0.03  -0.03     0.08  -0.08   0.00
    19   1     0.01  -0.15  -0.02    -0.08  -0.03  -0.03     0.04  -0.02  -0.00
    20   1     0.01  -0.14   0.04    -0.21   0.02  -0.04     0.16  -0.07   0.02
    21   1     0.01  -0.15  -0.03    -0.10   0.12   0.00     0.05  -0.16  -0.02
    22   1    -0.01  -0.05   0.07    -0.06  -0.12  -0.05     0.04   0.07   0.01
    23   1    -0.06  -0.04   0.05    -0.06  -0.20  -0.07     0.05   0.10   0.03
    24   1    -0.00  -0.06   0.06    -0.13  -0.11  -0.15     0.12   0.05   0.07
    25   1    -0.06   0.00  -0.00    -0.09   0.03  -0.02     0.07  -0.07  -0.01
    26   1    -0.03  -0.03  -0.03    -0.10   0.11  -0.00     0.07  -0.10  -0.01
    27   1    -0.04  -0.04   0.03    -0.18   0.03  -0.03     0.11  -0.07  -0.00
    28   6    -0.02   0.08   0.04     0.03   0.08   0.04    -0.01  -0.03  -0.00
    29   8    -0.11   0.25   0.21     0.00   0.21   0.05    -0.02   0.01  -0.01
                     10                     11                     12
                      A                      A                      A
 Frequencies --    164.3300               172.6294               195.5553
 Red. masses --      2.9856                 2.9556                 3.6639
 Frc consts  --      0.0475                 0.0519                 0.0826
 IR Inten    --      0.2166                 2.0978                 0.2000
  Atom  AN      X      Y      Z        X      Y      Z        X      Y      Z
     1   1     0.04  -0.21   0.03     0.03   0.05   0.01    -0.02   0.15   0.04
     2   1     0.01  -0.21   0.20     0.08   0.06  -0.01    -0.01   0.10  -0.00
     3  45    -0.00  -0.01   0.03     0.02   0.00   0.01    -0.02   0.09   0.02
     4   6    -0.00  -0.01   0.02     0.04   0.00   0.01    -0.00   0.06   0.08
     5   8     0.01  -0.01   0.02     0.06  -0.04   0.01     0.04  -0.00   0.08
     6   6    -0.01  -0.01   0.01     0.03  -0.00  -0.00    -0.05   0.01   0.04
     7   6    -0.01  -0.00  -0.00     0.04  -0.00  -0.03    -0.01  -0.02  -0.06
     8   1    -0.02  -0.02   0.01     0.03  -0.01  -0.00    -0.07  -0.01   0.03
     9   1    -0.01  -0.02   0.03     0.03  -0.00   0.01    -0.10  -0.00   0.08
    10   1    -0.02  -0.01  -0.01     0.03  -0.01  -0.04    -0.05  -0.17  -0.09
    11   1    -0.01   0.00  -0.01     0.06   0.00  -0.04     0.07   0.03  -0.19
    12   1    -0.00   0.01   0.00     0.06   0.00  -0.03    -0.02   0.05   0.00
    13   6    -0.02   0.03   0.06     0.02   0.00   0.00    -0.01   0.03  -0.02
    14   8     0.03  -0.07  -0.00    -0.02  -0.00  -0.00     0.01   0.01  -0.04
    15  15     0.01   0.05  -0.12    -0.13  -0.00  -0.01     0.03  -0.08  -0.03
    16   6    -0.01   0.10   0.00    -0.05   0.25   0.07     0.01  -0.17  -0.07
    17   6    -0.06   0.21   0.01    -0.01  -0.17  -0.08     0.03  -0.12  -0.08
    18   6     0.05  -0.20  -0.08    -0.07  -0.06  -0.00     0.04  -0.22  -0.01
    19   1     0.05  -0.27  -0.16    -0.22   0.11  -0.04    -0.09  -0.12  -0.10
    20   1     0.10  -0.23   0.11     0.17  -0.04   0.02     0.27  -0.22   0.10
    21   1     0.05  -0.31  -0.15    -0.16  -0.30   0.01    -0.04  -0.48  -0.02
    22   1     0.00   0.01  -0.08    -0.14   0.30  -0.00     0.03  -0.25  -0.12
    23   1    -0.03   0.28  -0.01    -0.08   0.42   0.06     0.07  -0.17  -0.08
    24   1    -0.01   0.05   0.19     0.12   0.22   0.22    -0.09  -0.18  -0.05
    25   1    -0.12   0.41  -0.00    -0.05  -0.23  -0.08     0.09  -0.26  -0.07
    26   1    -0.03   0.20  -0.08    -0.02  -0.29  -0.11     0.01  -0.07  -0.00
    27   1    -0.10   0.14   0.22     0.15  -0.11  -0.14    -0.01  -0.09  -0.22
    28   6     0.00  -0.01   0.01     0.04  -0.02   0.00     0.01   0.05   0.00
    29   8     0.01  -0.00  -0.01     0.03   0.01   0.01     0.02  -0.01   0.01
                     13                     14                     15
                      A                      A                      A
 Frequencies --    202.6211               216.9637               225.7139
 Red. masses --      1.0699                 1.3432                 2.6989
 Frc consts  --      0.0259                 0.0373                 0.0810
 IR Inten    --      0.1158                 0.4760                 0.5907
  Atom  AN      X      Y      Z        X      Y      Z        X      Y      Z
     1   1    -0.00  -0.03  -0.00     0.03   0.04   0.00     0.10  -0.00  -0.01
     2   1    -0.00  -0.02   0.00     0.02   0.01  -0.01     0.10  -0.03   0.02
     3  45     0.00  -0.01  -0.00     0.01  -0.00  -0.01     0.03  -0.03  -0.03
     4   6     0.00  -0.01  -0.01    -0.00  -0.02   0.07    -0.04   0.04   0.14
     5   8    -0.00  -0.01  -0.01    -0.02   0.04   0.06    -0.05   0.01   0.15
     6   6     0.01   0.00  -0.01    -0.02  -0.08   0.05    -0.13   0.06   0.08
     7   6     0.00   0.00   0.01    -0.02   0.01  -0.07    -0.04  -0.06  -0.15
     8   1     0.01   0.00  -0.01    -0.08  -0.13   0.04    -0.19   0.09   0.14
     9   1     0.01   0.00  -0.01    -0.01  -0.10   0.10    -0.24   0.07   0.05
    10   1     0.01   0.01   0.02    -0.21   0.52  -0.23    -0.11  -0.51  -0.18
    11   1    -0.01   0.00   0.01    -0.13  -0.17   0.38     0.19   0.09  -0.54
    12   1    -0.01   0.00   0.01     0.29  -0.26  -0.46    -0.12   0.15   0.07
    13   6    -0.00  -0.00   0.00    -0.01   0.00  -0.02    -0.01  -0.01  -0.03
    14   8     0.00  -0.00   0.01     0.01   0.02  -0.01     0.02   0.02  -0.01
    15  15     0.00   0.01   0.00     0.00   0.00   0.00     0.00   0.01   0.00
    16   6    -0.01  -0.01   0.01     0.00  -0.00   0.01     0.00   0.03   0.03
    17   6    -0.02   0.03   0.01    -0.00   0.01  -0.00    -0.00   0.03   0.02
    18   6     0.02   0.04  -0.00    -0.00   0.01   0.00    -0.00   0.06  -0.00
    19   1    -0.17   0.28  -0.02    -0.03   0.03  -0.01     0.03   0.05   0.02
    20   1     0.32   0.08  -0.05     0.02   0.01  -0.00    -0.05   0.06  -0.05
    21   1    -0.10  -0.23   0.06    -0.02  -0.02   0.01     0.02   0.12   0.01
    22   1    -0.01  -0.17  -0.19     0.00  -0.02  -0.01     0.00   0.02   0.00
    23   1     0.10   0.22  -0.02     0.01   0.02   0.00    -0.00   0.09   0.02
    24   1    -0.11  -0.08   0.24    -0.01  -0.01   0.03     0.02   0.02   0.08
    25   1     0.30  -0.22   0.02    -0.01   0.01  -0.00     0.03   0.04   0.02
    26   1    -0.07   0.29   0.34     0.00   0.01  -0.01    -0.01   0.05   0.05
    27   1    -0.28   0.05  -0.30    -0.00   0.01   0.00    -0.03   0.02   0.02
    28   6    -0.00  -0.00   0.00     0.01   0.01  -0.03     0.03  -0.02  -0.07
    29   8    -0.01   0.01  -0.00    -0.00  -0.00   0.02    -0.01   0.01   0.05
                     16                     17                     18
                      A                      A                      A
 Frequencies --    238.4507               246.9068               263.1756
 Red. masses --      1.1093                 1.1108                 2.3757
 Frc consts  --      0.0372                 0.0399                 0.0969
 IR Inten    --      0.0034                 0.1102                 0.1872
  Atom  AN      X      Y      Z        X      Y      Z        X      Y      Z
     1   1    -0.00   0.01  -0.00     0.01  -0.04  -0.00    -0.03   0.14   0.01
     2   1    -0.00   0.01  -0.02     0.01  -0.03   0.02     0.02   0.12  -0.08
     3  45     0.00  -0.00  -0.00     0.00  -0.00  -0.00    -0.01  -0.01  -0.00
     4   6    -0.01  -0.01  -0.01     0.00   0.00   0.00     0.02   0.01   0.02
     5   8    -0.01  -0.00  -0.00    -0.00  -0.00   0.00     0.03   0.00   0.02
     6   6    -0.01   0.00  -0.01     0.00   0.00   0.00     0.03   0.00   0.02
     7   6    -0.01  -0.00   0.00     0.00  -0.00  -0.00     0.04   0.01  -0.02
     8   1    -0.01   0.01   0.00    -0.00  -0.00   0.00     0.02  -0.00   0.01
     9   1    -0.01   0.01  -0.01    -0.00   0.00   0.00     0.02   0.00   0.02
    10   1     0.00  -0.03   0.01    -0.00   0.00  -0.01     0.01   0.00  -0.04
    11   1    -0.00   0.01  -0.02     0.00  -0.00  -0.00     0.05   0.01  -0.02
    12   1    -0.03   0.01   0.03     0.01  -0.00  -0.01     0.06   0.01  -0.03
    13   6     0.00  -0.01  -0.00    -0.00   0.01   0.01     0.01  -0.03  -0.03
    14   8    -0.00   0.00   0.00     0.00  -0.01  -0.00    -0.01   0.02   0.01
    15  15     0.02   0.01   0.02    -0.01   0.02  -0.03    -0.08  -0.02   0.05
    16   6     0.02  -0.03  -0.02    -0.03  -0.00   0.03     0.01   0.06  -0.18
    17   6    -0.03   0.03  -0.01     0.04   0.02   0.04    -0.10   0.01   0.07
    18   6    -0.01   0.03   0.02    -0.00  -0.01  -0.02     0.19  -0.01   0.03
    19   1    -0.30   0.37  -0.04    -0.13   0.14  -0.05     0.30   0.02   0.22
    20   1     0.40   0.09  -0.03     0.20   0.01  -0.02     0.31  -0.01   0.06
    21   1    -0.19  -0.34   0.14    -0.08  -0.20   0.01     0.26  -0.07  -0.22
    22   1     0.01  -0.04  -0.05     0.03   0.27   0.46    -0.14   0.24  -0.22
    23   1     0.06  -0.05  -0.03    -0.30  -0.45   0.11     0.20  -0.12  -0.19
    24   1    -0.02  -0.03  -0.05     0.12   0.13  -0.38     0.09   0.13  -0.41
    25   1    -0.34   0.25  -0.02     0.20  -0.04   0.04    -0.06   0.03   0.07
    26   1     0.04  -0.14  -0.34    -0.01   0.07   0.21    -0.10   0.08   0.10
    27   1     0.15  -0.00   0.27    -0.04   0.02  -0.05    -0.18  -0.01   0.07
    28   6    -0.00   0.00  -0.00     0.00  -0.01  -0.00     0.00  -0.02  -0.00
    29   8    -0.00   0.00  -0.00     0.00  -0.01  -0.00    -0.00   0.01  -0.00
                     19                     20                     21
                      A                      A                      A
 Frequencies --    270.2043               275.1711               327.6047
 Red. masses --      2.2618                 4.5660                 2.0623
 Frc consts  --      0.0973                 0.2037                 0.1304
 IR Inten    --      0.8194                 5.4639                10.1718
  Atom  AN      X      Y      Z        X      Y      Z        X      Y      Z
     1   1     0.03  -0.09   0.01     0.00   0.04  -0.01    -0.28   0.68   0.02
     2   1     0.01  -0.07   0.07     0.06   0.03  -0.00    -0.07   0.43  -0.34
     3  45    -0.03   0.00  -0.00     0.09   0.03   0.01    -0.00  -0.01   0.02
     4   6     0.05   0.02   0.02    -0.14  -0.03  -0.07    -0.00  -0.00  -0.00
     5   8     0.06   0.01   0.02    -0.13  -0.04  -0.07    -0.06  -0.01   0.02
     6   6     0.06   0.02   0.02    -0.18  -0.06  -0.07     0.01   0.01   0.01
     7   6     0.09   0.01  -0.02    -0.26  -0.04   0.08     0.03   0.00  -0.02
     8   1     0.06   0.01   0.02    -0.15  -0.07  -0.09     0.01   0.00   0.01
     9   1     0.05   0.02   0.03    -0.15  -0.07  -0.06     0.01   0.01   0.01
    10   1     0.05   0.00  -0.05    -0.14   0.05   0.17    -0.00  -0.02  -0.05
    11   1     0.11   0.02  -0.03    -0.37  -0.07   0.16     0.05   0.01  -0.04
    12   1     0.12   0.01  -0.04    -0.34  -0.07   0.10     0.05   0.01  -0.03
    13   6    -0.03   0.02   0.01     0.07   0.03   0.02     0.13  -0.12  -0.10
    14   8     0.01  -0.01  -0.01    -0.03  -0.01  -0.00    -0.05   0.06   0.02
    15  15    -0.05  -0.01  -0.06    -0.07   0.00  -0.03     0.02  -0.00  -0.05
    16   6    -0.10  -0.07   0.03    -0.09  -0.02  -0.03    -0.00   0.00   0.03
    17   6     0.11  -0.04   0.14     0.06  -0.06   0.09     0.02   0.04   0.01
    18   6     0.07   0.08  -0.09     0.10   0.01  -0.04    -0.01  -0.01  -0.06
    19   1     0.09   0.19   0.05     0.17   0.04   0.09    -0.03  -0.01  -0.08
    20   1     0.17   0.10  -0.18     0.17   0.01  -0.04    -0.02  -0.01  -0.05
    21   1     0.09   0.05  -0.15     0.15  -0.02  -0.20    -0.03  -0.02  -0.03
    22   1    -0.03  -0.27  -0.08    -0.07  -0.10  -0.10     0.04  -0.03   0.05
    23   1    -0.10   0.11   0.01    -0.04   0.05  -0.04    -0.08   0.07   0.04
    24   1    -0.24  -0.14   0.24    -0.16  -0.05   0.04     0.01  -0.02   0.10
    25   1     0.14   0.23   0.12     0.14   0.05   0.08     0.05   0.12   0.00
    26   1     0.05  -0.33   0.13     0.00  -0.23   0.15     0.01   0.04   0.03
    27   1     0.31  -0.06   0.38     0.18  -0.05   0.16    -0.01   0.01   0.08
    28   6    -0.01  -0.00  -0.01     0.05  -0.01   0.03    -0.02  -0.07   0.10
    29   8    -0.02   0.00   0.00     0.05   0.03   0.01     0.01   0.03  -0.05
                     22                     23                     24
                      A                      A                      A
 Frequencies --    338.4601               343.2149               361.5786
 Red. masses --      3.4490                 5.5136                14.5502
 Frc consts  --      0.2328                 0.3827                 1.1208
 IR Inten    --     12.2299                23.6955                14.3505
  Atom  AN      X      Y      Z        X      Y      Z        X      Y      Z
     1   1    -0.01  -0.09  -0.03    -0.03   0.37   0.04    -0.12  -0.08  -0.03
     2   1    -0.03  -0.01  -0.03     0.02   0.19  -0.12    -0.16  -0.10  -0.00
     3  45     0.01  -0.03  -0.00    -0.03  -0.05   0.01    -0.13  -0.02  -0.06
     4   6    -0.02  -0.03  -0.03     0.07  -0.03   0.10    -0.04  -0.01  -0.03
     5   8    -0.15  -0.02   0.01     0.36   0.09  -0.02    -0.10  -0.02  -0.00
     6   6     0.06   0.02   0.01    -0.11  -0.02  -0.01    -0.02  -0.00  -0.01
     7   6     0.09   0.01  -0.06    -0.17  -0.01   0.12    -0.02  -0.01  -0.01
     8   1     0.06   0.03   0.02    -0.15   0.06   0.07    -0.03  -0.00  -0.00
     9   1     0.06   0.04  -0.02    -0.12   0.02  -0.09    -0.03  -0.00  -0.02
    10   1     0.03  -0.04  -0.11    -0.04   0.00   0.22    -0.02  -0.01  -0.00
    11   1     0.15   0.02  -0.10    -0.26  -0.01   0.13    -0.03  -0.01  -0.01
    12   1     0.14   0.02  -0.08    -0.29   0.01   0.19    -0.03  -0.01  -0.01
    13   6     0.01   0.00   0.01    -0.03  -0.02  -0.15    -0.04  -0.07   0.03
    14   8    -0.00  -0.01   0.01     0.00   0.09  -0.08     0.01  -0.01   0.05
    15  15    -0.03   0.19   0.05    -0.01   0.12   0.01     0.00  -0.03  -0.01
    16   6    -0.11  -0.06  -0.06    -0.07  -0.03  -0.02     0.02   0.01   0.01
    17   6     0.11  -0.01  -0.08     0.07   0.03  -0.05    -0.02   0.01   0.02
    18   6     0.03  -0.07   0.11    -0.01  -0.03   0.04    -0.01   0.02  -0.02
    19   1     0.06  -0.22   0.01    -0.00  -0.11  -0.04    -0.01   0.06   0.00
    20   1     0.02  -0.12   0.38    -0.01  -0.06   0.19    -0.02   0.04  -0.10
    21   1     0.05  -0.16  -0.03    -0.01  -0.08  -0.01    -0.01   0.06   0.01
    22   1    -0.01  -0.23  -0.10     0.02  -0.14  -0.02     0.00   0.03   0.01
    23   1     0.01  -0.15  -0.06    -0.04  -0.06  -0.02     0.00   0.03   0.01
    24   1    -0.40  -0.07  -0.12    -0.23  -0.04  -0.03     0.07   0.01   0.03
    25   1     0.07  -0.18  -0.07     0.07  -0.04  -0.04    -0.02   0.06   0.02
    26   1     0.08  -0.18  -0.08     0.05  -0.06  -0.03    -0.02   0.04   0.02
    27   1     0.33   0.10  -0.24     0.17   0.07  -0.11    -0.08  -0.02   0.07
    28   6    -0.00   0.00   0.04     0.06  -0.02  -0.07     0.57   0.22   0.20
    29   8     0.01   0.00  -0.01     0.02   0.02   0.04     0.62   0.09   0.17
                     25                     26                     27
                      A                      A                      A
 Frequencies --    393.0904               414.9363               456.1126
 Red. masses --      6.6990                 6.7286                 5.2622
 Frc consts  --      0.6099                 0.6826                 0.6450
 IR Inten    --      3.4010                18.9132                 9.7659
  Atom  AN      X      Y      Z        X      Y      Z        X      Y      Z
     1   1    -0.26  -0.48  -0.14    -0.24  -0.18  -0.13    -0.25  -0.26  -0.13
     2   1    -0.15  -0.35   0.22     0.04  -0.03  -0.02    -0.44  -0.35   0.03
     3  45    -0.02  -0.04   0.03    -0.03   0.02  -0.08     0.01  -0.01  -0.05
     4   6     0.01   0.03   0.01    -0.02   0.26   0.02     0.07  -0.11   0.08
     5   8    -0.03  -0.03   0.04     0.15  -0.07   0.06     0.07   0.07   0.05
     6   6    -0.00   0.01   0.03    -0.05  -0.00   0.04    -0.04  -0.01   0.05
     7   6     0.01  -0.00  -0.00    -0.05  -0.03   0.03    -0.04   0.01   0.01
     8   1    -0.01  -0.04  -0.01     0.03  -0.30  -0.24    -0.15   0.16   0.24
     9   1    -0.02  -0.02   0.09    -0.09  -0.18   0.45    -0.08   0.09  -0.18
    10   1    -0.02   0.00  -0.02    -0.07   0.05   0.01    -0.05  -0.03   0.01
    11   1     0.03  -0.01   0.01    -0.04  -0.08   0.14    -0.06   0.03  -0.05
    12   1     0.03  -0.01  -0.02    -0.04  -0.11  -0.05    -0.03   0.06   0.05
    13   6     0.22   0.41  -0.14     0.29   0.00   0.24     0.27  -0.06   0.03
    14   8    -0.08   0.09  -0.34    -0.09  -0.15   0.17    -0.08  -0.02   0.07
    15  15     0.01  -0.03   0.02     0.01   0.03   0.02    -0.02   0.00  -0.00
    16   6     0.03  -0.00   0.00     0.00  -0.02  -0.00    -0.03   0.01  -0.01
    17   6    -0.03  -0.02   0.01     0.03   0.02  -0.02    -0.01  -0.01   0.01
    18   6     0.00   0.02   0.02    -0.00   0.00   0.04     0.00  -0.00  -0.01
    19   1    -0.01   0.06   0.05    -0.02  -0.02   0.00     0.01   0.01   0.01
    20   1     0.00   0.03  -0.05    -0.01  -0.00   0.07     0.02   0.00   0.00
    21   1    -0.00   0.05   0.05    -0.01  -0.00   0.06     0.01  -0.02  -0.04
    22   1    -0.00   0.03  -0.02     0.03  -0.06  -0.02    -0.04   0.03  -0.00
    23   1     0.06  -0.02  -0.00     0.04  -0.05  -0.00    -0.03   0.03  -0.01
    24   1     0.06   0.00  -0.02    -0.08  -0.02  -0.03     0.00   0.01  -0.00
    25   1    -0.05  -0.04   0.01    -0.01  -0.01  -0.02     0.00  -0.02   0.01
    26   1    -0.01   0.01  -0.01     0.04   0.01  -0.05    -0.02  -0.04   0.02
    27   1    -0.05  -0.02  -0.00     0.06   0.03  -0.04     0.01  -0.00  -0.00
    28   6    -0.00  -0.13   0.21     0.04  -0.28   0.04    -0.17   0.37   0.16
    29   8     0.04   0.06  -0.06    -0.03   0.10  -0.02     0.01  -0.14  -0.07
                     28                     29                     30
                      A                      A                      A
 Frequencies --    505.7072               510.2066               588.8883
 Red. masses --      2.9129                11.4277                 2.3420
 Frc consts  --      0.4389                 1.7527                 0.4785
 IR Inten    --      7.9329                35.4736                96.9273
  Atom  AN      X      Y      Z        X      Y      Z        X      Y      Z
     1   1     0.09  -0.22   0.02    -0.01   0.03  -0.07    -0.15   0.49   0.02
     2   1     0.03  -0.29   0.27    -0.02   0.10  -0.20    -0.04   0.47  -0.49
     3  45     0.01  -0.02   0.01     0.04   0.02  -0.08     0.01  -0.04  -0.00
     4   6    -0.05   0.26  -0.05     0.05  -0.06   0.07    -0.03   0.09  -0.02
     5   8     0.02  -0.08   0.01     0.09   0.06   0.04     0.01  -0.02   0.00
     6   6    -0.02   0.05  -0.01    -0.04  -0.02   0.05    -0.01   0.04   0.00
     7   6    -0.00  -0.02   0.01    -0.05  -0.00   0.00     0.00  -0.01   0.00
     8   1     0.11  -0.34  -0.39    -0.11   0.11   0.19     0.04  -0.17  -0.20
     9   1    -0.02  -0.18   0.51    -0.07   0.06  -0.11     0.01  -0.07   0.27
    10   1    -0.01   0.01   0.00    -0.07  -0.02  -0.01    -0.01  -0.03  -0.00
    11   1     0.07  -0.07   0.11    -0.07   0.01  -0.03     0.09  -0.03   0.05
    12   1    -0.05  -0.13  -0.06    -0.03   0.03   0.02    -0.04  -0.08  -0.03
    13   6    -0.06  -0.15  -0.15    -0.49  -0.00   0.06    -0.06   0.19   0.13
    14   8     0.01   0.08  -0.01     0.14  -0.03   0.03     0.02  -0.07  -0.03
    15  15    -0.00   0.01   0.00    -0.00  -0.00   0.01     0.00  -0.00  -0.00
    16   6    -0.01   0.00  -0.00    -0.00   0.00  -0.00     0.00  -0.00   0.00
    17   6     0.01   0.00   0.00    -0.01  -0.02   0.01    -0.00  -0.00   0.00
    18   6    -0.00   0.00  -0.00     0.00   0.01   0.02    -0.00  -0.00  -0.01
    19   1     0.00  -0.00  -0.00     0.01   0.02   0.04    -0.00   0.00  -0.00
    20   1     0.00   0.00   0.00    -0.00   0.01  -0.00    -0.00  -0.00  -0.02
    21   1    -0.00  -0.00  -0.00     0.01   0.02   0.01     0.00   0.00  -0.01
    22   1    -0.01   0.00   0.00    -0.02   0.00  -0.02    -0.00   0.00   0.00
    23   1    -0.01   0.01  -0.00     0.02   0.01  -0.00    -0.00   0.00   0.00
    24   1    -0.00   0.00   0.01    -0.01   0.00   0.00     0.01  -0.00   0.00
    25   1     0.00   0.01   0.00    -0.02  -0.04   0.01    -0.00   0.00   0.00
    26   1     0.01  -0.01  -0.01    -0.01  -0.03   0.00    -0.00  -0.00   0.00
    27   1     0.02   0.00   0.01     0.00  -0.00  -0.02    -0.01  -0.01   0.01
    28   6    -0.05   0.12   0.08    -0.15  -0.20   0.65    -0.03   0.16  -0.01
    29   8     0.01  -0.04  -0.02     0.05   0.06  -0.20     0.01  -0.04   0.00
                     31                     32                     33
                      A                      A                      A
 Frequencies --    691.6549               697.4132               712.8459
 Red. masses --      3.6530                 3.5656                 1.1715
 Frc consts  --      1.0296                 1.0218                 0.3507
 IR Inten    --     30.1514                27.2115                85.4505
  Atom  AN      X      Y      Z        X      Y      Z        X      Y      Z
     1   1    -0.07  -0.05  -0.04    -0.10  -0.01  -0.02     0.54   0.12   0.17
     2   1    -0.13  -0.05  -0.02    -0.13  -0.05  -0.03     0.74   0.20   0.22
     3  45     0.01   0.00   0.00     0.01   0.01   0.00    -0.01  -0.01  -0.01
     4   6    -0.14  -0.05  -0.06    -0.13  -0.05  -0.06    -0.02  -0.01  -0.01
     5   8     0.07  -0.01  -0.14     0.06  -0.01  -0.15     0.00  -0.00  -0.02
     6   6    -0.06   0.03   0.21    -0.06   0.03   0.22    -0.00  -0.01   0.02
     7   6     0.03   0.01   0.04     0.03   0.01   0.04    -0.01  -0.00   0.00
     8   1     0.03   0.01   0.15     0.02   0.01   0.16     0.02   0.03   0.05
     9   1     0.02   0.05   0.15     0.02   0.05   0.16     0.01   0.02  -0.03
    10   1    -0.32  -0.12  -0.22    -0.33  -0.13  -0.23    -0.06  -0.01  -0.04
    11   1     0.28   0.06  -0.10     0.28   0.06  -0.10    -0.00   0.01  -0.03
    12   1     0.28   0.03  -0.09     0.29   0.03  -0.09     0.04   0.02  -0.01
    13   6     0.00  -0.01  -0.01    -0.00  -0.00  -0.00     0.06   0.02   0.01
    14   8    -0.00   0.00   0.00     0.00   0.00  -0.01    -0.02  -0.00  -0.00
    15  15    -0.02   0.10   0.03     0.02  -0.10  -0.03    -0.01  -0.00  -0.00
    16   6     0.17  -0.05   0.05    -0.16   0.04  -0.05     0.02  -0.01   0.01
    17   6    -0.12  -0.10   0.08     0.11   0.09  -0.08     0.01   0.01  -0.01
    18   6    -0.02  -0.01  -0.18     0.01   0.01   0.17     0.00  -0.00   0.01
    19   1    -0.01  -0.07  -0.22     0.00   0.07   0.21    -0.00   0.00   0.01
    20   1     0.00  -0.03  -0.08    -0.00   0.03   0.07    -0.00   0.00  -0.00
    21   1    -0.02  -0.07  -0.24     0.02   0.07   0.22    -0.00   0.01   0.02
    22   1     0.21  -0.10   0.05    -0.21   0.11  -0.04     0.03  -0.03   0.00
    23   1     0.20  -0.10   0.06    -0.21   0.12  -0.05     0.03  -0.02   0.01
    24   1     0.08  -0.05   0.02    -0.05   0.04  -0.01    -0.01  -0.01  -0.00
    25   1    -0.13  -0.18   0.09     0.13   0.18  -0.09     0.01   0.02  -0.01
    26   1    -0.14  -0.17   0.08     0.13   0.17  -0.08     0.01   0.02  -0.01
    27   1    -0.05  -0.07   0.02     0.02   0.05  -0.01    -0.00   0.00   0.00
    28   6     0.01  -0.01  -0.01     0.01  -0.00  -0.01    -0.03   0.04   0.06
    29   8     0.00   0.00   0.00     0.01   0.00   0.01     0.00  -0.01  -0.02
                     34                     35                     36
                      A                      A                      A
 Frequencies --    757.9786               760.7509               791.3913
 Red. masses --      3.6440                 3.6377                 1.4625
 Frc consts  --      1.2335                 1.2404                 0.5397
 IR Inten    --     23.7301                18.7072                31.3090
  Atom  AN      X      Y      Z        X      Y      Z        X      Y      Z
     1   1     0.07   0.03   0.03    -0.05   0.01  -0.01    -0.05   0.03  -0.01
     2   1     0.10   0.03   0.03    -0.08  -0.02  -0.03    -0.06   0.01  -0.05
     3  45    -0.00  -0.00  -0.00     0.00  -0.00   0.00     0.00  -0.01   0.00
     4   6    -0.00  -0.01   0.00     0.00  -0.00   0.00    -0.03   0.15  -0.03
     5   8    -0.00   0.00  -0.00     0.00   0.00   0.00     0.01  -0.03   0.00
     6   6    -0.00   0.01  -0.00    -0.00   0.00  -0.00     0.02  -0.11   0.03
     7   6    -0.00   0.00  -0.00     0.00   0.00  -0.00     0.01  -0.04   0.01
     8   1    -0.01  -0.02  -0.02    -0.01  -0.02  -0.02     0.24   0.34   0.27
     9   1     0.02  -0.00   0.02     0.01  -0.00   0.02    -0.34   0.07  -0.35
    10   1    -0.00  -0.01  -0.00     0.01  -0.01   0.00    -0.05   0.19  -0.04
    11   1     0.02  -0.00   0.01     0.01  -0.00   0.01    -0.42   0.05  -0.18
    12   1    -0.02  -0.01  -0.01    -0.01  -0.01  -0.00     0.35   0.28   0.10
    13   6     0.01  -0.00  -0.00    -0.01  -0.01  -0.00    -0.02   0.01   0.00
    14   8    -0.00  -0.00   0.00     0.00   0.00   0.00     0.00  -0.00  -0.00
    15  15     0.16   0.05  -0.08    -0.09   0.03  -0.16     0.00   0.00  -0.00
    16   6    -0.16   0.09  -0.08     0.22  -0.09   0.02    -0.00   0.00  -0.00
    17   6    -0.18  -0.22   0.12    -0.07  -0.03  -0.02    -0.00  -0.01   0.00
    18   6     0.05   0.03   0.09    -0.00   0.07   0.28     0.00   0.00   0.00
    19   1    -0.06  -0.04  -0.15     0.06   0.03   0.35    -0.00  -0.00  -0.01
    20   1    -0.07   0.01   0.19     0.07   0.05   0.45    -0.00   0.00   0.01
    21   1    -0.03   0.03   0.32     0.03   0.01   0.15    -0.00   0.00   0.01
    22   1     0.01  -0.04   0.03     0.31  -0.10   0.15     0.01  -0.01   0.01
    23   1    -0.35   0.08  -0.06     0.02   0.01   0.04    -0.01   0.00  -0.00
    24   1    -0.32   0.07  -0.03     0.33  -0.12   0.17    -0.01  -0.00   0.00
    25   1    -0.22  -0.17   0.13     0.17   0.12  -0.04    -0.00   0.01  -0.00
    26   1    -0.16  -0.12   0.12    -0.17  -0.21   0.19    -0.00   0.00   0.00
    27   1    -0.34  -0.29   0.21     0.02  -0.05   0.10    -0.01  -0.01   0.02
    28   6     0.00  -0.00   0.00     0.00   0.00  -0.01    -0.00   0.02  -0.01
    29   8    -0.00   0.00  -0.00     0.00  -0.00   0.00     0.00  -0.01   0.00
                     37                     38                     39
                      A                      A                      A
 Frequencies --    806.6434               870.4228               872.5107
 Red. masses --      1.1646                 1.2533                 1.2624
 Frc consts  --      0.4465                 0.5595                 0.5662
 IR Inten    --      0.0871                21.0272                 8.3517
  Atom  AN      X      Y      Z        X      Y      Z        X      Y      Z
     1   1    -0.00   0.00  -0.00     0.21   0.06   0.07     0.05  -0.03   0.00
     2   1    -0.00   0.00   0.00    -0.08  -0.02  -0.03    -0.01  -0.00  -0.01
     3  45     0.00  -0.00   0.00    -0.00  -0.00  -0.00    -0.00   0.00  -0.00
     4   6     0.00   0.00  -0.00     0.00   0.01  -0.00    -0.00  -0.00  -0.00
     5   8     0.00   0.00  -0.00    -0.00  -0.00   0.00     0.00   0.00   0.00
     6   6    -0.00   0.00   0.00     0.00   0.00  -0.00     0.00   0.00  -0.00
     7   6    -0.00  -0.00   0.00    -0.00  -0.00   0.00     0.00   0.00  -0.00
     8   1     0.00   0.00  -0.00     0.02   0.01  -0.01    -0.00  -0.00  -0.00
     9   1    -0.00  -0.00   0.00    -0.01   0.00   0.00     0.00  -0.00   0.01
    10   1    -0.00  -0.00  -0.00    -0.01   0.00  -0.00     0.00  -0.00   0.00
    11   1    -0.00   0.00  -0.00    -0.01   0.00  -0.01     0.00  -0.00   0.00
    12   1     0.00  -0.00  -0.00     0.01   0.01   0.00    -0.01  -0.00  -0.00
    13   6    -0.00  -0.00  -0.00     0.01   0.00   0.00     0.00   0.01   0.00
    14   8     0.00   0.00   0.00    -0.00  -0.00  -0.00    -0.00  -0.00  -0.00
    15  15     0.00   0.00  -0.00     0.04   0.01   0.00    -0.00  -0.01   0.04
    16   6    -0.02  -0.02   0.06    -0.05  -0.08  -0.04    -0.01  -0.02  -0.03
    17   6    -0.04   0.01  -0.05    -0.06   0.05   0.03     0.03  -0.04  -0.05
    18   6     0.07   0.01  -0.01    -0.03   0.01  -0.01    -0.02   0.09  -0.04
    19   1    -0.14  -0.06  -0.36     0.05  -0.02   0.07     0.05  -0.24  -0.28
    20   1    -0.17  -0.02   0.02     0.08   0.01   0.08     0.05  -0.02   0.56
    21   1    -0.07   0.03   0.36     0.02  -0.05  -0.16    -0.04  -0.24  -0.26
    22   1    -0.30   0.14  -0.20    -0.26   0.26   0.01     0.01   0.05   0.07
    23   1     0.39  -0.09   0.01    -0.17   0.26  -0.05    -0.19   0.13  -0.02
    24   1     0.06   0.05  -0.16     0.49  -0.07   0.15     0.16  -0.05   0.13
    25   1     0.31   0.21  -0.08     0.01  -0.23   0.05     0.14   0.31  -0.08
    26   1    -0.18  -0.25   0.25    -0.13  -0.31   0.06     0.03   0.15   0.07
    27   1     0.12  -0.00   0.13     0.34   0.21  -0.18    -0.23  -0.19   0.24
    28   6     0.00   0.00  -0.00     0.00  -0.01   0.00    -0.00  -0.00   0.00
    29   8     0.00  -0.00  -0.00    -0.00   0.00  -0.00     0.00   0.00  -0.00
                     40                     41                     42
                      A                      A                      A
 Frequencies --    891.0932               922.7381               973.0081
 Red. masses --      1.0402                 4.5212                 1.4153
 Frc consts  --      0.4867                 2.2681                 0.7895
 IR Inten    --      0.9018               207.9563                47.6142
  Atom  AN      X      Y      Z        X      Y      Z        X      Y      Z
     1   1     0.72   0.16   0.22     0.10  -0.02   0.03     0.01   0.00   0.00
     2   1    -0.56  -0.15  -0.16    -0.08   0.03  -0.07    -0.01  -0.01   0.01
     3  45    -0.00  -0.00  -0.00    -0.01  -0.00   0.01     0.00   0.00  -0.00
     4   6    -0.02   0.00   0.01     0.41   0.05  -0.18    -0.01  -0.00   0.01
     5   8     0.00  -0.00   0.00    -0.08  -0.02  -0.02     0.00   0.00  -0.00
     6   6    -0.00   0.01  -0.01     0.09   0.06   0.16    -0.01  -0.00  -0.00
     7   6     0.00  -0.00  -0.00    -0.24  -0.05   0.01     0.01   0.00   0.00
     8   1     0.04  -0.00  -0.04     0.03   0.03   0.18    -0.01  -0.00  -0.01
     9   1    -0.01  -0.01   0.03     0.03   0.05   0.19    -0.01  -0.00   0.00
    10   1     0.01   0.01   0.00    -0.59  -0.19  -0.24     0.03   0.01   0.01
    11   1    -0.01   0.00  -0.00    -0.07  -0.01  -0.13     0.00   0.00   0.01
    12   1     0.00   0.01   0.00    -0.06  -0.08  -0.11     0.00   0.00   0.01
    13   6     0.02   0.01   0.00    -0.02   0.00  -0.00     0.00   0.00   0.00
    14   8    -0.01  -0.00  -0.00     0.00  -0.00   0.00    -0.00   0.00  -0.00
    15  15    -0.01   0.00  -0.00    -0.00  -0.02  -0.00    -0.00  -0.03   0.05
    16   6     0.01   0.02   0.01     0.01   0.03   0.01     0.05   0.07  -0.09
    17   6     0.01  -0.01  -0.00    -0.01   0.01   0.01    -0.07   0.05  -0.05
    18   6     0.01  -0.01   0.00    -0.00   0.02  -0.01     0.04  -0.01  -0.01
    19   1    -0.02   0.02  -0.01     0.01  -0.05  -0.06    -0.05  -0.01  -0.13
    20   1    -0.02  -0.00  -0.04     0.01  -0.00   0.13    -0.07  -0.01  -0.10
    21   1    -0.00   0.02   0.05    -0.01  -0.05  -0.04    -0.02   0.02   0.14
    22   1     0.05  -0.05  -0.01     0.08  -0.08  -0.00     0.44  -0.22   0.22
    23   1     0.04  -0.05   0.01     0.03  -0.08   0.01    -0.43   0.02  -0.02
    24   1    -0.09   0.02  -0.03    -0.16   0.02  -0.04    -0.25  -0.03   0.14
    25   1    -0.01   0.04  -0.01    -0.01  -0.06   0.01     0.26   0.07  -0.06
    26   1     0.03   0.07  -0.02    -0.03  -0.07   0.00    -0.21  -0.31   0.21
    27   1    -0.07  -0.04   0.03     0.10   0.06  -0.06     0.28   0.13  -0.01
    28   6     0.00  -0.02   0.01     0.01  -0.01  -0.03    -0.00   0.00   0.00
    29   8     0.00   0.01  -0.00    -0.01  -0.00   0.00     0.00   0.00   0.00
                     43                     44                     45
                      A                      A                      A
 Frequencies --    975.0965               978.8467              1027.7208
 Red. masses --      1.4083                 1.4816                 1.5677
 Frc consts  --      0.7889                 0.8364                 0.9756
 IR Inten    --     36.2220               166.4841                27.3968
  Atom  AN      X      Y      Z        X      Y      Z        X      Y      Z
     1   1     0.02   0.00   0.01     0.00   0.03   0.01    -0.06   0.01  -0.02
     2   1     0.00   0.00   0.00    -0.01  -0.01   0.01    -0.02  -0.03   0.01
     3  45    -0.00   0.00   0.00     0.00  -0.00  -0.00     0.00  -0.00  -0.00
     4   6     0.00   0.00  -0.00    -0.03  -0.00   0.01    -0.09  -0.01   0.06
     5   8     0.00  -0.00   0.00     0.01   0.00  -0.00     0.02   0.01   0.05
     6   6     0.00   0.00  -0.00    -0.02  -0.00  -0.01     0.10   0.00  -0.09
     7   6    -0.00  -0.00  -0.00     0.03   0.00   0.00    -0.11  -0.01   0.05
     8   1     0.01   0.00  -0.00    -0.02  -0.01  -0.01     0.47   0.08  -0.22
     9   1    -0.00   0.00   0.00    -0.05  -0.01   0.00     0.48   0.04  -0.21
    10   1    -0.00   0.00  -0.00     0.07   0.03   0.03    -0.47  -0.15  -0.23
    11   1    -0.00  -0.00  -0.00    -0.00   0.00   0.01     0.14   0.06  -0.16
    12   1    -0.00  -0.00  -0.00     0.02   0.02   0.02     0.17  -0.05  -0.13
    13   6     0.00  -0.00  -0.00     0.00   0.00   0.00     0.00  -0.00   0.00
    14   8    -0.00  -0.00   0.00    -0.00   0.00  -0.00    -0.00   0.00  -0.00
    15  15     0.06   0.01   0.01     0.02  -0.06  -0.03     0.00  -0.01  -0.00
    16   6    -0.02   0.03   0.04     0.00   0.07   0.06     0.00   0.01   0.00
    17   6    -0.05  -0.02  -0.08    -0.03   0.06   0.05    -0.00   0.01   0.00
    18   6    -0.12  -0.04   0.01    -0.03   0.10  -0.01    -0.00   0.01  -0.00
    19   1     0.15   0.09   0.51     0.08  -0.17  -0.10     0.00  -0.01  -0.01
    20   1     0.21   0.03  -0.13     0.09   0.01   0.49     0.00   0.00   0.03
    21   1     0.08   0.01  -0.45    -0.04  -0.19  -0.24    -0.00  -0.01  -0.01
    22   1    -0.05  -0.01  -0.07     0.04  -0.13  -0.11     0.01  -0.01  -0.00
    23   1     0.15  -0.08   0.02     0.25  -0.22   0.05     0.01  -0.01   0.00
    24   1    -0.17   0.06  -0.11    -0.37   0.09  -0.19    -0.03   0.01  -0.01
    25   1     0.29   0.26  -0.11    -0.08  -0.25   0.07     0.00  -0.02   0.00
    26   1    -0.17  -0.16   0.24    -0.02  -0.15  -0.07    -0.00  -0.02  -0.00
    27   1    -0.02  -0.10   0.21     0.24   0.19  -0.21     0.02   0.01  -0.01
    28   6     0.00  -0.00  -0.00    -0.00   0.00   0.00    -0.00   0.00   0.00
    29   8    -0.00   0.00  -0.00     0.00   0.00   0.00     0.00   0.00  -0.00
                     46                     47                     48
                      A                      A                      A
 Frequencies --   1072.1259              1111.4475              1286.2913
 Red. masses --      1.5276                 2.4472                 1.1724
 Frc consts  --      1.0346                 1.7811                 1.1429
 IR Inten    --      1.1317                63.2939                 0.0216
  Atom  AN      X      Y      Z        X      Y      Z        X      Y      Z
     1   1    -0.03  -0.02  -0.02    -0.04  -0.00  -0.01     0.02   0.01   0.01
     2   1     0.05   0.01   0.03    -0.01  -0.01   0.01    -0.02  -0.01  -0.01
     3  45    -0.00   0.00  -0.00     0.00   0.00   0.00     0.00  -0.00   0.00
     4   6     0.02  -0.12   0.02    -0.12  -0.02   0.02    -0.01   0.04  -0.01
     5   8    -0.00   0.02  -0.00     0.02  -0.00  -0.03     0.00  -0.00   0.00
     6   6    -0.02   0.14  -0.03     0.20   0.07   0.15    -0.02   0.05  -0.01
     7   6     0.02  -0.10   0.02    -0.10  -0.06  -0.18     0.02  -0.10   0.02
     8   1     0.33  -0.06  -0.36     0.20   0.07   0.14    -0.59  -0.16   0.10
     9   1    -0.30  -0.04   0.39     0.22   0.09   0.11     0.63   0.08  -0.10
    10   1    -0.04   0.23  -0.04     0.35   0.10   0.16    -0.03   0.16  -0.03
    11   1    -0.43   0.00  -0.19    -0.48  -0.16   0.12    -0.24  -0.02  -0.14
    12   1     0.34   0.24   0.14    -0.54  -0.04   0.07     0.21   0.14   0.12
    13   6     0.00  -0.00  -0.00     0.00  -0.00   0.00    -0.00   0.00   0.00
    14   8    -0.00  -0.00   0.00    -0.00   0.00  -0.00     0.00   0.00  -0.00
    15  15    -0.00   0.00   0.00     0.00  -0.00  -0.00     0.00   0.00  -0.00
    16   6     0.00  -0.00  -0.00     0.00   0.00   0.00    -0.00   0.00   0.00
    17   6     0.00  -0.00  -0.00    -0.00   0.01   0.00    -0.00  -0.00   0.00
    18   6     0.00  -0.00  -0.00    -0.00   0.00   0.00    -0.00   0.00   0.00
    19   1    -0.00   0.00   0.00     0.00  -0.01  -0.01    -0.00  -0.00  -0.00
    20   1    -0.00  -0.00  -0.01    -0.00   0.00   0.01     0.00   0.00  -0.00
    21   1     0.00   0.00   0.01    -0.00  -0.01  -0.00     0.00  -0.00  -0.01
    22   1    -0.00   0.00   0.00     0.01  -0.01  -0.00     0.00  -0.00   0.00
    23   1    -0.00   0.00  -0.00     0.00  -0.01   0.00     0.00  -0.00  -0.00
    24   1     0.01  -0.00   0.00    -0.02   0.00  -0.00     0.00   0.00  -0.00
    25   1     0.00   0.01  -0.00     0.00  -0.01   0.00     0.00   0.01   0.00
    26   1     0.00   0.01  -0.00    -0.00  -0.01  -0.00     0.00   0.01  -0.00
    27   1    -0.01  -0.01   0.01     0.01   0.01  -0.01     0.01   0.01  -0.01
    28   6     0.00  -0.01   0.00    -0.00   0.00   0.00    -0.00   0.00  -0.00
    29   8    -0.00   0.00  -0.00     0.00   0.00   0.00     0.00  -0.00   0.00
                     49                     50                     51
                      A                      A                      A
 Frequencies --   1333.4179              1333.8518              1347.8335
 Red. masses --      1.2317                 1.2303                 1.5808
 Frc consts  --      1.2903                 1.2896                 1.6920
 IR Inten    --     24.3592                26.6036                23.3952
  Atom  AN      X      Y      Z        X      Y      Z        X      Y      Z
     1   1     0.00  -0.00  -0.00    -0.00  -0.00  -0.00    -0.00   0.00  -0.00
     2   1    -0.00   0.00  -0.00     0.00  -0.00   0.00     0.00  -0.00  -0.00
     3  45     0.00  -0.00   0.00     0.00  -0.00  -0.00     0.00   0.00  -0.00
     4   6     0.00   0.00   0.00     0.00   0.00   0.00    -0.06  -0.01   0.03
     5   8    -0.00  -0.00  -0.00    -0.00   0.00  -0.00     0.01  -0.00  -0.02
     6   6    -0.00   0.00   0.00    -0.00  -0.00   0.00     0.18   0.02  -0.09
     7   6     0.00  -0.00   0.00    -0.00   0.00  -0.00    -0.02   0.00   0.06
     8   1    -0.02  -0.00   0.00     0.01   0.00  -0.00    -0.59   0.03   0.31
     9   1     0.02   0.00  -0.01     0.00  -0.00   0.00    -0.51  -0.14   0.33
    10   1     0.00   0.01  -0.00     0.00  -0.00   0.00    -0.21  -0.06  -0.08
    11   1    -0.00   0.00  -0.00     0.00  -0.00   0.00    -0.01   0.08  -0.16
    12   1     0.00   0.00   0.00    -0.00   0.00  -0.00     0.04  -0.13  -0.10
    13   6    -0.00   0.00   0.00    -0.00   0.00   0.00     0.00   0.00   0.00
    14   8     0.00  -0.00  -0.00     0.00  -0.00   0.00    -0.00   0.00  -0.00
    15  15    -0.00  -0.00   0.00     0.00   0.00   0.00     0.00  -0.00  -0.00
    16   6     0.01  -0.00  -0.00    -0.10   0.04  -0.03    -0.00   0.00  -0.00
    17   6     0.07   0.07  -0.05    -0.04  -0.04   0.02     0.00   0.00  -0.00
    18   6    -0.00  -0.02  -0.09    -0.01  -0.01  -0.07     0.00   0.00   0.00
    19   1     0.14   0.14   0.31     0.12   0.10   0.24    -0.00  -0.00  -0.01
    20   1     0.05  -0.08   0.36     0.06  -0.06   0.27    -0.00   0.00  -0.01
    21   1    -0.12   0.12   0.36    -0.09   0.10   0.27     0.00  -0.00  -0.01
    22   1    -0.02   0.03  -0.01     0.29  -0.25   0.22     0.01  -0.01   0.01
    23   1    -0.04   0.01   0.00     0.41  -0.18  -0.07     0.02  -0.01  -0.00
    24   1    -0.04  -0.01   0.01     0.39   0.01   0.18     0.02   0.00   0.01
    25   1    -0.30  -0.31   0.01     0.16   0.16  -0.01    -0.02  -0.00   0.00
    26   1    -0.12  -0.33   0.25     0.05   0.17  -0.12    -0.00  -0.01   0.01
    27   1    -0.32  -0.13   0.25     0.17   0.06  -0.11    -0.01  -0.00  -0.00
    28   6     0.00   0.00  -0.00     0.00   0.00   0.00    -0.00   0.00   0.00
    29   8     0.00  -0.00   0.00    -0.00   0.00  -0.00     0.00   0.00  -0.00
                     52                     53                     54
                      A                      A                      A
 Frequencies --   1352.0645              1415.8133              1445.4486
 Red. masses --      1.2154                 1.2365                 1.1066
 Frc consts  --      1.3091                 1.4603                 1.3622
 IR Inten    --      7.0077                11.4288                17.1794
  Atom  AN      X      Y      Z        X      Y      Z        X      Y      Z
     1   1     0.00  -0.00  -0.00    -0.00  -0.00  -0.00    -0.01   0.00   0.00
     2   1     0.00  -0.00  -0.01    -0.00  -0.00  -0.00    -0.00  -0.00   0.01
     3  45    -0.00   0.00   0.00    -0.00   0.00   0.00    -0.00  -0.00  -0.00
     4   6     0.00  -0.00  -0.01     0.00   0.00   0.01     0.01   0.00   0.01
     5   8     0.00   0.00   0.00    -0.00  -0.00  -0.01    -0.00  -0.00  -0.01
     6   6    -0.01  -0.00   0.00     0.01   0.00  -0.01    -0.06  -0.02  -0.05
     7   6     0.00  -0.00  -0.00    -0.13  -0.04  -0.03     0.03   0.01  -0.00
     8   1     0.01  -0.01  -0.01    -0.01   0.12   0.11     0.15   0.55   0.34
     9   1     0.01   0.01  -0.01     0.04  -0.06   0.15     0.33  -0.26   0.52
    10   1     0.01   0.00   0.00     0.43   0.16   0.37    -0.03  -0.01  -0.05
    11   1    -0.00  -0.00   0.00     0.53  -0.05  -0.01    -0.11   0.02  -0.02
    12   1    -0.00   0.00   0.00     0.48   0.26  -0.08    -0.10  -0.07  -0.00
    13   6    -0.00   0.00   0.00     0.00  -0.00   0.00    -0.00  -0.00  -0.00
    14   8     0.00  -0.00   0.00    -0.00   0.00  -0.00    -0.00  -0.00   0.00
    15  15     0.00  -0.00  -0.00     0.00  -0.00   0.00     0.00  -0.00  -0.00
    16   6    -0.08   0.03  -0.02     0.00   0.00  -0.00     0.00   0.00   0.00
    17   6     0.04   0.05  -0.03     0.00  -0.00  -0.00     0.01  -0.01  -0.01
    18   6     0.00   0.02   0.07    -0.00   0.00   0.00    -0.00   0.00   0.00
    19   1    -0.12  -0.12  -0.27     0.00  -0.00  -0.00     0.02  -0.04  -0.00
    20   1    -0.05   0.07  -0.29     0.01   0.00  -0.00     0.03   0.01  -0.02
    21   1     0.10  -0.11  -0.30     0.00   0.00  -0.00    -0.01  -0.01   0.02
    22   1     0.24  -0.21   0.17     0.00  -0.00  -0.00    -0.01  -0.02  -0.03
    23   1     0.33  -0.16  -0.05    -0.00  -0.00   0.00    -0.02  -0.02   0.01
    24   1     0.32   0.02   0.14     0.00   0.00   0.00     0.02   0.00  -0.00
    25   1    -0.21  -0.23   0.01    -0.01   0.00  -0.00    -0.14   0.05  -0.01
    26   1    -0.08  -0.24   0.18    -0.00  -0.00   0.01    -0.03   0.08   0.15
    27   1    -0.23  -0.09   0.17     0.00   0.00  -0.00     0.09   0.02  -0.02
    28   6     0.00   0.00   0.00    -0.00  -0.00  -0.00     0.00   0.00   0.00
    29   8    -0.00   0.00  -0.00    -0.00  -0.00  -0.00     0.00   0.00  -0.00
                     55                     56                     57
                      A                      A                      A
 Frequencies --   1453.3458              1462.8092              1463.7146
 Red. masses --      1.0507                 1.0517                 1.0480
 Frc consts  --      1.3076                 1.3259                 1.3229
 IR Inten    --      0.1612                 2.4197                 0.9412
  Atom  AN      X      Y      Z        X      Y      Z        X      Y      Z
     1   1    -0.00   0.00   0.00    -0.00   0.00   0.00     0.00  -0.00   0.00
     2   1    -0.00  -0.00  -0.00     0.00  -0.00   0.00    -0.00   0.00   0.00
     3  45     0.00   0.00  -0.00     0.00   0.00  -0.00     0.00   0.00  -0.00
     4   6     0.00   0.00   0.00    -0.00  -0.00  -0.00     0.00  -0.00  -0.00
     5   8    -0.00   0.00  -0.00     0.00   0.00   0.00     0.00   0.00   0.00
     6   6     0.00   0.00   0.00     0.01   0.01   0.01    -0.00  -0.00  -0.00
     7   6    -0.00  -0.00   0.00    -0.01  -0.00   0.00     0.00   0.00  -0.00
     8   1    -0.00  -0.03  -0.02    -0.02  -0.13  -0.09     0.00   0.01   0.01
     9   1    -0.02   0.01  -0.03    -0.08   0.06  -0.12     0.01  -0.01   0.01
    10   1    -0.00   0.00  -0.00     0.01  -0.00   0.01    -0.00  -0.00  -0.00
    11   1     0.00  -0.00   0.00     0.02  -0.00  -0.00    -0.00  -0.00   0.00
    12   1    -0.00   0.00   0.00     0.02   0.00  -0.01    -0.00   0.00   0.00
    13   6    -0.00   0.00  -0.00     0.00   0.00   0.00     0.00   0.00  -0.00
    14   8     0.00  -0.00   0.00    -0.00  -0.00  -0.00    -0.00  -0.00   0.00
    15  15    -0.00   0.00   0.00     0.00  -0.00  -0.00    -0.00  -0.00   0.00
    16   6     0.01   0.01  -0.02    -0.00   0.01   0.02    -0.02  -0.04   0.00
    17   6     0.02  -0.01   0.02     0.02  -0.04  -0.02     0.01   0.00   0.01
    18   6    -0.04   0.00   0.01    -0.00   0.02  -0.00    -0.00   0.04  -0.00
    19   1     0.13  -0.37  -0.14     0.14  -0.12   0.07     0.27  -0.25   0.12
    20   1     0.51   0.08  -0.11    -0.03   0.03  -0.10    -0.02   0.06  -0.21
    21   1    -0.02   0.24   0.18    -0.10  -0.17   0.09    -0.18  -0.30   0.17
    22   1    -0.09   0.16   0.01     0.02  -0.24  -0.24     0.15   0.06   0.37
    23   1     0.02  -0.23   0.00    -0.18  -0.03   0.04     0.24   0.51  -0.08
    24   1    -0.09  -0.08   0.28     0.20   0.07  -0.15    -0.15   0.04  -0.31
    25   1    -0.11   0.28  -0.00    -0.46   0.20  -0.02     0.01   0.09  -0.00
    26   1    -0.03  -0.21   0.03    -0.09   0.23   0.48    -0.00  -0.11  -0.03
    27   1    -0.19   0.04  -0.32     0.26   0.07  -0.13    -0.10   0.01  -0.11
    28   6     0.00   0.00   0.00     0.00   0.00   0.00    -0.00  -0.00  -0.00
    29   8    -0.00  -0.00  -0.00    -0.00   0.00  -0.00     0.00   0.00   0.00
                     58                     59                     60
                      A                      A                      A
 Frequencies --   1467.5321              1472.6856              1482.7983
 Red. masses --      1.0460                 1.0477                 1.0436
 Frc consts  --      1.3273                 1.3387                 1.3519
 IR Inten    --     19.0418                13.8178                 8.9163
  Atom  AN      X      Y      Z        X      Y      Z        X      Y      Z
     1   1    -0.00  -0.00  -0.00    -0.00   0.00   0.00    -0.00   0.00   0.00
     2   1    -0.00  -0.00  -0.00     0.00  -0.00  -0.00    -0.00   0.00   0.00
     3  45     0.00   0.00  -0.00    -0.00  -0.00   0.00     0.00  -0.00   0.00
     4   6     0.00   0.00   0.00    -0.00  -0.00   0.00    -0.00  -0.00  -0.00
     5   8    -0.00  -0.00  -0.00     0.00   0.00   0.00     0.00   0.00   0.00
     6   6     0.00   0.00   0.00     0.00   0.00   0.00     0.00   0.00   0.00
     7   6    -0.00   0.00   0.00    -0.00   0.00   0.00    -0.00   0.00   0.00
     8   1    -0.01  -0.01  -0.01    -0.01  -0.03  -0.02    -0.00  -0.04  -0.03
     9   1    -0.01   0.01  -0.01    -0.02   0.01  -0.02    -0.02   0.02  -0.04
    10   1     0.00  -0.01   0.00     0.01  -0.01   0.01     0.01   0.00   0.01
    11   1    -0.00   0.00  -0.00    -0.00   0.00  -0.00    -0.00   0.01  -0.01
    12   1     0.01  -0.00  -0.01     0.01  -0.00  -0.01     0.00  -0.01  -0.01
    13   6    -0.00   0.00  -0.00     0.00   0.00  -0.00    -0.00  -0.00   0.00
    14   8     0.00  -0.00   0.00     0.00  -0.00   0.00    -0.00   0.00  -0.00
    15  15    -0.01   0.00  -0.00     0.00   0.00  -0.01     0.00  -0.01  -0.00
    16   6    -0.00  -0.01   0.01     0.02   0.00  -0.04    -0.01  -0.03  -0.01
    17   6    -0.03   0.01  -0.03    -0.01  -0.01  -0.03     0.01  -0.02  -0.01
    18   6    -0.04  -0.00   0.01     0.01   0.02  -0.00    -0.00  -0.03   0.01
    19   1     0.08  -0.30  -0.16     0.15  -0.09   0.11    -0.27   0.20  -0.16
    20   1     0.46   0.07  -0.08    -0.14   0.03  -0.12     0.11  -0.05   0.21
    21   1     0.00   0.26   0.15    -0.12  -0.27   0.06     0.19   0.37  -0.16
    22   1     0.05  -0.12  -0.04    -0.13   0.38   0.19     0.07   0.18   0.34
    23   1    -0.05   0.14   0.00     0.17  -0.25  -0.03     0.24   0.27  -0.07
    24   1     0.07   0.05  -0.19    -0.26  -0.15   0.44    -0.22  -0.03  -0.06
    25   1     0.13  -0.38   0.01    -0.07  -0.18  -0.00    -0.29   0.10  -0.01
    26   1     0.04   0.27  -0.04    -0.00   0.28   0.13    -0.06   0.15   0.30
    27   1     0.23  -0.05   0.43     0.26  -0.01   0.24     0.18   0.05  -0.07
    28   6     0.00   0.00   0.00    -0.00  -0.00  -0.00    -0.00  -0.00  -0.00
    29   8     0.00   0.00   0.00     0.00  -0.00   0.00     0.00   0.00   0.00
                     61                     62                     63
                      A                      A                      A
 Frequencies --   1491.2455              1496.3660              1742.0078
 Red. masses --      1.0379                 1.0481                11.0563
 Frc consts  --      1.3599                 1.3827                19.7679
 IR Inten    --     10.0651                10.8697               420.0355
  Atom  AN      X      Y      Z        X      Y      Z        X      Y      Z
     1   1    -0.00  -0.00  -0.00     0.00   0.00  -0.00    -0.03   0.04  -0.12
     2   1     0.00  -0.00  -0.00     0.00  -0.00  -0.00    -0.04  -0.05  -0.01
     3  45    -0.00   0.00  -0.00     0.00   0.00  -0.00     0.00  -0.00  -0.00
     4   6    -0.00  -0.00   0.00    -0.01  -0.00   0.00     0.20   0.17   0.69
     5   8    -0.00   0.00   0.00     0.00   0.00   0.00    -0.16  -0.12  -0.48
     6   6     0.01  -0.02   0.00     0.02  -0.00  -0.03    -0.00  -0.00  -0.02
     7   6     0.01  -0.05   0.01     0.00  -0.01  -0.05     0.01   0.00   0.00
     8   1     0.04   0.01   0.01    -0.07   0.03   0.04     0.14  -0.13  -0.18
     9   1    -0.05  -0.02  -0.01    -0.04  -0.03   0.05     0.08   0.09  -0.22
    10   1    -0.16   0.67  -0.15    -0.26  -0.15  -0.22    -0.08  -0.03  -0.05
    11   1     0.42   0.06  -0.25     0.13  -0.25   0.59    -0.04  -0.00   0.04
    12   1    -0.41   0.05   0.29     0.02   0.50   0.40    -0.04   0.00   0.04
    13   6     0.00  -0.00  -0.00     0.00  -0.00   0.00    -0.00   0.02  -0.02
    14   8    -0.00  -0.00   0.00    -0.00   0.00  -0.00     0.00  -0.02   0.03
    15  15    -0.00  -0.00  -0.00     0.00  -0.00  -0.00     0.00   0.00   0.00
    16   6     0.00  -0.00  -0.00    -0.00  -0.00  -0.00    -0.00  -0.00  -0.00
    17   6    -0.00  -0.00  -0.00     0.00  -0.00  -0.00     0.00  -0.00  -0.00
    18   6     0.00   0.00  -0.00    -0.00  -0.00   0.00     0.00  -0.00   0.00
    19   1     0.00  -0.00   0.00    -0.00   0.00  -0.00    -0.01   0.02  -0.00
    20   1    -0.00   0.00  -0.00     0.00  -0.00   0.00    -0.04  -0.00  -0.03
    21   1    -0.00  -0.00   0.00     0.00   0.01  -0.00     0.01  -0.04  -0.06
    22   1    -0.00   0.00   0.00     0.00   0.00   0.01    -0.00   0.00   0.00
    23   1     0.00  -0.00  -0.00     0.00   0.00  -0.00    -0.00   0.01  -0.00
    24   1    -0.00  -0.00   0.00    -0.01  -0.00   0.00     0.00  -0.00   0.00
    25   1    -0.00  -0.01  -0.00    -0.02  -0.00  -0.00    -0.02   0.02  -0.00
    26   1     0.00   0.01   0.01    -0.00   0.01   0.02    -0.01  -0.03   0.03
    27   1     0.01   0.00   0.01     0.01   0.00   0.00    -0.03  -0.01  -0.01
    28   6    -0.00  -0.00  -0.00    -0.00   0.00   0.00     0.01   0.00   0.01
    29   8     0.00   0.00   0.00     0.00   0.00  -0.00    -0.00  -0.00  -0.00
                     64                     65                     66
                      A                      A                      A
 Frequencies --   1954.9357              1999.2202              2126.1804
 Red. masses --      1.0405                 1.0287                 9.9836
 Frc consts  --      2.3429                 2.4226                26.5912
 IR Inten    --     35.7148               121.8075              1033.5055
  Atom  AN      X      Y      Z        X      Y      Z        X      Y      Z
     1   1    -0.18  -0.07   0.64    -0.16  -0.25   0.67     0.11   0.10  -0.48
     2   1     0.27  -0.44  -0.53    -0.25   0.52   0.36    -0.07   0.07   0.11
     3  45    -0.00   0.00  -0.00     0.00  -0.00  -0.01     0.00  -0.00   0.00
     4   6     0.00  -0.00   0.01     0.00   0.00   0.01     0.00   0.00   0.01
     5   8    -0.00  -0.00  -0.00    -0.00  -0.00  -0.00    -0.00  -0.00  -0.01
     6   6    -0.00   0.00  -0.00     0.00  -0.00  -0.00    -0.00  -0.00  -0.00
     7   6     0.00  -0.00   0.00    -0.00   0.00   0.00     0.00   0.00   0.00
     8   1     0.00   0.00  -0.00     0.00   0.00  -0.01     0.00   0.00  -0.00
     9   1    -0.00   0.00   0.00     0.00  -0.00  -0.01     0.00  -0.00  -0.00
    10   1    -0.00  -0.00  -0.00    -0.00  -0.00  -0.00    -0.00  -0.00  -0.00
    11   1    -0.00   0.00   0.00     0.00   0.00   0.00    -0.00   0.00   0.00
    12   1     0.00  -0.00   0.00     0.00   0.00   0.00    -0.00  -0.00   0.00
    13   6     0.00  -0.02   0.03     0.00  -0.01   0.01     0.01  -0.25   0.42
    14   8    -0.00   0.02  -0.03    -0.00   0.01  -0.01    -0.01   0.18  -0.30
    15  15    -0.00   0.00   0.00     0.00  -0.00  -0.00     0.00  -0.00  -0.00
    16   6     0.00   0.00   0.00    -0.00  -0.00  -0.00    -0.00  -0.00  -0.00
    17   6     0.00  -0.00  -0.00     0.00  -0.00  -0.00    -0.00   0.00   0.00
    18   6    -0.00   0.00  -0.00     0.00  -0.00  -0.00    -0.00  -0.00  -0.00
    19   1     0.00   0.00   0.00    -0.00   0.00   0.00     0.00  -0.01   0.00
    20   1     0.00  -0.00   0.00    -0.00   0.00  -0.01     0.00   0.00  -0.01
    21   1    -0.00   0.00   0.00     0.00   0.00   0.00    -0.00  -0.01   0.00
    22   1     0.00   0.00  -0.00    -0.00   0.00   0.00     0.00   0.01   0.01
    23   1    -0.00   0.00   0.00     0.00  -0.00  -0.00     0.00   0.01  -0.00
    24   1    -0.00   0.00  -0.00     0.00  -0.00   0.00    -0.01  -0.00   0.00
    25   1     0.00   0.00  -0.00    -0.00  -0.00  -0.00     0.00  -0.00   0.00
    26   1     0.00   0.00  -0.00     0.00  -0.00   0.00    -0.00   0.00   0.00
    27   1     0.00  -0.00   0.00    -0.00  -0.00   0.00     0.00   0.00   0.00
    28   6     0.01  -0.00   0.00     0.01   0.00   0.00     0.45   0.10   0.14
    29   8    -0.01  -0.00  -0.00    -0.01  -0.00  -0.00    -0.34  -0.07  -0.10
                     67                     68                     69
                      A                      A                      A
 Frequencies --   2164.9316              3053.0985              3054.5273
 Red. masses --     11.6674                 1.0338                 1.0343
 Frc consts  --     32.2192                 5.6778                 5.6856
 IR Inten    --    816.9865                17.3549                10.2077
  Atom  AN      X      Y      Z        X      Y      Z        X      Y      Z
     1   1    -0.11  -0.03   0.31    -0.00   0.00  -0.00    -0.00   0.00   0.00
     2   1     0.03  -0.13  -0.08     0.00  -0.00  -0.00     0.00  -0.00  -0.00
     3  45     0.00   0.00  -0.00    -0.00  -0.00   0.00    -0.00   0.00   0.00
     4   6    -0.02  -0.01  -0.02     0.00   0.00   0.00    -0.00   0.00  -0.00
     5   8     0.01   0.00   0.02    -0.00   0.00  -0.00     0.00   0.00   0.00
     6   6     0.00   0.00   0.00    -0.00   0.00  -0.00     0.00   0.00   0.00
     7   6     0.00  -0.00  -0.00     0.00   0.00   0.00     0.00   0.00  -0.00
     8   1    -0.00   0.00   0.00     0.00  -0.00   0.00    -0.00   0.00  -0.00
     9   1    -0.00  -0.00   0.00     0.00   0.00   0.00    -0.00  -0.00  -0.00
    10   1     0.01   0.00   0.00    -0.00   0.00   0.00    -0.00   0.00   0.00
    11   1     0.00  -0.00  -0.00    -0.00  -0.00  -0.00    -0.00  -0.00  -0.00
    12   1     0.00   0.00  -0.00    -0.00   0.00  -0.00    -0.00   0.00  -0.00
    13   6    -0.01   0.27  -0.45     0.00   0.00  -0.00     0.00   0.00  -0.00
    14   8     0.01  -0.19   0.32     0.00  -0.00   0.00    -0.00  -0.00   0.00
    15  15     0.00  -0.01  -0.00     0.00  -0.00   0.00    -0.00   0.00  -0.00
    16   6    -0.00   0.00   0.00     0.00  -0.00   0.00     0.04  -0.03   0.01
    17   6    -0.00   0.00   0.00    -0.00  -0.00   0.00    -0.00  -0.00   0.00
    18   6    -0.00   0.01   0.00     0.00  -0.02  -0.05    -0.00   0.00   0.00
    19   1    -0.00   0.01  -0.00    -0.39  -0.28   0.26     0.03   0.02  -0.02
    20   1     0.00  -0.00   0.03    -0.07   0.65   0.11     0.00  -0.04  -0.01
    21   1     0.00   0.00  -0.01     0.45  -0.16   0.16    -0.03   0.01  -0.01
    22   1     0.00   0.01   0.01    -0.02  -0.01   0.01    -0.36  -0.28   0.24
    23   1     0.01   0.01   0.00    -0.00  -0.00  -0.04    -0.06  -0.05  -0.53
    24   1    -0.02   0.00  -0.01    -0.00   0.04   0.01    -0.05   0.63   0.18
    25   1    -0.00  -0.00   0.00    -0.00  -0.00  -0.02    -0.00  -0.00  -0.03
    26   1    -0.00  -0.00  -0.00     0.02  -0.00   0.01     0.04  -0.01   0.01
    27   1     0.01   0.00  -0.01    -0.01   0.02   0.01    -0.01   0.05   0.01
    28   6     0.51   0.11   0.16     0.00   0.00   0.00     0.00   0.00   0.00
    29   8    -0.37  -0.08  -0.11    -0.00  -0.00  -0.00    -0.00   0.00  -0.00
                     70                     71                     72
                      A                      A                      A
 Frequencies --   3056.1066              3058.0606              3061.0304
 Red. masses --      1.0349                 1.0437                 1.0545
 Frc consts  --      5.6948                 5.7504                 5.8216
 IR Inten    --     11.4152                45.9786                 3.2545
  Atom  AN      X      Y      Z        X      Y      Z        X      Y      Z
     1   1    -0.00   0.00   0.00     0.00   0.00  -0.00    -0.00  -0.00   0.00
     2   1     0.00  -0.00   0.00     0.00  -0.00  -0.00    -0.00   0.00   0.00
     3  45    -0.00  -0.00  -0.00     0.00   0.00   0.00    -0.00  -0.00  -0.00
     4   6    -0.00   0.00  -0.00     0.00   0.00   0.00    -0.00  -0.00  -0.00
     5   8     0.00   0.00   0.00    -0.00  -0.00  -0.00     0.00   0.00   0.00
     6   6    -0.00   0.00  -0.00     0.01   0.01   0.04    -0.02  -0.01  -0.05
     7   6    -0.00  -0.00  -0.00     0.04   0.01  -0.00     0.03   0.01   0.01
     8   1     0.01  -0.01   0.01    -0.15   0.26  -0.30     0.22  -0.37   0.43
     9   1     0.00   0.01   0.00    -0.00  -0.34  -0.13     0.01   0.50   0.20
    10   1     0.01  -0.00  -0.02    -0.33   0.03   0.46    -0.18   0.01   0.25
    11   1    -0.00   0.02   0.01    -0.00  -0.42  -0.17    -0.00  -0.33  -0.13
    12   1     0.01  -0.01   0.01    -0.14   0.25  -0.28    -0.12   0.21  -0.23
    13   6     0.00   0.00  -0.00    -0.00  -0.00   0.00    -0.00  -0.00   0.00
    14   8     0.00  -0.00   0.00     0.00   0.00  -0.00     0.00   0.00  -0.00
    15  15     0.00   0.00  -0.00     0.00   0.00   0.00    -0.00   0.00  -0.00
    16   6    -0.00   0.00  -0.00    -0.00   0.00  -0.00     0.00  -0.00   0.00
    17   6    -0.02  -0.04   0.02    -0.00  -0.00   0.00     0.00  -0.00   0.00
    18   6     0.00   0.00   0.00     0.00   0.00   0.00    -0.00   0.00   0.00
    19   1     0.01   0.01  -0.01     0.00   0.00  -0.00     0.00   0.00  -0.00
    20   1     0.00  -0.02  -0.00     0.00  -0.00  -0.00     0.00  -0.01  -0.00
    21   1    -0.02   0.01  -0.01    -0.00   0.00  -0.00    -0.00   0.00  -0.00
    22   1     0.02   0.02  -0.02     0.00   0.00  -0.00    -0.00  -0.00   0.00
    23   1     0.00   0.00   0.04     0.00   0.00   0.01    -0.00  -0.00  -0.00
    24   1     0.00  -0.05  -0.01     0.00  -0.01  -0.00    -0.00   0.00   0.00
    25   1    -0.03  -0.05  -0.52    -0.00  -0.00  -0.02    -0.00   0.00  -0.00
    26   1     0.46  -0.10   0.15     0.02  -0.00   0.01    -0.00   0.00  -0.00
    27   1    -0.18   0.63   0.19    -0.01   0.03   0.01    -0.00   0.00   0.00
    28   6     0.00   0.00   0.00    -0.00  -0.00  -0.00     0.00   0.00   0.00
    29   8    -0.00  -0.00  -0.00     0.00   0.00   0.00    -0.00  -0.00  -0.00
                     73                     74                     75
                      A                      A                      A
 Frequencies --   3097.2029              3130.1585              3139.8270
 Red. masses --      1.1002                 1.1019                 1.1025
 Frc consts  --      6.2182                 6.3608                 6.4036
 IR Inten    --      2.3934                29.0561                28.6430
  Atom  AN      X      Y      Z        X      Y      Z        X      Y      Z
     1   1     0.00  -0.00  -0.00     0.00  -0.00   0.00    -0.00   0.00   0.00
     2   1    -0.00   0.00   0.00    -0.00   0.00   0.00     0.00  -0.00  -0.00
     3  45    -0.00   0.00  -0.00    -0.00   0.00   0.00     0.00  -0.00   0.00
     4   6     0.00  -0.00   0.00    -0.00  -0.00  -0.00    -0.00   0.00  -0.00
     5   8     0.00  -0.00   0.00     0.00   0.00   0.00     0.00  -0.00   0.00
     6   6     0.02  -0.09   0.01     0.00  -0.01  -0.00    -0.00   0.02  -0.01
     7   6    -0.01   0.02  -0.00     0.03  -0.04  -0.08    -0.01   0.08  -0.04
     8   1    -0.23   0.37  -0.46    -0.00   0.00  -0.00     0.06  -0.10   0.12
     9   1     0.02   0.67   0.29     0.00   0.12   0.05    -0.00  -0.13  -0.06
    10   1     0.02   0.00  -0.03    -0.44   0.02   0.58    -0.13   0.02   0.16
    11   1    -0.00  -0.16  -0.06     0.02   0.59   0.22    -0.01  -0.46  -0.20
    12   1     0.06  -0.10   0.12     0.09  -0.15   0.14     0.30  -0.49   0.57
    13   6     0.00  -0.00  -0.00    -0.00   0.00  -0.00    -0.00   0.00  -0.00
    14   8    -0.00   0.00   0.00     0.00  -0.00   0.00     0.00  -0.00   0.00
    15  15    -0.00  -0.00   0.00    -0.00  -0.00  -0.00     0.00   0.00  -0.00
    16   6     0.00   0.00  -0.00     0.00   0.00   0.00    -0.00  -0.00  -0.00
    17   6     0.00  -0.00  -0.00    -0.00   0.00  -0.00     0.00   0.00   0.00
    18   6    -0.00   0.00  -0.00    -0.00   0.00  -0.00    -0.00  -0.00   0.00
    19   1    -0.00  -0.00   0.00    -0.00  -0.00   0.00     0.00   0.00  -0.00
    20   1     0.00  -0.00   0.00     0.00  -0.00  -0.00    -0.00   0.00   0.00
    21   1     0.00  -0.00   0.00     0.00  -0.00   0.00    -0.00   0.00  -0.00
    22   1    -0.00  -0.00   0.00    -0.00  -0.00   0.00     0.00   0.00  -0.00
    23   1    -0.00   0.00  -0.00    -0.00  -0.00  -0.00     0.00   0.00   0.00
    24   1    -0.00  -0.00  -0.00     0.00  -0.00  -0.00    -0.00   0.00   0.00
    25   1     0.00  -0.00   0.00    -0.00   0.00   0.00    -0.00  -0.00  -0.02
    26   1    -0.00   0.00   0.00     0.01  -0.00   0.00    -0.00   0.00  -0.00
    27   1    -0.00   0.01   0.00     0.00  -0.01  -0.00     0.00  -0.01  -0.00
    28   6     0.00  -0.00  -0.00     0.00  -0.00  -0.00     0.00   0.00  -0.00
    29   8    -0.00   0.00  -0.00     0.00   0.00   0.00     0.00  -0.00   0.00
                     76                     77                     78
                      A                      A                      A
 Frequencies --   3142.0668              3142.8939              3143.4513
 Red. masses --      1.1034                 1.1031                 1.1026
 Frc consts  --      6.4180                 6.4198                 6.4192
 IR Inten    --      4.4156                 1.4901                23.6072
  Atom  AN      X      Y      Z        X      Y      Z        X      Y      Z
     1   1    -0.00   0.00   0.00    -0.00   0.00   0.00    -0.00   0.00   0.00
     2   1    -0.00  -0.00   0.00    -0.00   0.00   0.00    -0.00  -0.00   0.00
     3  45     0.00   0.00   0.00    -0.00  -0.00   0.00     0.00   0.00  -0.00
     4   6    -0.00  -0.00  -0.00     0.00   0.00  -0.00    -0.00  -0.00  -0.00
     5   8     0.00   0.00   0.00    -0.00  -0.00   0.00     0.00   0.00   0.00
     6   6     0.00  -0.00   0.00    -0.00   0.00  -0.00    -0.00   0.00  -0.00
     7   6     0.00  -0.00   0.00    -0.00   0.00  -0.00     0.00  -0.00  -0.00
     8   1    -0.00   0.00  -0.00     0.00  -0.00   0.00     0.00  -0.00   0.00
     9   1     0.00   0.00   0.00    -0.00  -0.00  -0.00     0.00  -0.00   0.00
    10   1     0.00  -0.00  -0.00    -0.00   0.00   0.00    -0.00   0.00   0.00
    11   1     0.00   0.00   0.00    -0.00  -0.00  -0.00     0.00   0.01   0.00
    12   1    -0.00   0.00  -0.00     0.00  -0.01   0.01     0.00  -0.00   0.00
    13   6    -0.00   0.00  -0.00     0.00  -0.00  -0.00    -0.00   0.00  -0.00
    14   8     0.00  -0.00   0.00     0.00  -0.00   0.00     0.00  -0.00   0.00
    15  15    -0.00  -0.00  -0.00     0.00  -0.00  -0.00     0.00  -0.00  -0.00
    16   6    -0.02  -0.08  -0.04    -0.00  -0.01  -0.00    -0.01  -0.02  -0.01
    17   6    -0.01   0.02   0.01     0.04  -0.05  -0.03     0.03  -0.04  -0.03
    18   6     0.00   0.01  -0.00     0.01   0.06  -0.01    -0.01  -0.07   0.02
    19   1    -0.05  -0.04   0.04    -0.32  -0.22   0.22     0.36   0.24  -0.24
    20   1     0.01  -0.06  -0.01     0.05  -0.46  -0.09    -0.06   0.50   0.10
    21   1     0.00   0.00   0.00     0.13  -0.03   0.05    -0.14   0.03  -0.05
    22   1     0.29   0.21  -0.20     0.05   0.04  -0.04     0.06   0.04  -0.04
    23   1     0.06   0.03   0.49     0.00   0.00   0.04     0.02   0.01   0.14
    24   1    -0.07   0.69   0.19    -0.01   0.09   0.02    -0.02   0.17   0.04
    25   1    -0.01  -0.01  -0.13     0.02   0.02   0.38     0.02   0.02   0.32
    26   1     0.10  -0.02   0.04    -0.32   0.06  -0.11    -0.28   0.05  -0.10
    27   1     0.04  -0.16  -0.05    -0.13   0.49   0.14    -0.11   0.43   0.12
    28   6    -0.00   0.00  -0.00    -0.00  -0.00  -0.00     0.00   0.00   0.00
    29   8     0.00  -0.00   0.00     0.00  -0.00   0.00    -0.00  -0.00  -0.00
                     79                     80                     81
                      A                      A                      A
 Frequencies --   3152.2827              3155.0854              3158.2737
 Red. masses --      1.1025                 1.1028                 1.1029
 Frc consts  --      6.4549                 6.4682                 6.4815
 IR Inten    --      3.5807                 0.3501                 2.3692
  Atom  AN      X      Y      Z        X      Y      Z        X      Y      Z
     1   1    -0.00   0.00   0.00    -0.00  -0.00   0.00    -0.00   0.00   0.00
     2   1    -0.00   0.00   0.00    -0.00   0.00   0.00    -0.00   0.00   0.00
     3  45    -0.00  -0.00   0.00     0.00   0.00  -0.00     0.00  -0.00   0.00
     4   6     0.00   0.00  -0.00     0.00   0.00   0.00     0.00   0.00  -0.00
     5   8    -0.00  -0.00   0.00    -0.00   0.00  -0.00    -0.00   0.00   0.00
     6   6    -0.00   0.00  -0.00     0.00   0.00   0.00    -0.00   0.00  -0.00
     7   6    -0.00   0.00  -0.00     0.00  -0.00   0.00    -0.00   0.00   0.00
     8   1     0.00  -0.00   0.00    -0.00   0.00  -0.00     0.00  -0.00   0.00
     9   1    -0.00  -0.00  -0.00    -0.00  -0.00  -0.00    -0.00  -0.00  -0.00
    10   1    -0.00   0.00   0.00     0.00  -0.00  -0.00     0.00   0.00  -0.00
    11   1    -0.00  -0.00  -0.00     0.00   0.00   0.00    -0.00  -0.01  -0.00
    12   1     0.00  -0.00   0.00    -0.00   0.00  -0.00     0.00  -0.00   0.01
    13   6     0.00  -0.00   0.00     0.00  -0.00   0.00    -0.00  -0.00   0.00
    14   8    -0.00   0.00  -0.00    -0.00   0.00  -0.00     0.00   0.00   0.00
    15  15     0.00   0.00  -0.00    -0.00   0.00  -0.00    -0.00   0.00  -0.00
    16   6     0.04   0.03  -0.08    -0.00  -0.00  -0.00     0.00  -0.00  -0.00
    17   6     0.00  -0.00   0.00     0.00   0.00   0.00    -0.06   0.01  -0.07
    18   6     0.00   0.00  -0.00    -0.09   0.02  -0.00    -0.01   0.00   0.00
    19   1    -0.02  -0.01   0.01     0.34   0.26  -0.24     0.02   0.02  -0.01
    20   1     0.00  -0.02  -0.00     0.01  -0.22  -0.04    -0.00  -0.01  -0.00
    21   1     0.01  -0.00   0.01     0.74  -0.26   0.29     0.04  -0.02   0.02
    22   1    -0.53  -0.39   0.33     0.01   0.01  -0.01    -0.00  -0.00   0.00
    23   1     0.09   0.06   0.66     0.00   0.00   0.01     0.00   0.00   0.01
    24   1     0.01  -0.03  -0.02    -0.00   0.01   0.00    -0.00   0.00   0.00
    25   1    -0.00  -0.00   0.00    -0.00  -0.00  -0.05     0.02   0.06   0.67
    26   1    -0.01   0.00  -0.00    -0.03   0.01  -0.01     0.68  -0.14   0.21
    27   1    -0.00   0.00   0.00     0.00  -0.01  -0.00    -0.01  -0.01  -0.02
    28   6     0.00  -0.00  -0.00    -0.00  -0.00  -0.00     0.00   0.00   0.00
    29   8    -0.00   0.00   0.00     0.00   0.00   0.00    -0.00  -0.00   0.00

 -------------------
 - Thermochemistry -
 -------------------
 Temperature   298.150 Kelvin.  Pressure   1.00000 Atm.
 Atom     1 has atomic number  1 and mass   1.00783
 Atom     2 has atomic number  1 and mass   1.00783
 Atom     3 has atomic number 45 and mass 102.90480
 Atom     4 has atomic number  6 and mass  12.00000
 Atom     5 has atomic number  8 and mass  15.99491
 Atom     6 has atomic number  6 and mass  12.00000
 Atom     7 has atomic number  6 and mass  12.00000
 Atom     8 has atomic number  1 and mass   1.00783
 Atom     9 has atomic number  1 and mass   1.00783
 Atom    10 has atomic number  1 and mass   1.00783
 Atom    11 has atomic number  1 and mass   1.00783
 Atom    12 has atomic number  1 and mass   1.00783
 Atom    13 has atomic number  6 and mass  12.00000
 Atom    14 has atomic number  8 and mass  15.99491
 Atom    15 has atomic number 15 and mass  30.97376
 Atom    16 has atomic number  6 and mass  12.00000
 Atom    17 has atomic number  6 and mass  12.00000
 Atom    18 has atomic number  6 and mass  12.00000
 Atom    19 has atomic number  1 and mass   1.00783
 Atom    20 has atomic number  1 and mass   1.00783
 Atom    21 has atomic number  1 and mass   1.00783
 Atom    22 has atomic number  1 and mass   1.00783
 Atom    23 has atomic number  1 and mass   1.00783
 Atom    24 has atomic number  1 and mass   1.00783
 Atom    25 has atomic number  1 and mass   1.00783
 Atom    26 has atomic number  1 and mass   1.00783
 Atom    27 has atomic number  1 and mass   1.00783
 Atom    28 has atomic number  6 and mass  12.00000
 Atom    29 has atomic number  8 and mass  15.99491
 Molecular mass:   293.98851 amu.
 Principal axes and moments of inertia in atomic units:
                           1         2         3
     Eigenvalues --  2976.410153889.508474878.59119
           X            0.99724  -0.06284  -0.03945
           Y            0.06381   0.99768   0.02381
           Z            0.03786  -0.02626   0.99894
 This molecule is an asymmetric top.
 Rotational symmetry number  1.
 Warning -- assumption of classical behavior for rotation
           may cause significant error
 Rotational temperatures (Kelvin)      0.02910     0.02227     0.01775
 Rotational constants (GHZ):           0.60635     0.46400     0.36993
    1 imaginary frequencies ignored.
 Zero-point vibrational energy     580341.7 (Joules/Mol)
                                  138.70499 (Kcal/Mol)
 Warning -- explicit consideration of  29 degrees of freedom as
           vibrations may cause significant error
 Vibrational temperatures:     41.94    59.50    74.53   100.99   118.09
          (Kelvin)            119.59   127.73   168.80   236.43   248.38
                              281.36   291.53   312.16   324.75   343.08
                              355.24   378.65   388.76   395.91   471.35
                              486.97   493.81   520.23   565.57   597.00
                              656.24   727.60   734.07   847.28   995.14
                             1003.42  1025.63  1090.56  1094.55  1138.64
                             1160.58  1252.34  1255.35  1282.08  1327.61
                             1399.94  1402.95  1408.34  1478.66  1542.55
                             1599.13  1850.69  1918.49  1919.12  1939.23
                             1945.32  2037.04  2079.68  2091.04  2104.66
                             2105.96  2111.45  2118.87  2133.42  2145.57
                             2152.94  2506.36  2812.72  2876.43  3059.10
                             3114.85  4392.73  4394.78  4397.06  4399.87
                             4404.14  4456.18  4503.60  4517.51  4520.73
                             4521.92  4522.73  4535.43  4539.46  4544.05
 
 Zero-point correction=                           0.221040 (Hartree/Particle)
 Thermal correction to Energy=                    0.240172
 Thermal correction to Enthalpy=                  0.241116
 Thermal correction to Gibbs Free Energy=         0.172855
 Sum of electronic and zero-point Energies=           -991.990126
 Sum of electronic and thermal Energies=              -991.970995
 Sum of electronic and thermal Enthalpies=            -991.970050
 Sum of electronic and thermal Free Energies=         -992.038312
 
                     E (Thermal)             CV                S
                      KCal/Mol        Cal/Mol-Kelvin    Cal/Mol-Kelvin
 Total                  150.710             66.654            143.668
 Electronic               0.000              0.000              0.000
 Translational            0.889              2.981             42.932
 Rotational               0.889              2.981             32.402
 Vibrational            148.933             60.693             68.334
 Vibration     1          0.593              1.984              5.887
 Vibration     2          0.594              1.981              5.193
 Vibration     3          0.596              1.977              4.748
 Vibration     4          0.598              1.968              4.148
 Vibration     5          0.600              1.961              3.841
 Vibration     6          0.600              1.961              3.816
 Vibration     7          0.602              1.957              3.687
 Vibration     8          0.608              1.935              3.144
 Vibration     9          0.623              1.886              2.499
 Vibration    10          0.626              1.876              2.407
 Vibration    11          0.636              1.846              2.175
 Vibration    12          0.639              1.836              2.109
 Vibration    13          0.646              1.815              1.984
 Vibration    14          0.650              1.802              1.913
 Vibration    15          0.656              1.782              1.814
 Vibration    16          0.661              1.768              1.753
 Vibration    17          0.670              1.740              1.641
 Vibration    18          0.674              1.728              1.595
 Vibration    19          0.677              1.719              1.564
 Vibration    20          0.711              1.620              1.272
 Vibration    21          0.719              1.599              1.219
 Vibration    22          0.722              1.589              1.197
 Vibration    23          0.736              1.551              1.115
 Vibration    24          0.760              1.485              0.988
 Vibration    25          0.778              1.438              0.909
 Vibration    26          0.814              1.347              0.778
 Vibration    27          0.861              1.237              0.644
 Vibration    28          0.865              1.227              0.633
 Vibration    29          0.946              1.055              0.469
                       Q            Log10(Q)             Ln(Q)
 Total Bot       0.310558D-79        -79.507858       -183.073608
 Total V=0       0.145752D+23         22.163615         51.033609
 Vib (Bot)       0.582648D-94        -94.234594       -216.983170
 Vib (Bot)    1  0.710343D+01          0.851468          1.960578
 Vib (Bot)    2  0.500295D+01          0.699226          1.610027
 Vib (Bot)    3  0.399025D+01          0.601000          1.383854
 Vib (Bot)    4  0.293830D+01          0.468096          1.077832
 Vib (Bot)    5  0.250826D+01          0.399373          0.919591
 Vib (Bot)    6  0.247651D+01          0.393840          0.906849
 Vib (Bot)    7  0.231649D+01          0.364830          0.840052
 Vib (Bot)    8  0.174287D+01          0.241266          0.555536
 Vib (Bot)    9  0.122858D+01          0.089404          0.205861
 Vib (Bot)   10  0.116638D+01          0.066840          0.153906
 Vib (Bot)   11  0.102135D+01          0.009175          0.021126
 Vib (Bot)   12  0.983087D+00         -0.007408         -0.017058
 Vib (Bot)   13  0.912843D+00         -0.039604         -0.091192
 Vib (Bot)   14  0.874224D+00         -0.058377         -0.134419
 Vib (Bot)   15  0.822890D+00         -0.084658         -0.194933
 Vib (Bot)   16  0.791619D+00         -0.101484         -0.233676
 Vib (Bot)   17  0.736871D+00         -0.132608         -0.305342
 Vib (Bot)   18  0.715167D+00         -0.145593         -0.335240
 Vib (Bot)   19  0.700466D+00         -0.154613         -0.356010
 Vib (Bot)   20  0.571178D+00         -0.243229         -0.560055
 Vib (Bot)   21  0.549149D+00         -0.260309         -0.599385
 Vib (Bot)   22  0.539913D+00         -0.267676         -0.616347
 Vib (Bot)   23  0.506383D+00         -0.295520         -0.680461
 Vib (Bot)   24  0.455704D+00         -0.341317         -0.785912
 Vib (Bot)   25  0.424803D+00         -0.371812         -0.856129
 Vib (Bot)   26  0.374104D+00         -0.427008         -0.983222
 Vib (Bot)   27  0.323346D+00         -0.490332         -1.129032
 Vib (Bot)   28  0.319200D+00         -0.495937         -1.141936
 Vib (Bot)   29  0.256455D+00         -0.590989         -1.360802
 Vib (V=0)       0.273450D+08          7.436879         17.124046
 Vib (V=0)    1  0.762101D+01          0.882012          2.030909
 Vib (V=0)    2  0.552787D+01          0.742558          1.709802
 Vib (V=0)    3  0.452145D+01          0.655278          1.508834
 Vib (V=0)    4  0.348054D+01          0.541646          1.247187
 Vib (V=0)    5  0.305761D+01          0.485383          1.117635
 Vib (V=0)    6  0.302648D+01          0.480937          1.107399
 Vib (V=0)    7  0.286984D+01          0.457857          1.054255
 Vib (V=0)    8  0.231318D+01          0.364209          0.838622
 Vib (V=0)    9  0.182643D+01          0.261603          0.602363
 Vib (V=0)   10  0.176903D+01          0.247736          0.570433
 Vib (V=0)   11  0.163717D+01          0.214094          0.492969
 Vib (V=0)   12  0.160293D+01          0.204915          0.471835
 Vib (V=0)   13  0.154081D+01          0.187749          0.432307
 Vib (V=0)   14  0.150711D+01          0.178144          0.410193
 Vib (V=0)   15  0.146288D+01          0.165210          0.380410
 Vib (V=0)   16  0.143630D+01          0.157246          0.362071
 Vib (V=0)   17  0.139049D+01          0.143169          0.329659
 Vib (V=0)   18  0.137262D+01          0.137550          0.316720
 Vib (V=0)   19  0.136061D+01          0.133734          0.307934
 Vib (V=0)   20  0.125911D+01          0.100063          0.230403
 Vib (V=0)   21  0.124267D+01          0.094357          0.217266
 Vib (V=0)   22  0.123587D+01          0.091973          0.211776
 Vib (V=0)   23  0.121163D+01          0.083372          0.191971
 Vib (V=0)   24  0.117651D+01          0.070596          0.162553
 Vib (V=0)   25  0.115609D+01          0.062993          0.145046
 Vib (V=0)   26  0.112446D+01          0.050945          0.117305
 Vib (V=0)   27  0.109544D+01          0.039590          0.091159
 Vib (V=0)   28  0.109320D+01          0.038701          0.089111
 Vib (V=0)   29  0.106193D+01          0.026097          0.060091
 Electronic      0.100000D+01          0.000000          0.000000
 Translational   0.198130D+09          8.296949         19.104432
 Rotational      0.269021D+07          6.429787         14.805131
 ***** Axes restored to original set *****
 -------------------------------------------------------------------
 Center     Atomic                   Forces (Hartrees/Bohr)
 Number     Number              X              Y              Z
 -------------------------------------------------------------------
      1        1           0.000000485    0.000007448   -0.000005552
      2        1           0.000001204    0.000007462   -0.000010976
      3       45           0.000001362    0.000000103   -0.000004469
      4        6           0.000000342    0.000000025   -0.000004664
      5        8          -0.000000878   -0.000003177   -0.000002139
      6        6           0.000000739    0.000005854   -0.000004262
      7        6           0.000000371    0.000005014   -0.000002842
      8        1           0.000000079    0.000009130   -0.000001504
      9        1           0.000001253    0.000007729   -0.000009006
     10        1           0.000000365    0.000009342   -0.000002927
     11        1          -0.000000379    0.000003450    0.000001703
     12        1           0.000000813    0.000002068   -0.000005574
     13        6           0.000002392   -0.000008071   -0.000011964
     14        8           0.000002177   -0.000011103   -0.000013438
     15       15          -0.000001745   -0.000000135    0.000004938
     16        6          -0.000001246   -0.000000734    0.000006215
     17        6          -0.000001269    0.000001570    0.000008925
     18        6          -0.000001208   -0.000009106    0.000005891
     19        1          -0.000000285   -0.000012633    0.000003098
     20        1          -0.000001583   -0.000010655    0.000010236
     21        1           0.000002435   -0.000012828    0.000002781
     22        1          -0.000000692   -0.000004112    0.000004361
     23        1          -0.000001040    0.000003452    0.000006368
     24        1          -0.000001840   -0.000002431    0.000011414
     25        1          -0.000001376    0.000006855    0.000008635
     26        1          -0.000001382    0.000001232    0.000008261
     27        1          -0.000002029    0.000000413    0.000013387
     28        6           0.000001556    0.000001319   -0.000008147
     29        8           0.000001377    0.000002518   -0.000008749
 -------------------------------------------------------------------
 Cartesian Forces:  Max     0.000013438 RMS     0.000005783
 FormGI is forming the generalized inverse of G from B-inverse, IUseBI=4.
 Leave Link  716 at Wed Oct  5 00:49:38 2022, MaxMem=  2952790016 cpu:               0.8 elap:               0.1
 (Enter /mnt/data/applications/G16/g16/l103.exe)

 GradGradGradGradGradGradGradGradGradGradGradGradGradGradGradGradGradGrad
 Berny optimization.
 Red2BG is reusing G-inverse.
 Internal  Forces:  Max     0.000005260 RMS     0.000001026
 Search for a saddle point.
 Step number   1 out of a maximum of    2
 All quantities printed in internal units (Hartrees-Bohrs-Radians)
 Swapping is turned off.
 Second derivative matrix not updated -- analytic derivatives used.
 ITU=  0
     Eigenvalues ---   -0.05072   0.00104   0.00169   0.00205   0.00208
     Eigenvalues ---    0.00262   0.00285   0.00328   0.01510   0.01871
     Eigenvalues ---    0.02025   0.02197   0.02283   0.02576   0.03005
     Eigenvalues ---    0.03478   0.03830   0.03955   0.03965   0.04029
     Eigenvalues ---    0.04059   0.04081   0.04127   0.04202   0.04403
     Eigenvalues ---    0.04528   0.04907   0.05355   0.05688   0.07362
     Eigenvalues ---    0.07506   0.07797   0.07840   0.08380   0.09376
     Eigenvalues ---    0.09519   0.10612   0.10728   0.11098   0.11136
     Eigenvalues ---    0.11233   0.11369   0.11922   0.12088   0.12228
     Eigenvalues ---    0.12331   0.13491   0.13504   0.14003   0.14413
     Eigenvalues ---    0.14461   0.14630   0.14838   0.15851   0.16030
     Eigenvalues ---    0.17273   0.18420   0.21532   0.22337   0.22457
     Eigenvalues ---    0.23569   0.25729   0.29967   0.31467   0.33418
     Eigenvalues ---    0.34045   0.34074   0.34110   0.34182   0.34193
     Eigenvalues ---    0.34337   0.34461   0.34534   0.34613   0.34847
     Eigenvalues ---    0.34863   0.34934   0.34945   0.81858   1.19086
     Eigenvalues ---    1.21613
 Eigenvectors required to have negative eigenvalues:
                          A1        A8        A3        D3        D2
   1                   -0.53106  -0.31247  -0.30162  -0.26709   0.26648
                          D4        D1        R1        A4        A7
   1                   -0.26575   0.26514   0.23154   0.21904   0.21500
 Angle between quadratic step and forces=  72.89 degrees.
 Linear search not attempted -- option 19 set.
 Iteration  1 RMS(Cart)=  0.00025366 RMS(Int)=  0.00000001
 Iteration  2 RMS(Cart)=  0.00000002 RMS(Int)=  0.00000000
 ITry= 1 IFail=0 DXMaxC= 7.75D-04 DCOld= 1.00D+10 DXMaxT= 2.00D-02 DXLimC= 3.00D+00 Rises=F
 Variable       Old X    -DE/DX   Delta X   Delta X   Delta X     New X
                                 (Linear)    (Quad)   (Total)
    R1        3.10265  -0.00000   0.00000  -0.00002  -0.00002   3.10263
    R2        3.09512  -0.00000   0.00000  -0.00002  -0.00002   3.09510
    R3        3.94503  -0.00000   0.00000   0.00001   0.00001   3.94504
    R4        3.68324  -0.00000   0.00000  -0.00001  -0.00001   3.68323
    R5        4.49313  -0.00000   0.00000   0.00001   0.00001   4.49315
    R6        3.70994  -0.00000   0.00000  -0.00001  -0.00001   3.70993
    R7        2.28349   0.00000   0.00000   0.00000   0.00000   2.28349
    R8        2.88486  -0.00000   0.00000  -0.00000  -0.00000   2.88485
    R9        2.86833   0.00000   0.00000  -0.00000  -0.00000   2.86833
   R10        2.06703  -0.00000   0.00000   0.00000   0.00000   2.06703
   R11        2.06637  -0.00000   0.00000   0.00000   0.00000   2.06637
   R12        2.06324  -0.00000   0.00000  -0.00000  -0.00000   2.06324
   R13        2.06177   0.00000   0.00000   0.00000   0.00000   2.06177
   R14        2.06067   0.00000   0.00000   0.00000   0.00000   2.06067
   R15        2.14443  -0.00000   0.00000   0.00000   0.00000   2.14443
   R16        3.43917   0.00000   0.00000  -0.00000  -0.00000   3.43917
   R17        3.43799  -0.00000   0.00000   0.00000   0.00000   3.43799
   R18        3.43098  -0.00000   0.00000  -0.00001  -0.00001   3.43098
   R19        2.06180   0.00000   0.00000   0.00000   0.00000   2.06180
   R20        2.06186   0.00000   0.00000   0.00000   0.00000   2.06186
   R21        2.06355  -0.00000   0.00000  -0.00000  -0.00000   2.06355
   R22        2.06114   0.00000   0.00000  -0.00000  -0.00000   2.06114
   R23        2.06054  -0.00000   0.00000   0.00000   0.00000   2.06054
   R24        2.06370  -0.00000   0.00000  -0.00000  -0.00000   2.06370
   R25        2.06202  -0.00000   0.00000  -0.00000  -0.00000   2.06202
   R26        2.06378   0.00000   0.00000  -0.00000  -0.00000   2.06378
   R27        2.06084   0.00000   0.00000   0.00001   0.00001   2.06084
   R28        2.14169  -0.00000   0.00000  -0.00000  -0.00000   2.14169
    A1        0.70518  -0.00000   0.00000   0.00003   0.00003   0.70521
    A2        1.52006   0.00000   0.00000   0.00001   0.00001   1.52007
    A3        2.61261  -0.00000   0.00000  -0.00001  -0.00001   2.61260
    A4        1.76994  -0.00000   0.00000  -0.00008  -0.00008   1.76986
    A5        1.56669  -0.00000   0.00000   0.00000   0.00000   1.56669
    A6        1.52163   0.00000   0.00000   0.00001   0.00001   1.52165
    A7        1.91440  -0.00000   0.00000  -0.00004  -0.00004   1.91436
    A8        2.46668  -0.00000   0.00000  -0.00005  -0.00005   2.46663
    A9        1.58959  -0.00000   0.00000   0.00000   0.00000   1.58959
   A10        1.50598   0.00000   0.00000  -0.00001  -0.00001   1.50597
   A11        1.47094  -0.00001   0.00000  -0.00002  -0.00002   1.47092
   A12        1.87266   0.00000   0.00000   0.00009   0.00009   1.87274
   A13        1.69197  -0.00000   0.00000   0.00000   0.00000   1.69197
   A14        1.66448   0.00000   0.00000   0.00000   0.00000   1.66449
   A15        2.14531  -0.00000   0.00000  -0.00001  -0.00001   2.14530
   A16        2.05361   0.00000   0.00000   0.00001   0.00001   2.05362
   A17        2.08422   0.00000   0.00000  -0.00000  -0.00000   2.08422
   A18        2.00191  -0.00000   0.00000  -0.00000  -0.00000   2.00191
   A19        1.86596   0.00000   0.00000  -0.00000  -0.00000   1.86596
   A20        1.85869   0.00000   0.00000   0.00000   0.00000   1.85869
   A21        1.94578   0.00000   0.00000   0.00000   0.00000   1.94579
   A22        1.94388   0.00000   0.00000   0.00000   0.00000   1.94389
   A23        1.83759  -0.00000   0.00000  -0.00000  -0.00000   1.83759
   A24        1.92410   0.00000   0.00000   0.00000   0.00000   1.92411
   A25        1.94491  -0.00000   0.00000  -0.00000  -0.00000   1.94491
   A26        1.94184  -0.00000   0.00000  -0.00000  -0.00000   1.94183
   A27        1.88695   0.00000   0.00000   0.00000   0.00000   1.88695
   A28        1.88859  -0.00000   0.00000   0.00000   0.00000   1.88859
   A29        1.87530  -0.00000   0.00000  -0.00000  -0.00000   1.87530
   A30        2.02930   0.00000   0.00000   0.00002   0.00002   2.02931
   A31        2.02255  -0.00000   0.00000  -0.00007  -0.00007   2.02248
   A32        1.99166  -0.00000   0.00000   0.00001   0.00001   1.99167
   A33        1.78774  -0.00000   0.00000   0.00001   0.00001   1.78775
   A34        1.80219   0.00000   0.00000   0.00003   0.00003   1.80222
   A35        1.79889   0.00000   0.00000   0.00000   0.00000   1.79889
   A36        1.91264  -0.00000   0.00000   0.00000   0.00000   1.91264
   A37        1.91114  -0.00000   0.00000  -0.00000  -0.00000   1.91113
   A38        1.94302   0.00000   0.00000   0.00000   0.00000   1.94303
   A39        1.89066   0.00000   0.00000  -0.00000  -0.00000   1.89066
   A40        1.90100   0.00000   0.00000   0.00000   0.00000   1.90101
   A41        1.90459  -0.00000   0.00000  -0.00000  -0.00000   1.90459
   A42        1.90918   0.00000   0.00000  -0.00000  -0.00000   1.90918
   A43        1.91464  -0.00000   0.00000  -0.00001  -0.00001   1.91463
   A44        1.93902   0.00000   0.00000   0.00001   0.00001   1.93903
   A45        1.89540   0.00000   0.00000  -0.00000  -0.00000   1.89540
   A46        1.90654  -0.00000   0.00000   0.00000   0.00000   1.90654
   A47        1.89850   0.00000   0.00000  -0.00000  -0.00000   1.89850
   A48        1.90371   0.00000   0.00000   0.00000   0.00000   1.90371
   A49        1.94972   0.00000   0.00000   0.00001   0.00001   1.94973
   A50        1.89543  -0.00000   0.00000  -0.00004  -0.00004   1.89538
   A51        1.90810  -0.00000   0.00000   0.00000   0.00000   1.90810
   A52        1.89010   0.00000   0.00000   0.00000   0.00000   1.89011
   A53        1.91579   0.00000   0.00000   0.00002   0.00002   1.91581
   A54        3.08675   0.00000   0.00000   0.00001   0.00001   3.08676
   A55        3.12278   0.00000   0.00000   0.00002   0.00002   3.12280
   A56        3.14510  -0.00000   0.00000  -0.00001  -0.00001   3.14509
   A57        3.15916   0.00000   0.00000   0.00001   0.00001   3.15917
   A58        3.15225   0.00000   0.00000   0.00004   0.00004   3.15230
   A59        3.12117   0.00000   0.00000   0.00001   0.00001   3.12117
    D1        2.93893  -0.00000   0.00000  -0.00020  -0.00020   2.93873
    D2       -0.19315   0.00000   0.00000  -0.00021  -0.00021  -0.19335
    D3       -2.63815  -0.00000   0.00000  -0.00018  -0.00018  -2.63833
    D4        0.51295  -0.00000   0.00000  -0.00018  -0.00018   0.51277
    D5       -0.71917  -0.00000   0.00000  -0.00022  -0.00022  -0.71938
    D6        2.43194  -0.00000   0.00000  -0.00022  -0.00022   2.43172
    D7        1.16253   0.00000   0.00000  -0.00013  -0.00013   1.16241
    D8       -1.96955   0.00000   0.00000  -0.00013  -0.00013  -1.96968
    D9        1.42316  -0.00000   0.00000   0.00020   0.00020   1.42335
   D10       -0.67853   0.00000   0.00000   0.00023   0.00023  -0.67830
   D11       -2.76433   0.00000   0.00000   0.00027   0.00027  -2.76406
   D12        1.55656   0.00000   0.00000   0.00019   0.00019   1.55676
   D13       -0.54512   0.00000   0.00000   0.00023   0.00023  -0.54489
   D14       -2.63093   0.00000   0.00000   0.00026   0.00026  -2.63066
   D15        2.92168   0.00000   0.00000   0.00021   0.00021   2.92188
   D16        0.81999   0.00000   0.00000   0.00024   0.00024   0.82023
   D17       -1.26581   0.00000   0.00000   0.00028   0.00028  -1.26553
   D18       -1.89025  -0.00000   0.00000   0.00018   0.00018  -1.89007
   D19        2.29125  -0.00000   0.00000   0.00022   0.00022   2.29146
   D20        0.20544   0.00000   0.00000   0.00025   0.00025   0.20570
   D21       -0.16239  -0.00000   0.00000   0.00020   0.00020  -0.16220
   D22       -2.26408  -0.00000   0.00000   0.00023   0.00023  -2.26384
   D23        1.93330   0.00000   0.00000   0.00027   0.00027   1.93357
   D24        3.10255  -0.00000   0.00000   0.00001   0.00001   3.10256
   D25        0.93589  -0.00000   0.00000   0.00001   0.00001   0.93590
   D26       -1.02192  -0.00000   0.00000   0.00001   0.00001  -1.02191
   D27       -0.02988   0.00000   0.00000   0.00001   0.00001  -0.02987
   D28       -2.19654   0.00000   0.00000   0.00001   0.00001  -2.19653
   D29        2.12883   0.00000   0.00000   0.00001   0.00001   2.12885
   D30        3.13661  -0.00000   0.00000  -0.00003  -0.00003   3.13658
   D31       -1.05127  -0.00000   0.00000  -0.00003  -0.00003  -1.05130
   D32        1.04124  -0.00000   0.00000  -0.00004  -0.00004   1.04121
   D33       -1.02288  -0.00000   0.00000  -0.00004  -0.00004  -1.02292
   D34        1.07243  -0.00000   0.00000  -0.00004  -0.00004   1.07239
   D35       -3.11824  -0.00000   0.00000  -0.00004  -0.00004  -3.11828
   D36        1.02403   0.00000   0.00000  -0.00003  -0.00003   1.02400
   D37        3.11934   0.00000   0.00000  -0.00003  -0.00003   3.11931
   D38       -1.07133  -0.00000   0.00000  -0.00004  -0.00004  -1.07137
   D39        1.04092  -0.00000   0.00000   0.00002   0.00002   1.04094
   D40       -1.03060   0.00000   0.00000   0.00003   0.00003  -1.03057
   D41       -3.13818   0.00000   0.00000   0.00003   0.00003  -3.13815
   D42       -3.01881  -0.00000   0.00000  -0.00005  -0.00005  -3.01886
   D43        1.19286  -0.00000   0.00000  -0.00005  -0.00005   1.19281
   D44       -0.91473  -0.00000   0.00000  -0.00004  -0.00004  -0.91477
   D45       -1.15398   0.00000   0.00000  -0.00003  -0.00003  -1.15401
   D46        3.05769   0.00000   0.00000  -0.00003  -0.00003   3.05766
   D47        0.95010   0.00000   0.00000  -0.00002  -0.00002   0.95008
   D48        1.01950   0.00000   0.00000  -0.00006  -0.00006   1.01943
   D49       -1.05783   0.00000   0.00000  -0.00005  -0.00005  -1.05788
   D50        3.12565   0.00000   0.00000  -0.00005  -0.00005   3.12559
   D51       -1.20826   0.00000   0.00000  -0.00005  -0.00005  -1.20831
   D52        2.99761   0.00000   0.00000  -0.00004  -0.00004   2.99757
   D53        0.89789   0.00000   0.00000  -0.00004  -0.00004   0.89786
   D54       -3.07563  -0.00000   0.00000  -0.00009  -0.00009  -3.07572
   D55        1.13024  -0.00000   0.00000  -0.00008  -0.00008   1.13016
   D56       -0.96948  -0.00000   0.00000  -0.00008  -0.00008  -0.96955
   D57       -1.10840  -0.00000   0.00000  -0.00011  -0.00011  -1.10851
   D58        3.06347  -0.00000   0.00000  -0.00012  -0.00012   3.06334
   D59        0.94808  -0.00000   0.00000  -0.00013  -0.00013   0.94795
   D60        1.11047   0.00000   0.00000  -0.00005  -0.00005   1.11042
   D61       -1.00084  -0.00000   0.00000  -0.00007  -0.00007  -1.00091
   D62       -3.11623  -0.00000   0.00000  -0.00007  -0.00007  -3.11630
   D63        2.96684   0.00000   0.00000  -0.00003  -0.00003   2.96681
   D64        0.85553   0.00000   0.00000  -0.00005  -0.00005   0.85548
   D65       -1.25986   0.00000   0.00000  -0.00005  -0.00005  -1.25991
         Item               Value     Threshold  Converged?
 Maximum Force            0.000005     0.000450     YES
 RMS     Force            0.000001     0.000300     YES
 Maximum Displacement     0.000775     0.001800     YES
 RMS     Displacement     0.000254     0.001200     YES
 Predicted change in Energy=-2.068652D-09
 Optimization completed.
    -- Stationary point found.
                           ----------------------------
                           !   Optimized Parameters   !
                           ! (Angstroms and Degrees)  !
 --------------------------                            --------------------------
 ! Name  Definition              Value          Derivative Info.                !
 --------------------------------------------------------------------------------
 ! R1    R(1,3)                  1.6419         -DE/DX =    0.0                 !
 ! R2    R(2,3)                  1.6379         -DE/DX =    0.0                 !
 ! R3    R(3,4)                  2.0876         -DE/DX =    0.0                 !
 ! R4    R(3,13)                 1.9491         -DE/DX =    0.0                 !
 ! R5    R(3,15)                 2.3777         -DE/DX =    0.0                 !
 ! R6    R(3,28)                 1.9632         -DE/DX =    0.0                 !
 ! R7    R(4,5)                  1.2084         -DE/DX =    0.0                 !
 ! R8    R(4,6)                  1.5266         -DE/DX =    0.0                 !
 ! R9    R(6,7)                  1.5179         -DE/DX =    0.0                 !
 ! R10   R(6,8)                  1.0938         -DE/DX =    0.0                 !
 ! R11   R(6,9)                  1.0935         -DE/DX =    0.0                 !
 ! R12   R(7,10)                 1.0918         -DE/DX =    0.0                 !
 ! R13   R(7,11)                 1.091          -DE/DX =    0.0                 !
 ! R14   R(7,12)                 1.0905         -DE/DX =    0.0                 !
 ! R15   R(13,14)                1.1348         -DE/DX =    0.0                 !
 ! R16   R(15,16)                1.8199         -DE/DX =    0.0                 !
 ! R17   R(15,17)                1.8193         -DE/DX =    0.0                 !
 ! R18   R(15,18)                1.8156         -DE/DX =    0.0                 !
 ! R19   R(16,22)                1.0911         -DE/DX =    0.0                 !
 ! R20   R(16,23)                1.0911         -DE/DX =    0.0                 !
 ! R21   R(16,24)                1.092          -DE/DX =    0.0                 !
 ! R22   R(17,25)                1.0907         -DE/DX =    0.0                 !
 ! R23   R(17,26)                1.0904         -DE/DX =    0.0                 !
 ! R24   R(17,27)                1.0921         -DE/DX =    0.0                 !
 ! R25   R(18,19)                1.0912         -DE/DX =    0.0                 !
 ! R26   R(18,20)                1.0921         -DE/DX =    0.0                 !
 ! R27   R(18,21)                1.0905         -DE/DX =    0.0                 !
 ! R28   R(28,29)                1.1333         -DE/DX =    0.0                 !
 ! A1    A(1,3,2)               40.404          -DE/DX =    0.0                 !
 ! A2    A(1,3,4)               87.0931         -DE/DX =    0.0                 !
 ! A3    A(1,3,13)             149.6917         -DE/DX =    0.0                 !
 ! A4    A(1,3,15)             101.4099         -DE/DX =    0.0                 !
 ! A5    A(1,3,28)              89.7646         -DE/DX =    0.0                 !
 ! A6    A(2,3,4)               87.1833         -DE/DX =    0.0                 !
 ! A7    A(2,3,13)             109.6872         -DE/DX =    0.0                 !
 ! A8    A(2,3,15)             141.3305         -DE/DX =    0.0                 !
 ! A9    A(2,3,28)              91.0767         -DE/DX =    0.0                 !
 ! A10   A(4,3,13)              86.2862         -DE/DX =    0.0                 !
 ! A11   A(4,3,15)              84.2786         -DE/DX =    0.0                 !
 ! A12   A(13,3,15)            107.2952         -DE/DX =    0.0                 !
 ! A13   A(13,3,28)             96.9428         -DE/DX =    0.0                 !
 ! A14   A(15,3,28)             95.3679         -DE/DX =    0.0                 !
 ! A15   A(3,4,5)              122.9172         -DE/DX =    0.0                 !
 ! A16   A(3,4,6)              117.6634         -DE/DX =    0.0                 !
 ! A17   A(5,4,6)              119.4171         -DE/DX =    0.0                 !
 ! A18   A(4,6,7)              114.701          -DE/DX =    0.0                 !
 ! A19   A(4,6,8)              106.9117         -DE/DX =    0.0                 !
 ! A20   A(4,6,9)              106.4952         -DE/DX =    0.0                 !
 ! A21   A(7,6,8)              111.4853         -DE/DX =    0.0                 !
 ! A22   A(7,6,9)              111.3764         -DE/DX =    0.0                 !
 ! A23   A(8,6,9)              105.2864         -DE/DX =    0.0                 !
 ! A24   A(6,7,10)             110.243          -DE/DX =    0.0                 !
 ! A25   A(6,7,11)             111.4351         -DE/DX =    0.0                 !
 ! A26   A(6,7,12)             111.259          -DE/DX =    0.0                 !
 ! A27   A(10,7,11)            108.1142         -DE/DX =    0.0                 !
 ! A28   A(10,7,12)            108.2084         -DE/DX =    0.0                 !
 ! A29   A(11,7,12)            107.4471         -DE/DX =    0.0                 !
 ! A30   A(3,15,16)            116.27           -DE/DX =    0.0                 !
 ! A31   A(3,15,17)            115.8836         -DE/DX =    0.0                 !
 ! A32   A(3,15,18)            114.1136         -DE/DX =    0.0                 !
 ! A33   A(16,15,17)           102.4299         -DE/DX =    0.0                 !
 ! A34   A(16,15,18)           103.2578         -DE/DX =    0.0                 !
 ! A35   A(17,15,18)           103.0685         -DE/DX =    0.0                 !
 ! A36   A(15,16,22)           109.586          -DE/DX =    0.0                 !
 ! A37   A(15,16,23)           109.5001         -DE/DX =    0.0                 !
 ! A38   A(15,16,24)           111.3271         -DE/DX =    0.0                 !
 ! A39   A(22,16,23)           108.3268         -DE/DX =    0.0                 !
 ! A40   A(22,16,24)           108.9195         -DE/DX =    0.0                 !
 ! A41   A(23,16,24)           109.1251         -DE/DX =    0.0                 !
 ! A42   A(15,17,25)           109.3882         -DE/DX =    0.0                 !
 ! A43   A(15,17,26)           109.7008         -DE/DX =    0.0                 !
 ! A44   A(15,17,27)           111.0975         -DE/DX =    0.0                 !
 ! A45   A(25,17,26)           108.5985         -DE/DX =    0.0                 !
 ! A46   A(25,17,27)           109.2364         -DE/DX =    0.0                 !
 ! A47   A(26,17,27)           108.7763         -DE/DX =    0.0                 !
 ! A48   A(15,18,19)           109.0744         -DE/DX =    0.0                 !
 ! A49   A(15,18,20)           111.7106         -DE/DX =    0.0                 !
 ! A50   A(15,18,21)           108.5999         -DE/DX =    0.0                 !
 ! A51   A(19,18,20)           109.3259         -DE/DX =    0.0                 !
 ! A52   A(19,18,21)           108.2949         -DE/DX =    0.0                 !
 ! A53   A(20,18,21)           109.7667         -DE/DX =    0.0                 !
 ! A54   L(4,3,28,1,-1)        176.8577         -DE/DX =    0.0                 !
 ! A55   L(3,13,14,5,-1)       178.9222         -DE/DX =    0.0                 !
 ! A56   L(3,28,29,16,-1)      180.2008         -DE/DX =    0.0                 !
 ! A57   L(4,3,28,1,-2)        181.0064         -DE/DX =    0.0                 !
 ! A58   L(3,13,14,5,-2)       180.6108         -DE/DX =    0.0                 !
 ! A59   L(3,28,29,16,-2)      178.8297         -DE/DX =    0.0                 !
 ! D1    D(1,3,4,5)            168.3885         -DE/DX =    0.0                 !
 ! D2    D(1,3,4,6)            -11.0666         -DE/DX =    0.0                 !
 ! D3    D(2,3,4,5)           -151.1549         -DE/DX =    0.0                 !
 ! D4    D(2,3,4,6)             29.39           -DE/DX =    0.0                 !
 ! D5    D(13,3,4,5)           -41.2052         -DE/DX =    0.0                 !
 ! D6    D(13,3,4,6)           139.3397         -DE/DX =    0.0                 !
 ! D7    D(15,3,4,5)            66.6081         -DE/DX =    0.0                 !
 ! D8    D(15,3,4,6)          -112.847          -DE/DX =    0.0                 !
 ! D9    D(1,3,15,16)           81.5408         -DE/DX =    0.0                 !
 ! D10   D(1,3,15,17)          -38.8766         -DE/DX =    0.0                 !
 ! D11   D(1,3,15,18)         -158.3846         -DE/DX =    0.0                 !
 ! D12   D(2,3,15,16)           89.1844         -DE/DX =    0.0                 !
 ! D13   D(2,3,15,17)          -31.233          -DE/DX =    0.0                 !
 ! D14   D(2,3,15,18)         -150.741          -DE/DX =    0.0                 !
 ! D15   D(4,3,15,16)          167.3997         -DE/DX =    0.0                 !
 ! D16   D(4,3,15,17)           46.9822         -DE/DX =    0.0                 !
 ! D17   D(4,3,15,18)          -72.5258         -DE/DX =    0.0                 !
 ! D18   D(13,3,15,16)        -108.3036         -DE/DX =    0.0                 !
 ! D19   D(13,3,15,17)         131.2789         -DE/DX =    0.0                 !
 ! D20   D(13,3,15,18)          11.7709         -DE/DX =    0.0                 !
 ! D21   D(28,3,15,16)          -9.3045         -DE/DX =    0.0                 !
 ! D22   D(28,3,15,17)        -129.722          -DE/DX =    0.0                 !
 ! D23   D(28,3,15,18)         110.77           -DE/DX =    0.0                 !
 ! D24   D(3,4,6,7)            177.7628         -DE/DX =    0.0                 !
 ! D25   D(3,4,6,8)             53.6223         -DE/DX =    0.0                 !
 ! D26   D(3,4,6,9)            -58.5519         -DE/DX =    0.0                 !
 ! D27   D(5,4,6,7)             -1.7121         -DE/DX =    0.0                 !
 ! D28   D(5,4,6,8)           -125.8526         -DE/DX =    0.0                 !
 ! D29   D(5,4,6,9)            121.9732         -DE/DX =    0.0                 !
 ! D30   D(4,6,7,10)           179.7145         -DE/DX =    0.0                 !
 ! D31   D(4,6,7,11)           -60.2332         -DE/DX =    0.0                 !
 ! D32   D(4,6,7,12)            59.6589         -DE/DX =    0.0                 !
 ! D33   D(8,6,7,10)           -58.6067         -DE/DX =    0.0                 !
 ! D34   D(8,6,7,11)            61.4456         -DE/DX =    0.0                 !
 ! D35   D(8,6,7,12)          -178.6623         -DE/DX =    0.0                 !
 ! D36   D(9,6,7,10)            58.6729         -DE/DX =    0.0                 !
 ! D37   D(9,6,7,11)           178.7251         -DE/DX =    0.0                 !
 ! D38   D(9,6,7,12)           -61.3827         -DE/DX =    0.0                 !
 ! D39   D(3,15,16,22)          59.6401         -DE/DX =    0.0                 !
 ! D40   D(3,15,16,23)         -59.0489         -DE/DX =    0.0                 !
 ! D41   D(3,15,16,24)        -179.8046         -DE/DX =    0.0                 !
 ! D42   D(17,15,16,22)       -172.9653         -DE/DX =    0.0                 !
 ! D43   D(17,15,16,23)         68.3457         -DE/DX =    0.0                 !
 ! D44   D(17,15,16,24)        -52.41           -DE/DX =    0.0                 !
 ! D45   D(18,15,16,22)        -66.1184         -DE/DX =    0.0                 !
 ! D46   D(18,15,16,23)        175.1926         -DE/DX =    0.0                 !
 ! D47   D(18,15,16,24)         54.4369         -DE/DX =    0.0                 !
 ! D48   D(3,15,17,25)          58.4128         -DE/DX =    0.0                 !
 ! D49   D(3,15,17,26)         -60.609          -DE/DX =    0.0                 !
 ! D50   D(3,15,17,27)         179.0863         -DE/DX =    0.0                 !
 ! D51   D(16,15,17,25)        -69.2281         -DE/DX =    0.0                 !
 ! D52   D(16,15,17,26)        171.7502         -DE/DX =    0.0                 !
 ! D53   D(16,15,17,27)         51.4455         -DE/DX =    0.0                 !
 ! D54   D(18,15,17,25)       -176.2205         -DE/DX =    0.0                 !
 ! D55   D(18,15,17,26)         64.7578         -DE/DX =    0.0                 !
 ! D56   D(18,15,17,27)        -55.5469         -DE/DX =    0.0                 !
 ! D57   D(3,15,18,19)         -63.5069         -DE/DX =    0.0                 !
 ! D58   D(3,15,18,20)         175.5237         -DE/DX =    0.0                 !
 ! D59   D(3,15,18,21)          54.3209         -DE/DX =    0.0                 !
 ! D60   D(16,15,18,19)         63.6253         -DE/DX =    0.0                 !
 ! D61   D(16,15,18,20)        -57.3441         -DE/DX =    0.0                 !
 ! D62   D(16,15,18,21)       -178.5469         -DE/DX =    0.0                 !
 ! D63   D(17,15,18,19)        169.9877         -DE/DX =    0.0                 !
 ! D64   D(17,15,18,20)         49.0183         -DE/DX =    0.0                 !
 ! D65   D(17,15,18,21)        -72.1845         -DE/DX =    0.0                 !
 --------------------------------------------------------------------------------
 GradGradGradGradGradGradGradGradGradGradGradGradGradGradGradGradGradGrad

 Leave Link  103 at Wed Oct  5 00:49:38 2022, MaxMem=  2952790016 cpu:               0.5 elap:               0.1
 (Enter /mnt/data/applications/G16/g16/l9999.exe)

 ----------------------------------------------------------------------

 Electric dipole moment (input orientation):
 (Debye = 10**-18 statcoulomb cm , SI units = C m)
                  (au)            (Debye)         (10**-30 SI)
   Tot        0.203366D+01      0.516906D+01      0.172421D+02
   x         -0.830962D+00     -0.211210D+01     -0.704519D+01
   y          0.171574D+01      0.436097D+01      0.145466D+02
   z         -0.708187D+00     -0.180003D+01     -0.600426D+01

 Dipole polarizability, Alpha (input orientation).
 (esu units = cm**3 , SI units = C**2 m**2 J**-1)
 Alpha(0;0):
               (au)            (10**-24 esu)      (10**-40 SI)
   iso        0.199377D+03      0.295447D+02      0.328729D+02
   aniso      0.344176D+02      0.510016D+01      0.567469D+01
   xx         0.220679D+03      0.327013D+02      0.363851D+02
   yx         0.465393D+01      0.689641D+00      0.767329D+00
   yy         0.192306D+03      0.284968D+02      0.317070D+02
   zx         0.428889D+01      0.635548D+00      0.707142D+00
   zy         0.128764D+01      0.190808D+00      0.212303D+00
   zz         0.185147D+03      0.274359D+02      0.305266D+02

 ----------------------------------------------------------------------

 Dipole orientation:
     1          1.42416111          3.58555176          0.16349473
     1          0.89328130          3.85034030         -1.89293640
    45         -0.54285529          1.36274707         -0.74005717
     6          2.62654984         -0.72491468         -1.81700493
     8          2.52417120         -2.93621784         -2.37734233
     6          5.17173119          0.63237216         -1.86408677
     6          7.40267190         -1.02782981         -2.56691176
     1          5.42715318          1.49596749         -0.00355904
     1          4.96817464          2.21560293         -3.17627856
     1          9.14391419          0.07897960         -2.56774152
     1          7.63301740         -2.58417688         -1.23438315
     1          7.16123845         -1.84973121         -4.44108733
     6         -2.32499721         -0.40227372         -3.43726253
     8         -3.32237588         -1.44364987         -5.02450760
    15         -0.54346505         -1.33728149          2.85133473
     6         -2.57686938         -0.39837846          5.46124443
     6          2.49436282         -1.77497920          4.40045436
     6         -1.54667104         -4.55075914          2.18891933
     1         -3.50962590         -4.52734435          1.55790526
     1         -1.37823783         -5.76124984          3.85190992
     1         -0.38480188         -5.30027718          0.66073951
     1         -4.53215669         -0.30261359          4.81417735
     1         -2.02207755          1.47234753          6.12745493
     1         -2.45499947         -1.73720894          7.02678996
     1          3.22461292          0.05548451          5.00414264
     1          3.83398744         -2.61331953          3.07817061
     1          2.31930077         -3.01236985          6.04273370
     6         -3.39496533          3.44751450          0.39258448
     8         -5.01353054          4.68282256          1.05675026

 Electric dipole moment (dipole orientation):
 (Debye = 10**-18 statcoulomb cm , SI units = C m)
                  (au)            (Debye)         (10**-30 SI)
   Tot        0.203366D+01      0.516906D+01      0.172421D+02
   x          0.000000D+00      0.000000D+00      0.000000D+00
   y          0.000000D+00      0.000000D+00      0.000000D+00
   z          0.203366D+01      0.516906D+01      0.172421D+02

 Dipole polarizability, Alpha (dipole orientation).
 (esu units = cm**3 , SI units = C**2 m**2 J**-1)
 Alpha(0;0):
               (au)            (10**-24 esu)      (10**-40 SI)
   iso        0.199377D+03      0.295447D+02      0.328729D+02
   aniso      0.344176D+02      0.510016D+01      0.567469D+01
   xx         0.211637D+03      0.313614D+02      0.348943D+02
   yx        -0.138051D+02     -0.204570D+01     -0.227615D+01
   yy         0.193065D+03      0.286092D+02      0.318321D+02
   zx        -0.937360D+01     -0.138902D+01     -0.154550D+01
   zy         0.191028D+01      0.283074D+00      0.314963D+00
   zz         0.193430D+03      0.286634D+02      0.318923D+02

 ----------------------------------------------------------------------
 1\1\GINC-KIMIK2156\Freq\RwB97XD\Gen\C8H16O3P1Rh1\DGARAY\05-Oct-2022\0\
 \#P Geom=AllCheck Guess=TCheck SCRF=Check GenChk RwB97XD/ChkBas Freq\\
 Auto-generated job for TS3\\0,1\H,0.1398170207,-0.6300076919,-1.938836
 7352\H,0.3024984517,-1.6860783294,-1.563310834\Rh,-0.2760605291,-0.744
 2726508,-0.3546455876\C,1.7087557125,-0.2747312204,0.0905473621\O,2.08
 16446897,0.0136519597,1.2031782766\C,2.7153554277,-0.2904368858,-1.057
 0664963\C,4.1263240991,0.1123714622,-0.6687368864\H,2.3146428408,0.359
 0242214,-1.8406989073\H,2.6904865308,-1.2993090711,-1.4780805749\H,4.7
 840696277,0.0711097817,-1.5392174446\H,4.15557884,1.1272319602,-0.2692
 650526\H,4.5308320618,-0.5517054445,0.09577157\C,-0.2803310857,-1.7486
 581214,1.3157217697\O,-0.2586602893,-2.3320909833,2.2887935749\P,-0.68
 7562701,1.5335083479,0.189105798\C,-2.3217065621,2.1890314927,-0.27134
 26497\C,0.4451831418,2.7454836567,-0.5578008617\C,-0.5746697335,1.9047
 830484,1.9627487803\H,-1.3515159142,1.3516216448,2.4930138083\H,-0.692
 3699482,2.9724042139,2.1603034146\H,0.3958691304,1.5669667666,2.327755
 3856\H,-3.1013159205,1.6116671395,0.2279219441\H,-2.4616462946,2.09420
 71875,-1.3492551624\H,-2.4225608866,3.2389082035,0.0115342626\H,0.4055
 605645,2.6565442848,-1.6441551324\H,1.4656361991,2.5458291945,-0.22951
 62723\H,0.1763402895,3.7641017609,-0.2701483006\C,-2.1254145565,-1.145
 2951889,-0.8774161744\O,-3.1866082066,-1.3763647393,-1.2013378742\\Ver
 sion=AM64L-G16RevA.03\State=1-A\HF=-992.2111669\RMSD=2.842e-09\RMSF=5.
 783e-06\ZeroPoint=0.2210405\Thermal=0.2401722\Dipole=-0.8309622,1.7157
 383,-0.7081869\DipoleDeriv=0.235487,-0.0309492,-0.0374347,-0.1744261,0
 .323266,0.3845366,0.0192307,0.0103063,-0.124289,0.1831399,0.0877354,0.
 1009242,0.1959673,-0.1121149,-0.4745067,-0.0467696,-0.1063643,0.196668
 ,-1.9010295,-0.1446941,-0.195931,-0.0620232,-1.6104706,0.2556939,0.036
 52,0.3760342,-1.4380724,1.8366541,0.1433185,-0.0648149,0.3876645,0.530
 1243,0.2263788,0.656043,0.3815948,1.2776456,-1.2924051,-0.1140723,-0.1
 840318,-0.2783635,-0.4894812,-0.2186114,-0.7999425,-0.3303117,-1.17140
 34,-0.1964046,-0.005945,0.2006143,-0.0493884,0.0474765,-0.0369045,0.06
 90771,-0.0860187,-0.2550468,-0.0664809,-0.038597,-0.0336819,-0.0144513
 ,0.0937548,-0.0027155,0.1025149,0.0216118,0.1105141,-0.0611557,0.04147
 18,-0.0632117,0.0153781,0.027363,0.0902834,-0.073806,0.0628756,0.02032
 49,-0.0168134,-0.0446214,0.0053217,-0.0426539,-0.0606901,-0.0675419,-0
 .0162441,-0.0385257,0.0735223,-0.1254642,-0.0166824,0.0957366,-0.01752
 42,0.0801978,-0.0131029,0.1339182,-0.0090244,-0.0763264,0.0484147,0.02
 76185,0.0069025,-0.0359455,-0.1255785,-0.0629128,-0.0491641,-0.082235,
 0.0466625,0.017749,0.0128297,-0.0277636,0.0507839,-0.0148974,0.0880273
 ,-0.1161101,0.081746,-0.0160325,0.5930839,-0.0382526,0.101896,0.017858
 1,1.2468089,-1.0364318,-0.0344175,-1.284834,2.0732402,-0.2291576,0.027
 1745,-0.0563391,-0.0481377,-0.8018371,0.8616576,0.0773808,1.0437856,-1
 .5800971,1.2103888,-0.0384179,0.0028841,-0.1576529,1.6313972,0.0621034
 ,-0.0373007,0.0830461,1.0896299,-0.3174045,-0.0008243,-0.0448721,0.153
 8307,-0.3848574,0.0111711,0.0179631,-0.0577261,-0.2202041,-0.2912894,0
 .0267356,0.0333272,-0.0410486,-0.4017074,0.058168,0.0362676,-0.0439463
 ,-0.2340011,-0.2755489,0.0494354,-0.0039593,0.0808206,-0.4013491,-0.12
 30299,-0.0271726,0.0112973,-0.3499334,0.0214239,-0.0531633,0.0576235,-
 0.0715442,0.0522038,0.0311788,0.0589799,0.0463843,0.0252715,0.1062433,
 0.0189914,0.0087382,0.0323025,-0.1369139,-0.0850527,0.0288941,-0.14159
 14,0.0059609,0.0232005,-0.0004483,-0.0531091,0.0104308,0.1154433,0.034
 5543,-0.0534528,0.0410672,0.0765117,-0.0164955,-0.0589101,0.0431093,-0
 .0622199,0.0474104,0.0487367,0.0331766,0.0410512,0.0605618,0.0649235,0
 .0026869,-0.0342064,0.0065681,0.0976149,-0.0159896,-0.0279241,-0.01163
 93,-0.0625064,0.0186336,0.1165358,0.0003434,0.0792848,-0.1450897,-0.04
 38726,-0.0123978,-0.0302245,0.0925925,0.0882107,-0.0115425,0.0188094,-
 0.0263971,0.0897568,-0.0084722,0.0102257,-0.0055315,-0.0709411,-0.0596
 912,0.0098428,-0.0282901,0.0018271,0.1092099,0.0227646,-0.0304577,0.01
 05791,0.070669,0.0766174,-0.0175585,0.0223328,0.0241873,-0.1854872,-0.
 0292848,0.0256301,-0.0133923,0.0878989,2.3262153,0.5897666,0.7171899,0
 .4096601,0.6990897,0.1718892,0.5783133,0.1975573,0.6533333,-2.001045,-
 0.5394641,-0.5881073,-0.3847871,-0.3206426,-0.1287141,-0.5589756,-0.16
 75715,-0.3621535\Polar=220.6793693,4.6539257,192.3059792,4.2888899,1.2
 876391,185.146786\Quadrupole=-1.8022253,4.1510637,-2.3488384,-3.423831
 8,-5.5023463,1.4790272\PG=C01 [X(C8H16O3P1Rh1)]\NImag=1\\0.02945338,0.
 01601569,0.00191499,-0.02559014,-0.03400096,0.13131086,-0.00670406,0.0
 0606625,-0.00123478,0.03945901,-0.00499551,-0.00440933,0.01330924,-0.0
 3217367,0.06679936,0.00810199,-0.02079336,-0.01689783,-0.02772046,0.06
 770889,0.05438605,-0.02336545,-0.02168938,0.02510246,-0.03159563,0.037
 83738,0.01646766,0.26081170,-0.00869743,-0.00327675,0.01518594,0.02389
 768,-0.06181658,-0.03633944,-0.01009107,0.27165348,0.01210029,0.055689
 40,-0.09383973,0.02789268,-0.08306502,-0.03006843,-0.02567016,0.007198
 15,0.33431610,0.00108829,-0.00523250,-0.00160589,0.00059585,0.00264051
 ,-0.00560893,-0.05534253,0.00887740,0.01302950,0.38141070,0.00063382,0
 .00323020,-0.00173734,-0.00718493,0.00235133,0.00071129,0.01408082,-0.
 07638273,0.00349805,0.06127536,0.22284648,-0.00926865,0.00209854,0.003
 62060,-0.00521611,-0.00422490,0.00329237,0.02304865,0.00796179,-0.0768
 1939,0.11440642,0.13867341,0.78963167,-0.00101379,0.00236046,0.0006525
 7,-0.00018508,-0.00148291,0.00232348,-0.00625705,-0.01193322,-0.030013
 52,-0.14719003,-0.05546627,-0.19231080,0.15118065,-0.00041056,0.000388
 75,0.00046806,0.00141627,-0.00080572,0.00054979,-0.00908868,0.01657040
 ,-0.01108875,-0.04998446,-0.09523679,-0.14726752,0.06060174,0.06873801
 ,0.00149103,0.00047154,-0.00038281,0.00171795,-0.00001211,0.00041453,-
 0.02019549,-0.00951349,0.00200416,-0.16381310,-0.14265207,-0.62765596,
 0.18907844,0.16828305,0.70519470,-0.00179520,-0.00144972,-0.00078058,-
 0.00159093,0.00020662,-0.00061973,-0.01119583,-0.00234460,0.01549456,-
 0.13432708,-0.00202055,0.04966186,0.01754429,-0.00214051,-0.00294090,0
 .47568235,-0.00038875,-0.00058557,0.00031102,0.00030973,-0.00033939,-0
 .00156318,-0.00607115,0.01245512,0.00330365,-0.00428603,-0.07600290,0.
 00768059,0.00192402,0.02090213,-0.01793181,-0.00482004,0.54815479,0.00
 047416,-0.00097728,-0.00187521,0.00028930,0.00015745,-0.00162739,0.000
 21666,-0.00063125,0.01114423,0.03741032,0.00493049,-0.09358305,0.01759
 756,-0.01456321,-0.06552246,0.05647235,0.00185681,0.50500204,0.0002700
 4,0.00005278,-0.00013511,0.00038906,0.00007154,-0.00014689,-0.00047661
 ,-0.00018514,0.00256968,-0.02835184,-0.00622215,0.00320189,0.00037905,
 -0.00023254,-0.00495385,-0.18534969,-0.03128137,-0.03591109,0.49654790
 ,0.00015947,-0.00013507,-0.00006829,-0.00029850,0.00003459,0.00021058,
 -0.00006576,0.00203608,-0.00064025,-0.00156017,0.00167558,0.00146348,0
 .00116927,-0.00225494,-0.00016139,-0.03024705,-0.09171228,-0.00984884,
 -0.02217322,0.57016658,-0.00054002,-0.00027997,0.00071730,-0.00047453,
 0.00038642,0.00015617,0.00232587,-0.00066157,-0.00389588,0.02359120,0.
 00651414,0.00686893,0.00161834,0.00114464,0.00207282,-0.03220958,-0.00
 911958,-0.09225257,-0.01983309,-0.00616847,0.57324120,-0.00123751,-0.0
 0016025,0.00037009,0.00004652,-0.00026413,0.00023617,-0.00267281,0.000
 51937,-0.00120372,0.00865226,-0.01418116,0.01331685,-0.00200207,0.0034
 4135,0.00233362,-0.07828373,0.05407477,-0.06610702,-0.01167568,0.01841
 776,-0.02175101,0.09101445,-0.00022919,0.00025980,-0.00039305,0.000209
 45,-0.00052531,0.00030778,-0.00010598,0.00054788,-0.00008999,0.0018954
 9,0.00015423,-0.00337871,-0.00004057,-0.00093202,-0.00041175,0.0541446
 7,-0.13763166,0.11610185,-0.00406649,0.00657251,-0.00824294,-0.0599816
 8,0.14927188,-0.00042045,-0.00022321,0.00031863,-0.00006375,0.00029723
 ,-0.00022395,0.00026646,-0.00274302,0.00121173,-0.01213628,0.01522143,
 -0.02070915,0.00501106,-0.00252290,-0.00282624,-0.06782912,0.11949447,
 -0.17753473,-0.00174126,0.00365812,-0.00457226,0.07399564,-0.12483939,
 0.19429829,-0.00027478,0.00069835,-0.00008547,-0.00098787,-0.00047398,
 0.00050209,-0.00131612,-0.00220752,-0.00056012,0.00167370,0.02031406,0
 .00542570,-0.00113630,-0.00242707,0.00272811,-0.04610661,-0.00029241,0
 .00016374,-0.00121437,-0.02964402,-0.01215852,-0.00092084,0.00914267,0
 .00380003,0.05385422,-0.00009078,-0.00053988,0.00015859,-0.00072739,0.
 00051725,0.00023905,-0.00126523,0.00066787,-0.00009564,-0.00189898,-0.
 00095996,0.00007624,0.00131619,-0.00054920,0.00046318,-0.00128809,-0.2
 7071496,-0.09475901,-0.00017170,-0.00526970,-0.00201572,0.00082909,-0.
 01885650,-0.00808484,0.00494469,0.29345021,-0.00003504,-0.00020346,-0.
 00009346,-0.00013413,0.00005128,0.00010228,-0.00082254,0.00273786,0.00
 029049,-0.00129837,-0.02563208,-0.01288183,0.00317593,0.00342873,-0.00
 392352,-0.00007002,-0.09908912,-0.07799019,0.00019318,-0.00657117,-0.0
 0309897,-0.00132980,0.02232204,0.00932015,0.00110319,0.10376756,0.0877
 7872,0.00019850,0.00004143,-0.00016433,0.00019514,-0.00003114,-0.00006
 794,-0.00111003,-0.00000854,0.00156670,-0.00371661,-0.00168980,-0.0032
 5341,0.00070166,-0.00001914,-0.00076564,-0.01922334,0.00154046,0.02614
 458,-0.14105348,0.00682097,0.12759664,0.00082427,0.00081456,-0.0000802
 9,0.00114328,-0.00040467,0.00003702,0.15457612,0.00007020,0.00002940,-
 0.00004898,0.00003497,-0.00000597,-0.00003555,-0.00028351,0.00006882,0
 .00045745,-0.00156301,0.00003716,-0.00117141,0.00040464,0.00046546,-0.
 00006779,-0.00582119,-0.00082505,0.00798976,0.00709185,-0.04859596,-0.
 00865942,0.00034490,0.00023987,-0.00031670,0.00029262,0.00014831,0.000
 46827,-0.00570480,0.04692556,0.00004986,-0.00000781,-0.00006569,0.0000
 4658,-0.00001154,-0.00004286,-0.00007167,0.00005822,0.00052924,-0.0026
 9017,-0.00106454,-0.00171508,0.00185428,0.00050309,0.00086799,-0.00849
 188,0.00016746,0.00842580,0.12867259,-0.00836288,-0.21972232,0.0006284
 2,0.00013906,0.00056319,0.00059578,0.00028953,0.00036139,-0.13909490,0
 .01023063,0.23633198,0.00005483,-0.00018730,0.00001591,-0.00013227,0.0
 0014286,-0.00001009,-0.00011497,0.00051393,0.00012344,0.00074812,-0.00
 057677,-0.00155834,0.00010396,0.00040361,0.00127434,-0.00001390,-0.031
 24703,-0.01147768,-0.04719104,-0.00212074,-0.00127760,0.00124068,0.000
 51972,-0.00003204,-0.00584388,-0.00130440,-0.00117519,0.00001885,0.018
 55499,0.00552361,0.05168277,0.00005584,-0.00012907,0.00000737,-0.00001
 954,0.00011111,-0.00002885,-0.00013803,0.00004527,0.00041494,0.0001230
 5,-0.00053212,-0.00220626,0.00126405,0.00106613,0.00116643,-0.00068888
 ,-0.00685872,-0.00203959,-0.00389913,-0.28105174,-0.09036655,-0.000345
 10,0.00064587,-0.00009075,-0.00159505,0.00116678,-0.00044251,0.0004425
 9,0.00046632,0.00054447,0.00506624,0.30273784,0.00003542,-0.00004868,-
 0.00000132,0.00002962,0.00003468,0.00002096,-0.00019493,-0.00002184,0.
 00009239,0.00077128,0.00066383,0.00022850,0.00007048,0.00014194,0.0000
 3340,-0.00042640,-0.00785648,-0.00397332,-0.00169897,-0.09100526,-0.08
 214531,0.00028057,-0.00017353,-0.00007313,-0.00175137,-0.00015680,0.00
 024964,-0.00132886,-0.02420561,-0.00867702,0.00350734,0.10098835,0.085
 23427,-0.00005407,-0.00014815,0.00010408,0.00000932,0.00018351,-0.0001
 2564,0.00004212,-0.00039605,0.00045885,0.00031769,0.00009454,-0.002446
 71,0.00083764,0.00019970,0.00173879,-0.01187088,0.02061655,-0.02224873
 ,-0.08205583,0.05929944,-0.06775053,-0.00546392,-0.00226663,-0.0009601
 7,0.00119076,-0.00021825,0.00014250,0.00760063,-0.01330544,0.01313836,
 -0.00046244,-0.00023466,0.00077772,0.08986586,-0.00001208,0.00001580,0
 .00001691,0.00000209,-0.00000802,0.00000249,0.00007163,-0.00022448,-0.
 00015795,0.00052368,0.00033058,0.00132806,-0.00123441,0.00001584,-0.00
 051757,-0.00342526,0.00685821,-0.00837793,0.06114458,-0.15116724,0.117
 15690,-0.00232026,0.00055133,-0.00050105,0.00060431,0.00070963,-0.0002
 4977,-0.00169417,0.00108213,-0.00249016,0.01037546,-0.01776550,0.02160
 878,-0.06392679,0.15953746,0.00002733,0.00000747,0.00003426,0.00001259
 ,0.00005221,-0.00003928,-0.00026288,0.00000935,0.00017319,0.00081965,-
 0.00030072,-0.00034821,0.00072739,-0.00003818,0.00048016,-0.00333444,0
 .00420775,-0.00586976,-0.06930029,0.11726949,-0.17932177,-0.00131681,-
 0.00096058,0.00046243,0.00004698,-0.00005415,-0.00004936,-0.00980652,0
 .01557906,-0.01663845,0.00509384,-0.00781973,0.00905284,0.07728752,-0.
 12789577,0.19217197,0.00760064,0.00218448,0.00833670,0.00268177,-0.005
 16818,0.00365547,-0.04951171,0.00609206,-0.01178465,-0.00993633,-0.013
 91446,0.00545504,0.00037763,0.00061461,0.00254616,0.00021500,0.0015315
 7,-0.00051311,-0.00002147,0.00023027,-0.00056358,0.00068042,0.00020485
 ,-0.00039626,-0.00003858,0.00001512,0.00036132,0.00024068,0.00007176,-
 0.00000259,0.00006906,0.00003169,0.00006048,-0.00013084,-0.00000116,0.
 00007674,0.08565779,0.00283744,0.00050082,0.00276561,0.00003983,0.0056
 1493,-0.00663798,-0.00438062,-0.05446300,0.00837181,-0.01218925,0.0009
 8359,-0.00513293,0.00176859,-0.00192139,0.00656375,0.00240410,0.000583
 27,0.00159348,0.00040699,-0.00027624,-0.00099822,-0.00016529,-0.000237
 67,0.00022388,0.00012593,0.00007588,-0.00037167,0.00050432,0.00012132,
 0.00006481,-0.00005282,0.00004936,0.00011707,0.00016344,0.00001949,0.0
 0016471,-0.01066727,0.38890557,0.00948576,0.00037631,-0.02626098,-0.00
 257340,0.01857754,-0.00913120,-0.00515953,-0.00646888,-0.03779639,0.01
 685693,0.00660030,0.02163751,-0.00558994,-0.00068050,-0.01510891,-0.00
 406992,-0.00106376,-0.00271971,-0.00065464,-0.00013704,0.00175617,0.00
 026161,-0.00020476,-0.00003550,0.00007301,-0.00045898,-0.00028431,-0.0
 0078804,-0.00018092,-0.00013075,-0.00011821,-0.00014374,-0.00016319,-0
 .00015240,0.00005454,-0.00017030,0.02307669,-0.50998719,0.93210703,-0.
 00255853,-0.00082687,-0.00347178,-0.00023954,0.00181605,-0.00133637,0.
 01631895,-0.00146528,0.00374799,0.00236385,0.00370628,-0.00088972,-0.0
 0053445,-0.00066560,-0.00061866,0.00012929,-0.00049327,0.00019244,0.00
 003310,-0.00007442,0.00009810,-0.00022915,-0.00005655,0.00011288,0.000
 01436,0.00000846,-0.00012484,-0.00003971,-0.00001837,0.00000290,-0.000
 02315,-0.00000624,-0.00001016,0.00004546,-0.00000026,-0.00001851,-0.03
 464833,0.01256955,-0.02054539,0.01752800,-0.00167797,-0.00196842,0.003
 79884,-0.00022361,-0.00052499,0.00214893,0.00408768,-0.00107844,0.0300
 0419,0.00733070,0.00237307,0.00391159,-0.00322343,-0.00051612,-0.00518
 829,-0.00098745,-0.00076831,-0.00051737,-0.00012369,0.00007918,0.00044
 226,-0.00013093,0.00019524,-0.00011709,0.00002275,-0.00010788,0.000068
 66,-0.00025546,-0.00006414,-0.00001979,-0.00001402,-0.00003060,-0.0000
 6076,-0.00010608,-0.00000182,-0.00012314,0.01170316,-0.33043271,0.4882
 0769,-0.01241901,0.32899100,-0.00265596,0.00306451,0.00251631,0.001185
 37,-0.00886356,0.00453906,-0.00256001,0.03605157,-0.04347565,-0.011008
 76,-0.00643443,-0.00966298,0.00519433,0.00150747,0.00963225,0.00176828
 ,0.00136819,0.00094400,0.00022572,0.00006339,-0.00085367,0.00022931,-0
 .00010556,0.00005349,-0.00013187,0.00024782,0.00017419,0.00043824,0.00
 010908,0.00004590,0.00007852,0.00006663,0.00008832,0.00013192,-0.00003
 099,0.00017227,-0.01920047,0.49101639,-0.85136355,0.02028702,-0.518254
 02,0.88206604,0.00073050,0.00313222,-0.00038728,0.00243743,0.00253658,
 0.00457880,-0.02872846,-0.00135870,-0.00271012,-0.00763890,0.00569084,
 -0.00015054,-0.00073229,0.00013184,-0.00028783,0.00055408,0.00003114,0
 .00006342,0.00013558,-0.00021400,-0.00038157,-0.00007277,0.00014640,0.
 00040851,0.00025124,-0.00024522,-0.00011725,0.00027164,0.00003035,-0.0
 0006035,-0.00018185,-0.00004614,0.00001371,0.00007013,-0.00003757,0.00
 010998,0.00384186,0.00256368,0.00052183,-0.00067477,-0.00107628,-0.000
 06960,0.34788808,-0.00013717,-0.00261669,0.00260170,0.00393876,-0.0036
 9642,-0.00721234,-0.00091560,-0.04054850,-0.00823170,0.01274025,0.0058
 7983,0.00569562,-0.00368433,-0.00419804,-0.00533804,-0.00226785,-0.001
 32501,-0.00111539,-0.00041033,0.00021826,0.00115445,-0.00014649,0.0002
 1271,0.00044588,0.00017483,-0.00024842,-0.00008380,-0.00055031,-0.0001
 5745,-0.00004362,-0.00027185,-0.00015764,-0.00025099,0.00005489,-0.000
 09725,-0.00012664,0.00424206,-0.02104828,0.01344747,-0.00155336,0.0091
 4264,-0.00722665,0.00737072,0.31234811,0.00253733,-0.00941432,-0.00062
 880,0.00298270,-0.00030683,-0.00639492,-0.00351037,-0.00238534,-0.0187
 7906,0.00362450,0.00175471,0.00766832,-0.00204872,-0.00205371,-0.00572
 198,-0.00043592,-0.00088887,-0.00046018,-0.00019532,0.00015931,0.00005
 635,0.00006454,0.00015558,-0.00060015,0.00019740,0.00020562,-0.0001232
 0,-0.00009372,-0.00003741,-0.00001937,0.00005915,-0.00004816,0.0000847
 0,-0.00015384,0.00006525,-0.00006033,-0.00050778,0.00806804,-0.0012840
 0,-0.00000068,-0.00130465,-0.00083943,0.00541436,-0.00993179,0.3434615
 8,0.00004237,-0.00016268,-0.00006503,-0.00006932,-0.00011180,-0.000111
 65,0.00066167,0.00015844,-0.00000750,-0.00056194,0.00008135,-0.0000746
 7,0.00040207,0.00005548,0.00026611,0.00009650,-0.00002617,0.00006652,0
 .00001139,-0.00003792,-0.00005822,0.00001041,-0.00003207,-0.00007944,0
 .00000256,0.00004396,-0.00001747,0.00000915,0.00000995,0.00001273,0.00
 005186,0.00001811,0.00003270,-0.00001330,0.00002705,-0.00000449,-0.000
 05297,0.00014734,-0.00034050,0.00002421,-0.00004801,0.00012959,-0.1407
 8815,0.03432775,-0.02667340,0.43291648,-0.00034585,0.00127683,0.000422
 39,-0.00053121,-0.00235014,-0.00077422,0.00875444,-0.00349879,0.002936
 83,-0.00211887,-0.00048777,-0.00051628,0.00135097,0.00029781,0.0008986
 9,0.00029974,-0.00000059,-0.00001538,0.00005128,-0.00005609,-0.0001496
 6,0.00003384,-0.00005592,-0.00001867,0.00004697,0.00012248,0.00003892,
 0.00009439,0.00002331,-0.00000392,0.00007527,0.00004384,0.00006467,-0.
 00000523,0.00003723,0.00001153,-0.00031241,0.00027384,-0.00333564,-0.0
 0000408,-0.00063955,0.00239606,0.05489080,-0.06671250,0.01664888,0.045
 74197,0.53144568,-0.00015435,0.00073034,0.00020741,-0.00019616,-0.0007
 5007,-0.00001665,0.00267381,-0.00165947,0.00185724,-0.00095823,0.00006
 319,-0.00079910,0.00047631,0.00029501,0.00096414,0.00001952,0.00001451
 ,0.00004259,0.00002676,0.00000812,0.00000366,-0.00001057,0.00002122,0.
 00010834,0.00002518,0.00000208,0.00002802,0.00002427,0.00000222,-0.000
 00363,-0.00002667,0.00000274,-0.00002291,0.00002098,-0.00002510,0.0000
 0277,-0.00012105,-0.00018744,-0.00129993,0.00001688,-0.00024954,0.0010
 0106,-0.01988759,0.00853655,-0.05513013,-0.03353212,0.01306342,0.53966
 108,0.00012962,-0.00083378,0.00008950,-0.00029236,0.00042674,-0.000376
 77,0.00330194,0.00311165,-0.00014048,0.00150730,0.00092282,0.00094180,
 -0.00057018,-0.00099059,-0.00075312,-0.00026361,-0.00015213,0.00000555
 ,-0.00001908,0.00002089,0.00005384,-0.00000721,-0.00003409,0.00000380,
 0.00001945,-0.00004071,-0.00004494,-0.00000621,-0.00004581,-0.00002183
 ,-0.00009323,0.00001459,0.00003649,-0.00000173,-0.00000329,-0.00001657
 ,-0.00029396,0.00004145,0.00055833,0.00008280,0.00013557,-0.00053908,-
 0.08968873,-0.04197548,0.02624261,-0.01718527,-0.01710107,0.01144971,0
 .49500369,-0.00067946,0.00303006,0.00035180,0.00039975,-0.00125414,0.0
 0131851,-0.00544721,-0.00881159,0.00128531,-0.00368959,-0.00038832,-0.
 00189974,0.00188427,0.00042327,0.00210692,0.00031274,-0.00005304,0.000
 23223,0.00000851,-0.00019008,-0.00032436,-0.00014664,0.00005519,0.0000
 3892,0.00004265,0.00002910,0.00002151,0.00017026,0.00002402,0.00000714
 ,0.00003207,0.00005048,0.00010882,0.00001993,0.00006791,0.00003651,0.0
 0050612,-0.00039875,-0.00124154,-0.00013301,-0.00039965,0.00159646,-0.
 06111661,-0.10671246,0.04143649,0.00641743,0.00467382,-0.00391645,-0.0
 5829726,0.48488906,-0.00030623,0.00136137,0.00001593,0.00013192,-0.000
 62267,0.00061596,-0.00159895,-0.00368003,0.00140199,-0.00151048,0.0003
 5125,-0.00160662,0.00061728,0.00084100,0.00144648,0.00013649,-0.000086
 83,0.00010092,-0.00000886,-0.00000459,-0.00007107,0.00001471,0.0000714
 2,0.00016029,0.00005153,-0.00004713,0.00004096,0.00004265,0.00000172,0
 .00000250,-0.00009913,0.00004715,-0.00005883,0.00001677,-0.00004246,0.
 00000373,0.00017487,-0.00017625,-0.00089981,-0.00005119,-0.00025655,0.
 00088082,0.02441040,0.02700181,-0.06576081,-0.00507594,-0.00486628,0.0
 0493247,0.03873583,0.03953977,0.52650092,-0.00012031,0.00009834,0.0000
 3569,-0.00028010,0.00007066,0.00012869,0.00207865,0.00102926,0.0013446
 4,0.00012123,-0.00030295,0.00034818,0.00014864,0.00036723,0.00001744,0
 .00008400,0.00005341,0.00005116,0.00001994,0.00000471,-0.00001614,0.00
 002075,-0.00004103,-0.00006237,-0.00005176,0.00001536,0.00000489,-0.00
 001268,-0.00000210,0.00000877,0.00003274,0.00000029,0.00001031,-0.0000
 1523,0.00001652,-0.00001321,-0.00003704,-0.00052493,0.00049900,0.00000
 708,0.00024270,-0.00027298,-0.04983292,-0.00099469,-0.00242782,-0.0011
 1862,-0.00425996,-0.02639507,0.00259033,0.00311186,0.01927720,0.549215
 71,0.00037010,-0.00090968,-0.00060888,0.00116226,-0.00138211,-0.001820
 81,-0.00225720,-0.00589898,-0.00654020,-0.00347663,0.00074153,-0.00121
 713,0.00224111,0.00042451,0.00134715,0.00036964,-0.00036410,0.00000667
 ,0.00000881,-0.00009819,-0.00018527,0.00000929,-0.00004544,-0.00004224
 ,0.00016504,0.00018958,-0.00002153,0.00011124,0.00002811,0.00000588,0.
 00006324,0.00006669,0.00006676,-0.00000463,0.00002596,0.00001983,-0.00
 066785,0.00499876,-0.00547967,0.00017519,-0.00209948,0.00293625,-0.002
 78860,-0.05320064,-0.04382914,0.00164009,0.00133980,0.00983393,0.00063
 845,0.00254088,0.01751168,-0.00379464,0.54729800,0.00001479,-0.0001505
 9,-0.00000033,0.00020103,-0.00014951,-0.00033897,-0.00028121,-0.000571
 59,0.00001233,-0.00001851,0.00035358,0.00058092,0.00070721,-0.00101186
 ,-0.00041717,-0.00010241,0.00009950,-0.00013206,-0.00001164,0.00000617
 ,0.00001518,0.00004443,0.00000824,0.00002864,0.00001519,0.00000034,0.0
 0003298,0.00000271,-0.00000141,-0.00000790,-0.00002662,-0.00000147,-0.
 00001793,0.00000969,-0.00002166,0.00001014,-0.00005665,0.00041700,-0.0
 0080426,-0.00002991,0.00011823,0.00028228,-0.00801820,-0.02018121,-0.1
 5923677,-0.00057258,-0.00231555,-0.00722357,-0.00041464,-0.00300418,-0
 .01184771,-0.01047502,-0.02480044,0.40894854,-0.00000495,0.00002812,-0
 .00004181,-0.00001494,-0.00004798,0.00000910,0.00014538,0.00029389,-0.
 00041263,-0.00029049,-0.00023030,-0.00047391,-0.00001490,0.00061577,0.
 00038472,0.00005272,-0.00003036,0.00005476,0.00000740,-0.00001322,-0.0
 0000651,-0.00001294,-0.00000802,0.00001851,-0.00000641,0.00000508,0.00
 000289,-0.00000029,0.00000528,0.00000647,0.00001105,0.00000940,-0.0000
 0368,0.00000213,0.00000164,-0.00000127,-0.00009495,-0.00008241,0.00082
 484,-0.00001558,0.00024332,-0.00050047,0.00029235,0.00141205,-0.002524
 60,0.00029421,0.00013853,0.00038206,0.00025236,0.00012215,-0.00115800,
 -0.18369811,-0.09937723,0.09599479,0.19687168,0.00000090,-0.00004727,0
 .00008789,-0.00001485,0.00001202,-0.00000286,0.00002364,0.00009617,0.0
 0028695,0.00015753,0.00009132,0.00014201,-0.00002821,-0.00023276,-0.00
 014471,-0.00003168,0.00000433,-0.00000592,-0.00000322,-0.00000259,0.00
 000356,0.00000503,0.00000509,-0.00000129,0.00000391,-0.00000685,-0.000
 00157,-0.00000284,0.00000014,0.,-0.00000323,-0.00000131,-0.00000318,-0
 .00000042,-0.00000142,-0.00000018,0.00013299,-0.00016274,-0.00055128,-
 0.00000078,-0.00013062,0.00024801,0.00477611,0.00125201,-0.00200167,0.
 00016515,-0.00008377,0.00031427,-0.00033228,0.00012871,-0.00128173,-0.
 09902392,-0.11513507,0.06677155,0.10885447,0.12166746,-0.00000542,0.00
 008606,0.00015644,0.00000251,0.00009580,0.00012353,-0.00080456,0.00020
 437,0.00083341,0.00012415,0.00025895,-0.00001445,-0.00019624,0.0000427
 9,-0.00007785,-0.00006697,-0.00003689,-0.00002383,-0.00000712,-0.00000
 451,0.00002992,-0.00001684,0.00001996,0.00004254,0.00001502,-0.0000198
 1,0.00000116,-0.00001090,-0.00000008,-0.00000180,-0.00001608,-0.000004
 49,-0.00001696,0.00000785,-0.00000864,0.00000132,0.00022656,-0.0004568
 7,0.00012894,-0.00000062,-0.00002632,-0.00004730,0.01878822,0.01360934
 ,-0.01093181,-0.00007400,0.00012542,0.00183815,-0.00112430,-0.00189320
 ,-0.00692509,0.10106104,0.07120424,-0.10794782,-0.10402046,-0.07329305
 ,0.11451598,-0.00002125,-0.00003525,-0.00003780,-0.00005575,-0.0000541
 9,-0.00008002,0.00056207,-0.00002396,-0.00015832,-0.00018947,-0.000283
 03,-0.00074911,-0.00012498,0.00048577,0.00080685,0.00004558,-0.0000354
 6,0.00012805,0.00000864,0.00002605,0.00001526,-0.00003055,0.00000540,0
 .00003163,-0.00001947,-0.00000859,-0.00000719,-0.00000675,-0.00000438,
 0.00000248,-0.00000380,-0.00000574,-0.00000186,0.00000383,-0.00000341,
 -0.00000312,-0.00007108,0.00008076,-0.00007752,-0.00001106,-0.00000470
 ,0.00001116,-0.00128302,-0.00181319,-0.00112408,0.00005284,-0.00065719
 ,0.00026893,-0.00029610,0.00029270,0.00025773,-0.04902320,0.02817423,0
 .00553263,0.00326867,-0.02179861,-0.00579978,0.04726407,0.00002429,0.0
 0001470,-0.00008340,0.00011872,-0.00029339,-0.00012197,-0.00011220,-0.
 00027435,-0.00063059,-0.00042415,0.00005630,0.00017406,0.00024147,-0.0
 0006106,-0.00005504,0.00003399,0.00001828,-0.00003920,0.00000417,-0.00
 001069,-0.00002743,0.00000894,0.00000281,-0.00001319,0.00000787,0.0000
 2219,0.00000553,0.00002007,0.00000450,-0.00000370,0.00000481,0.0000082
 8,0.00000732,-0.00000119,0.00000079,0.00000655,-0.00008037,0.00063537,
 -0.00049593,0.00000254,-0.00011668,0.00021603,0.00055844,-0.00472352,0
 .00022748,-0.00024944,0.00074688,0.00020826,-0.00010036,0.00102248,0.0
 0044591,0.02916480,-0.30643523,-0.04472249,0.00295593,-0.01296536,-0.0
 0339112,-0.03162765,0.32891895,0.00007382,-0.00023498,-0.00011542,0.00
 036075,-0.00050381,-0.00053719,-0.00081366,-0.00167210,-0.00130793,-0.
 00161560,0.00024948,-0.00096818,0.00047746,0.00053064,0.00121991,0.000
 17177,-0.00014974,0.00010153,0.00001483,-0.00003211,-0.00006586,-0.000
 01311,-0.00001198,0.00002118,0.00005922,0.00006198,-0.00000620,0.00003
 974,0.00000899,0.00000512,0.00001784,0.00002193,0.00002160,0.00000519,
 0.00000758,0.00000619,-0.00023505,0.00180122,-0.00236306,0.00008312,-0
 .00091436,0.00136004,0.00269603,-0.02450019,-0.00901894,0.00068609,0.0
 0013676,0.00176266,-0.00017807,-0.00019835,0.00213377,0.00648760,-0.05
 392082,-0.04988480,-0.00326877,0.01568408,0.00286451,-0.00587051,0.050
 22611,0.05279295,-0.00000753,0.00002003,0.00003658,-0.00002714,0.00002
 811,0.00004889,0.00005944,-0.00011341,0.00023070,0.00087957,0.00030319
 ,0.00098899,-0.00157670,0.00005817,-0.00037835,-0.00010780,0.00007311,
 -0.00019794,-0.00001903,0.00000851,0.00000672,0.00002869,0.00001193,-0
 .00004691,0.00000045,-0.00002501,-0.00002226,0.00000633,-0.00000644,-0
 .00001123,-0.00000712,-0.00001150,0.00000897,-0.00000375,0.00000472,0.
 00000233,0.00004157,-0.00002775,-0.00049558,-0.00001164,-0.00013594,0.
 00030914,-0.00149979,-0.00057813,-0.00087000,0.00058665,-0.00008458,0.
 00036579,0.00022261,0.00003245,-0.00016387,-0.26476237,0.07585563,-0.0
 8332980,-0.01768918,0.00702239,-0.00840238,-0.00019896,-0.00071537,0.0
 0050697,0.28386545,-0.00006367,-0.00008720,0.00006396,-0.00002512,0.00
 003890,-0.00004931,0.00039109,0.00009925,0.00041102,-0.00071587,-0.000
 51073,-0.00178013,0.00065525,0.00038060,0.00149907,0.00008039,-0.00003
 287,0.00036766,0.00003405,0.00004429,0.00002387,-0.00004977,-0.0000053
 8,0.00008233,-0.00003561,0.00000332,0.00002595,-0.00002539,-0.00001141
 ,0.00001091,-0.00000990,-0.00001420,-0.00001021,0.00001448,-0.00001114
 ,-0.00000949,-0.00022258,-0.00016916,-0.00037607,0.00005021,-0.0000106
 7,0.00017859,-0.00574211,0.00043664,-0.00001762,0.00004283,-0.00010355
 ,-0.00198041,0.00010764,-0.00023130,0.00015332,0.07560336,-0.07155328,
 0.02855298,-0.01495988,0.00466724,-0.00712856,0.02699670,-0.00722507,0
 .01147435,-0.08184643,0.07336195,-0.00012358,0.00003385,0.00007562,-0.
 00015347,-0.00001186,0.00001469,0.00113788,0.00066856,0.00069729,-0.00
 060770,-0.00092998,-0.00244925,0.00012733,0.00148796,0.00176400,0.0001
 2835,-0.00014480,0.00031735,0.00002329,-0.00000550,0.00002416,-0.00006
 910,-0.00002355,0.00007976,-0.00003362,0.00000712,-0.00000610,-0.00003
 116,0.00000441,0.00002468,0.00002455,0.00001307,-0.00000960,0.00001269
 ,0.00000427,-0.00001093,-0.00012511,-0.00055977,0.00057737,-0.00001070
 ,0.00017398,-0.00038210,-0.02346919,0.00811111,-0.00749628,0.00023969,
 -0.00154327,-0.00707811,0.00040701,0.00007753,0.00135686,-0.08977831,0
 .03142176,-0.07407204,0.01520683,-0.00597292,0.00603971,0.00674333,-0.
 00172847,0.00148675,0.09111748,-0.03152137,0.07930472,-0.00001609,-0.0
 0009569,-0.00005339,-0.00007766,-0.00011188,-0.00008329,0.00141114,0.0
 0001790,-0.00029414,-0.00021783,-0.00032032,-0.00011645,0.00016397,0.0
 0014035,0.00012886,0.00008700,0.00002372,0.00004012,0.00000909,-0.0000
 1407,-0.00004438,0.00000948,-0.00001878,-0.00004613,-0.00001024,0.0000
 2300,0.00000159,0.00001252,0.00000634,0.00000570,0.00002724,0.00001059
 ,0.00001856,-0.00000783,0.00001382,0.00000087,-0.00015266,0.00026269,-
 0.00017605,0.00002090,-0.00005739,0.00004146,-0.01472562,-0.01344956,0
 .01152077,-0.18621517,-0.10910081,0.09493951,-0.00544157,0.00272789,-0
 .00235532,0.00138764,-0.00028902,0.00020725,-0.00007745,0.00004191,-0.
 00074557,-0.00004466,0.00004447,0.00000500,0.00016816,0.00033747,0.000
 20733,0.19729793,0.00003700,-0.00003038,0.00000063,0.00004333,0.000082
 06,0.00000294,-0.00067954,0.00011413,-0.00002423,0.00022482,0.00012935
 ,0.00012327,-0.00015292,-0.00009700,-0.00015143,-0.00005579,-0.0000039
 9,-0.00002509,-0.00000489,0.00000679,0.00002750,-0.00000575,0.00000658
 ,0.00000906,-0.00000191,-0.00000685,-0.00000022,-0.00001057,-0.0000047
 0,-0.00000143,-0.00000860,-0.00000489,-0.00000728,0.00000233,-0.000003
 93,-0.00000319,0.00005068,-0.00005866,0.00017357,-0.00000904,0.0000384
 9,-0.00010324,0.00658297,0.00406931,-0.00546008,-0.10338124,-0.1210494
 6,0.06552130,0.00233213,-0.00069520,0.00110082,-0.00057232,0.00005010,
 -0.00034187,-0.00003616,0.00011325,0.00011045,-0.00003557,-0.00005015,
 0.00006812,0.00002950,-0.00006566,-0.00021679,0.11393444,0.13055487,0.
 00002422,-0.00002317,-0.00001651,0.00001260,0.00002826,-0.00006197,-0.
 00022201,-0.00015174,-0.00017353,0.00009442,-0.00001222,0.00011227,-0.
 00005920,-0.00004451,-0.00012877,-0.00002496,0.00000105,-0.00002323,-0
 .00000342,-0.00000188,0.00000985,-0.00000281,-0.00000560,-0.00000992,-
 0.00000203,0.00000484,-0.00000075,-0.00000568,0.00000041,-0.00000025,0
 .00000684,-0.00000059,0.00000183,-0.00000092,0.00000320,-0.00000027,0.
 00000147,-0.00005168,0.00023646,0.00000084,0.00005174,-0.00012358,-0.0
 0548930,-0.00410055,0.00173915,0.09029815,0.06539557,-0.10083589,-0.00
 219336,0.00056294,-0.00049797,0.00052042,-0.00036585,0.00034904,-0.000
 32807,0.00011937,-0.00037818,-0.00003604,-0.00000490,-0.00002155,0.000
 08456,0.00009202,0.00017895,-0.09858385,-0.07305006,0.10772895,-0.0000
 4510,0.00015381,0.00007722,-0.00008201,0.00004396,0.00004180,0.0005912
 5,-0.00062471,0.00061766,-0.00011307,-0.00015126,-0.00035346,0.0000472
 7,0.00015094,0.00029133,-0.00000533,0.00003220,0.00002421,0.00000539,-
 0.00000520,0.00000668,-0.00001047,-0.00000705,0.00002266,-0.00000552,-
 0.00000289,0.00000591,0.00000020,0.00000325,0.00000124,-0.00000205,0.0
 0000296,-0.00000756,0.00000942,-0.00000653,0.00000395,-0.00009488,-0.0
 0013674,-0.00006428,0.00003305,-0.00004988,0.00016157,-0.00193468,-0.0
 0296111,-0.02323116,-0.04540680,-0.00471965,-0.04027089,0.00137146,-0.
 00037609,0.00064059,-0.00629252,0.00248947,-0.00113331,0.00015955,0.00
 015699,0.00024673,0.00004839,-0.00001397,0.00045504,0.00022052,-0.0004
 8059,-0.00208350,0.00401052,0.00297755,0.02353228,0.04856531,0.0000310
 6,-0.00002966,-0.00005624,0.00006328,0.00000405,0.00000592,-0.00060782
 ,0.00019301,-0.00045521,0.00023062,0.00009992,0.00027918,-0.00014230,-
 0.00012290,-0.00024123,-0.00004654,-0.00001136,-0.00003654,-0.00000757
 ,0.00000771,0.00002000,0.00000149,0.00000685,-0.00000244,-0.00000052,-
 0.00000444,0.00000030,-0.00001188,-0.00000240,-0.00000139,-0.00000388,
 -0.00000488,-0.00000452,-0.00000218,-0.00000118,-0.00000224,0.00006097
 ,-0.00001327,0.00025870,-0.00002484,0.00008359,-0.00019403,-0.00052658
 ,-0.00061566,0.00947184,-0.00350089,-0.04663045,-0.02215484,-0.0003947
 4,-0.00002177,-0.00027048,0.00240205,-0.00059909,0.00026121,-0.0000122
 8,-0.00004115,-0.00039730,0.00013267,0.00018297,0.00021770,0.00009119,
 0.00059953,0.00076393,0.00369560,0.00082149,0.01658397,0.00321897,0.04
 709118,-0.00008362,0.00015307,0.00004577,-0.00004980,0.00001251,0.0001
 2771,0.00049289,-0.00021026,0.00043060,-0.00007525,-0.00011519,-0.0001
 9425,0.00004521,0.00010288,0.00016273,0.00001891,0.00001909,0.00002410
 ,0.00000475,-0.00000296,-0.00000690,-0.00000049,-0.00000481,0.00000552
 ,-0.00000578,0.00000082,0.00000324,0.00000221,0.00000185,0.00000245,0.
 00000261,0.00000244,-0.00000107,0.00000228,-0.00000122,0.00000120,-0.0
 0005255,-0.00009308,-0.00009298,0.00002089,-0.00002893,0.00011122,0.00
 093537,-0.00115557,-0.00611034,-0.03357271,-0.02436084,-0.31549828,-0.
 00005152,-0.00014947,0.00029739,-0.00147307,0.00097688,0.00021510,0.00
 007995,-0.00006275,0.00023412,0.00012592,0.00007381,0.00026361,0.00012
 885,-0.00019958,-0.00031682,-0.00296188,-0.00177181,-0.01244545,0.0373
 6791,0.02611272,0.33812928,0.00010831,-0.00052270,-0.00013943,0.000110
 52,0.00077307,0.00017348,-0.00170683,0.00087318,-0.00093303,0.00076606
 ,-0.00005984,0.00010522,-0.00047629,-0.00001449,-0.00027604,-0.0000755
 6,0.00003090,0.00002851,-0.00001495,0.00002180,0.00003913,-0.00000841,
 0.00001305,-0.00001319,-0.00003160,-0.00003869,-0.00001020,-0.00003143
 ,-0.00000634,0.00000423,-0.00001682,-0.00001378,-0.00001820,-0.0000008
 9,-0.00001001,-0.00000337,0.00005555,-0.00001024,0.00107051,0.00000192
 ,0.00020458,-0.00080099,-0.00608717,0.02313289,0.00533571,-0.04340745,
 0.02847460,0.00987388,0.00185464,0.00037177,0.00034871,0.00154333,-0.0
 0052316,0.00110868,-0.00002191,-0.00008698,-0.00004568,-0.00001454,-0.
 00037380,-0.00063018,-0.00003181,-0.00013262,0.00050037,0.00292329,-0.
 02191992,-0.00757445,-0.00073625,-0.00470699,-0.00073235,0.04603016,-0
 .00008903,0.00022234,0.00009620,-0.00009351,-0.00046782,-0.00004578,0.
 00120999,-0.00024955,0.00033376,-0.00052929,-0.00015677,-0.00023183,0.
 00024361,0.00015278,0.00027272,0.00007465,0.00003271,0.00001749,0.0000
 1514,-0.00000505,-0.00003478,0.00000413,-0.00000172,0.00000078,0.00000
 062,0.00001877,0.00000857,0.00002479,0.00000475,-0.00000223,0.00000669
 ,0.00000639,0.00000869,0.00000093,0.00000055,0.00000539,-0.00005583,0.
 00021298,-0.00080645,-0.00000069,-0.00019378,0.00052226,0.00071539,-0.
 00884992,-0.00206438,0.02029522,-0.29828268,-0.06959465,-0.00073362,0.
 00115198,0.00017498,-0.00063776,0.00076166,0.00001686,0.00003094,-0.00
 005713,-0.00000010,0.00016360,0.00007544,0.00055842,-0.00000558,0.0002
 0574,-0.00012002,0.00276205,-0.01368587,-0.00464194,-0.00000017,-0.000
 58852,0.00058846,-0.02403739,0.31864671,-0.00005338,0.00010566,0.00003
 779,0.00001503,0.00020275,0.00023148,-0.00052853,-0.00003173,-0.000002
 92,0.00011513,-0.00001691,-0.00002559,-0.00010812,0.00001643,-0.000049
 80,-0.00000370,0.00001671,0.00000044,-0.00000126,-0.00000101,0.0000040
 1,0.00000076,-0.00000377,-0.00000520,-0.00000749,-0.00000615,-0.000002
 94,-0.00000287,-0.00000161,0.00000039,-0.00000034,-0.00000233,0.000000
 67,0.00000039,0.00000114,-0.00000008,-0.00001636,-0.00026997,0.0004353
 1,0.00002120,0.00009812,-0.00020922,-0.00170398,0.00709088,0.00038057,
 0.00731669,-0.06628421,-0.06355756,0.00059519,-0.00012324,-0.00020488,
 0.00063848,0.00070539,0.00057635,-0.00000814,0.00003222,-0.00007127,-0
 .00027080,-0.00022136,-0.00012626,0.00005484,-0.00009540,0.00014980,-0
 .00264799,0.01441458,0.00371426,0.00330091,-0.03031219,-0.00554699,-0.
 00684324,0.07483859,0.06439069,0.00010899,-0.00014516,-0.00003680,0.00
 003891,0.00001351,-0.00011596,-0.00009909,0.00058917,-0.00023936,0.000
 18864,-0.00018722,-0.00037506,-0.00010900,0.00033458,0.00007606,-0.000
 14066,-0.00003142,-0.00017167,-0.00002259,-0.00005929,0.00006476,-0.00
 012101,0.00024138,0.00011996,0.00003317,-0.00006676,0.00006241,-0.0000
 2721,0.00002104,0.00000496,0.00000757,0.00000572,-0.00005428,0.0000305
 3,-0.00001336,0.00001654,0.00002185,0.00007915,-0.00002118,-0.00001284
 ,0.00003687,-0.00009021,0.00017816,0.00244090,0.01615830,0.00077484,0.
 00069517,-0.00062443,-0.04261136,0.00164147,-0.00675493,-0.00316071,-0
 .00309806,0.00181500,0.00039643,0.00013414,0.00146501,-0.00006906,-0.0
 0008584,-0.00049676,0.00004385,-0.00009475,0.00003783,0.00029351,-0.00
 015430,-0.00013480,-0.00075622,-0.00010795,-0.00004009,-0.00002986,-0.
 00002709,0.00004762,0.04471025,0.00003972,0.00003541,-0.00007283,0.000
 02010,-0.00018833,0.00003491,0.00023898,0.00075292,-0.00060972,0.00012
 201,0.00015014,0.00073120,-0.00007645,-0.00032887,-0.00045832,0.000106
 40,-0.00004985,0.00007723,0.00000120,0.00005611,-0.00003980,0.00033111
 ,-0.00021475,-0.00008729,-0.00001220,0.00003547,-0.00003964,-0.0000088
 7,-0.00000299,0.00000625,-0.00000039,-0.00001236,0.00000128,-0.0000388
 8,-0.00000357,-0.00001800,0.00001765,-0.00007197,0.00012510,-0.0000130
 4,0.00016295,-0.00023783,0.00286124,0.00123982,0.01713907,0.00066655,0
 .00039274,-0.00065000,0.00107326,-0.04493622,-0.01983919,-0.00376054,-
 0.00299827,0.00161199,0.00011070,0.00065452,0.00156530,-0.00011010,0.0
 0015881,-0.00006549,0.00000254,-0.00002654,-0.00040599,0.00021970,-0.0
 0019861,-0.00000311,-0.00029791,0.00018881,-0.00011389,-0.00005243,-0.
 00004490,-0.00007302,0.00071613,0.04645162,-0.00006047,0.00008091,0.00
 013280,-0.00006147,0.00012542,0.00007462,-0.00009485,-0.00049779,0.000
 47930,-0.00007546,-0.00005191,-0.00054019,0.00007796,0.00020075,0.0003
 8591,-0.00006680,-0.00001239,-0.00004896,-0.00001448,-0.00002891,0.000
 01797,-0.00001569,-0.00000494,0.00011772,0.00000210,-0.00003842,0.0000
 3361,-0.00000463,0.00001284,0.00000444,0.00000795,0.00000735,-0.000024
 36,0.00001986,-0.00000877,0.00001301,0.00002402,-0.00010063,0.00000070
 ,-0.00000364,-0.00004440,0.00011856,-0.00192855,-0.00238300,-0.0100761
 4,-0.00001231,-0.00023181,0.00042242,-0.01185957,-0.02440797,-0.321499
 40,0.00193422,0.00205034,-0.00039561,-0.00018886,-0.00014762,-0.000680
 12,-0.00007830,0.00009339,0.00042632,-0.00002957,-0.00005629,0.0001921
 3,-0.00000337,0.00009068,0.00016403,0.00025931,-0.00006109,0.00015771,
 -0.00001733,0.00004039,-0.00005224,0.01143679,0.02539213,0.34370729,-0
 .00006507,-0.00001686,0.00001776,-0.00003291,-0.00005065,-0.00005522,0
 .00045490,0.00025970,0.00011658,-0.00001883,-0.00008910,-0.00067348,-0
 .00003341,0.00072303,0.00032438,0.00018111,0.00005558,0.00006691,0.000
 14774,0.00013463,0.00010596,0.00005145,-0.00002149,-0.00000661,-0.0000
 4401,0.00002546,-0.00002213,-0.00000877,-0.00004633,-0.00000430,-0.000
 09606,-0.00007757,-0.00008420,0.00000762,-0.00006902,-0.00004293,-0.00
 012101,-0.00010167,0.00003009,0.00002435,0.00002201,0.00000415,-0.0140
 1914,0.00441159,-0.00550334,-0.00202174,-0.00314010,0.00213691,-0.2901
 7237,0.05033169,-0.08118998,0.00091559,0.00045263,-0.00013194,0.000170
 40,-0.00013791,-0.00017134,-0.00006341,-0.00001073,0.00004081,0.000018
 23,-0.00004698,0.00052238,-0.00097765,0.00048412,-0.00049460,0.0002565
 9,-0.00002833,-0.00003786,0.00046432,-0.00014430,0.00004360,0.00115503
 ,-0.00036142,0.00102851,0.30900081,-0.00005001,-0.00006861,0.00000925,
 -0.00007235,-0.00001282,-0.00007527,0.00088425,0.00039845,0.00003615,-
 0.00075372,-0.00173456,-0.00088491,0.00061041,0.00022405,0.00086420,0.
 00046590,-0.00000325,0.00022658,0.00000356,0.00000059,-0.00000931,0.00
 001833,-0.00013953,-0.00021425,-0.00010597,0.00007177,-0.00000294,-0.0
 0005401,0.00004233,0.00003030,0.00007279,0.00010890,0.00001545,-0.0000
 3510,0.00002283,-0.00000265,-0.00019345,-0.00008915,0.00020819,0.00004
 293,0.00006778,-0.00014067,-0.01535172,0.00355936,-0.00700328,-0.00278
 809,-0.00313041,0.00250483,0.04460776,-0.05143343,0.01253503,0.0009597
 0,0.00053345,-0.00051640,0.00002483,-0.00017931,-0.00031007,0.00008383
 ,-0.00005879,0.00007325,0.00003959,0.00012746,0.00036665,-0.00135821,0
 .00090376,-0.00032209,0.00034770,-0.00014017,0.00003554,0.00000512,0.0
 0012460,0.00015959,-0.00259367,-0.00079948,-0.00067329,-0.05267365,0.0
 5512727,-0.00002626,0.00008173,-0.00002074,0.00002463,-0.00004472,0.00
 005273,-0.00029841,-0.00024917,-0.00024301,-0.00020317,0.00028780,0.00
 135320,-0.00009557,-0.00020856,-0.00089790,0.00021371,0.00018056,0.000
 13875,0.00006217,0.00006288,-0.00010026,-0.00000390,-0.00022595,-0.000
 35765,-0.00004624,0.00011075,-0.00008871,0.00002154,-0.00002279,-0.000
 00680,0.00007117,-0.00003190,0.00014151,-0.00004528,0.00005832,-0.0000
 1207,0.00002418,0.00000848,0.00005829,-0.00000183,0.00000613,-0.000029
 59,0.01048353,-0.00299665,0.00209313,0.00231167,0.00224545,-0.00143560
 ,-0.07694262,0.01314660,-0.06708421,-0.00065085,-0.00058193,0.00043372
 ,-0.00011721,0.00004074,0.00026056,0.00005668,-0.00004463,-0.00003041,
 0.00010955,0.00023573,-0.00042505,0.00098076,-0.00022383,0.00056283,0.
 00008609,0.00006591,0.00013966,-0.00034205,0.00016588,-0.00010369,-0.0
 3039832,0.00555521,-0.00747901,0.08552509,-0.01663178,0.07109874,-0.00
 023392,0.00069870,0.00002748,0.00009322,-0.00038821,0.00030421,-0.0010
 8396,-0.00183090,0.00024008,-0.00127658,0.00000412,-0.00073062,0.00072
 476,0.00042520,0.00071643,0.00033388,-0.00004104,0.00017357,0.00005300
 ,-0.00003467,-0.00009376,-0.00000327,-0.00003995,-0.00016272,-0.000026
 68,0.00008999,-0.00005629,0.00001957,0.00002627,0.00001907,0.00008863,
 0.00001862,0.00004119,-0.00002375,0.00002809,-0.00000290,0.00004279,-0
 .00016238,-0.00026368,-0.00001779,-0.00007882,0.00037322,0.00105210,-0
 .01706015,-0.00319609,0.00130245,-0.00020191,-0.00069734,-0.05878948,0
 .06034137,0.01493872,0.00053964,0.00057728,-0.00104136,-0.00008638,0.0
 0006102,-0.00035762,0.00015084,0.00034090,0.00029398,-0.00000858,0.000
 08021,-0.00000439,0.00039247,0.00014355,0.00013309,-0.00006583,0.00003
 708,-0.00000957,-0.00039357,0.00043671,0.00018838,-0.00079311,-0.00164
 609,-0.00037552,-0.00529773,0.02772202,0.00919785,0.06284755,-0.000205
 28,0.00085883,0.00012200,0.00008533,-0.00046247,0.00041506,-0.00121382
 ,-0.00189981,0.00027536,-0.00146588,0.00018992,-0.00067698,0.00060245,
 0.00026197,0.00066087,0.00010068,0.00007703,0.00009042,0.00002888,-0.0
 0003042,-0.00008008,-0.00001340,0.00001225,0.00001430,-0.00000491,0.00
 002195,-0.00000461,0.00005316,0.00000572,-0.00000162,-0.00000203,0.000
 00573,0.00001698,0.00000555,0.00000171,0.00001052,0.00012282,0.0000767
 8,-0.00067668,-0.00002852,-0.00022249,0.00062667,0.00325824,-0.0167109
 7,-0.00379459,0.00085065,0.00138220,-0.00024421,0.06747968,-0.28269483
 ,-0.07027404,0.00047751,0.00113819,-0.00050721,-0.00007363,0.00035437,
 -0.00024223,-0.00000574,0.00025370,0.00084142,0.00000473,-0.00000940,-
 0.00009245,0.00030984,0.00028003,0.00018775,0.00001038,-0.00001729,0.0
 0003320,-0.00081932,0.00037892,-0.00015487,-0.00021900,-0.00035317,0.0
 0060884,-0.00003029,-0.00369050,-0.00095207,-0.06970294,0.30070516,0.0
 0004105,-0.00037981,0.00011329,-0.00010922,0.00027829,-0.00014308,0.00
 075519,0.00084788,0.00003585,0.00070230,-0.00000484,0.00003780,-0.0002
 4761,-0.00005266,-0.00017716,-0.00014279,-0.00004347,-0.00013681,-0.00
 002897,-0.00000273,0.00006351,-0.00004952,0.00001845,0.00005177,0.0000
 0926,-0.00002971,0.00002514,-0.00002662,0.00000109,-0.00000533,0.00000
 369,0.00000188,-0.00001078,0.00001287,0.00000070,0.00000815,-0.0000768
 4,-0.00006275,0.00038281,0.00002164,0.00004275,-0.00021774,-0.00186907
 ,0.01117990,0.00102893,-0.00081544,-0.00035273,0.00007937,0.01565553,-
 0.06488611,-0.06347610,-0.00069429,0.00039112,0.00083090,0.00000641,-0
 .00021297,0.00023765,0.00023260,-0.00025406,-0.00030949,0.00000229,0.0
 0001652,-0.00003354,-0.00020923,0.00008801,-0.00012927,-0.00000568,-0.
 00010433,-0.00004184,0.00004079,-0.00030865,0.00016641,0.00820549,-0.0
 2957354,-0.00559274,-0.00160396,0.00966967,0.00197936,-0.01977519,0.07
 371213,0.06527146,-0.00553566,0.00299528,-0.00113953,-0.00686174,-0.00
 472490,0.00222837,-0.02282589,0.00881453,0.01770942,-0.02037928,-0.009
 33385,-0.00649219,-0.00540273,-0.00135037,-0.00460915,-0.00257810,-0.0
 0018326,-0.00167970,-0.00019246,0.00007473,0.00050697,0.00032554,-0.00
 035444,0.00029141,-0.00008464,0.00049604,0.00025004,0.00003133,-0.0000
 2130,-0.00013247,0.00004691,0.00008426,0.00003635,0.00007864,-0.000038
 66,0.00006562,-0.01036437,0.01152570,-0.02709946,0.00364254,-0.0081691
 5,0.01599536,0.00215351,-0.01469078,-0.00374258,-0.00036458,0.00418775
 ,0.00078901,-0.00169495,0.00312378,0.00107578,-0.00103806,0.00439430,-
 0.00001341,0.00019279,-0.00016057,-0.00005110,0.00018143,0.00063850,0.
 00153904,-0.00020564,-0.00028772,-0.00039451,-0.00044716,0.00062287,0.
 00119534,0.00051983,0.00061664,-0.00043184,-0.00214297,0.00060462,-0.0
 0050007,0.00002306,-0.00033598,0.00017390,-0.00006409,-0.00017107,0.00
 006424,0.00095738,0.00109846,-0.00021593,1.09470631,-0.00365162,0.0044
 1304,-0.00322946,0.00481534,0.00338957,0.00280011,0.01330641,-0.068664
 56,0.00082163,-0.01018830,0.01579072,-0.00150690,0.00050559,-0.0033163
 2,-0.00012345,-0.00047474,-0.00232718,-0.00040542,-0.00007390,-0.00010
 889,0.00030450,-0.00018354,-0.00008118,0.00043843,0.00033005,-0.000010
 50,-0.00034444,-0.00005345,-0.00002498,-0.00005109,-0.00003964,-0.0000
 0781,-0.00001005,0.00003885,0.00002159,0.00000627,0.00480249,0.0087834
 8,0.00392016,-0.00096111,-0.00299700,0.00050617,-0.00928449,-0.0103074
 7,-0.00665035,0.00003632,0.00228888,0.00095341,0.00010406,0.00018564,0
 .00028623,0.00028613,0.00100470,0.00014595,0.00004306,-0.00000916,-0.0
 0013527,0.00007982,0.00015851,0.00038328,-0.00005026,0.00004901,0.0000
 8789,0.00033026,-0.00020895,-0.00014567,0.00017341,-0.00041446,0.00013
 767,-0.00102181,0.00060472,-0.00016799,-0.00005911,-0.00007498,0.00007
 102,0.00014897,0.00013603,-0.00004597,0.00019995,0.00012695,0.00004786
 ,0.21515612,0.13593873,0.00601988,0.00371358,0.00124869,0.00342790,-0.
 00398986,0.00233960,0.01119393,-0.00074677,-0.06751940,-0.01370663,-0.
 00255552,0.02020667,0.00463818,0.00145868,-0.00210579,-0.00225786,-0.0
 0066200,-0.00293414,-0.00032215,0.00013779,0.00104639,0.00016872,-0.00
 007371,0.00011308,-0.00002232,0.00014189,0.00014281,-0.00031563,-0.000
 11276,-0.00018476,0.00000666,-0.00006844,-0.00001629,-0.00001293,0.000
 04758,-0.00004321,-0.01427188,0.00715067,-0.01427648,0.00358932,-0.003
 59848,0.00636064,-0.00186380,-0.00734479,0.00206427,-0.00020740,0.0012
 0399,0.00035815,-0.00040277,0.00071309,0.00014324,-0.00032748,0.001757
 02,-0.00001647,0.00011686,-0.00008215,-0.00022099,0.00010335,0.0002727
 9,0.00055666,-0.00005547,-0.00007629,-0.00015205,0.00018367,-0.0000276
 0,0.00024249,0.00013045,0.00042012,-0.00022330,-0.00071024,0.00024084,
 -0.00020176,0.00007254,0.00001572,-0.00005732,0.00000537,-0.00005030,0
 .00002471,0.00025190,0.00027913,-0.00008528,0.30571256,0.06802918,0.18
 209033,0.00326779,-0.00303964,0.00010311,0.00317258,0.00328801,-0.0023
 4124,-0.04903624,-0.01376764,-0.02311504,0.00923753,0.00510672,0.00823
 263,-0.00525235,-0.00284164,-0.00632851,-0.00207756,-0.00091729,-0.001
 35695,-0.00035919,0.00017376,0.00112958,-0.00015258,-0.00004555,-0.000
 00555,-0.00006350,-0.00001508,-0.00005323,-0.00061335,-0.00013939,0.00
 000335,-0.00000171,-0.00006665,-0.00015075,-0.00000731,-0.00001734,-0.
 00016404,0.00404355,-0.00701961,0.01493111,-0.00125333,0.00475250,-0.0
 0873395,-0.00196842,0.00921369,0.00210201,-0.00003436,-0.00225281,-0.0
 0061502,0.00109118,-0.00200496,-0.00059831,0.00073837,-0.00262099,0.00
 000379,-0.00008864,0.00008933,-0.00002008,-0.00005927,-0.00037483,-0.0
 0089261,0.00001550,0.00034530,0.00044802,0.00019672,-0.00043678,-0.000
 74871,-0.00028800,-0.00045632,0.00035063,0.00137019,-0.00023484,0.0003
 5801,-0.00005209,0.00018700,-0.00007376,0.00018804,0.00031228,-0.00006
 113,-0.00049764,-0.00070362,0.00018125,-1.02267695,-0.21431485,-0.3011
 4472,1.06116101,0.00144881,-0.00135740,0.00052204,-0.00125847,-0.00041
 222,-0.00095532,-0.01647350,0.02138927,-0.00369542,0.00393529,-0.00471
 861,0.00175660,-0.00167909,0.00026142,-0.00162911,-0.00048957,0.000524
 22,-0.00029068,-0.00006799,0.00006691,0.00018489,0.00005499,-0.0000130
 1,-0.00010651,-0.00011616,0.00002462,0.00011335,-0.00011322,-0.0000221
 9,0.00000796,0.00001093,-0.00000813,-0.00002943,-0.00000447,-0.0000134
 8,-0.00003199,-0.00133179,-0.00249247,0.00033945,0.00038313,0.00116943
 ,-0.00113055,0.00251108,0.00356813,0.00185992,-0.00038735,-0.00126367,
 -0.00066322,0.00001854,-0.00005181,0.00002477,0.00001095,-0.00042236,-
 0.00006615,-0.00002368,0.00000987,0.00002583,-0.00001477,-0.00006668,-
 0.00014138,0.00001458,0.00005362,0.00005463,-0.00008634,-0.00100591,-0
 .00010555,0.00007217,-0.00002045,0.00001944,0.00044954,-0.00001736,0.0
 0008369,-0.00000624,0.00002558,-0.00002483,-0.00000302,0.00003134,0.00
 000779,-0.00004403,-0.00004002,-0.00002789,-0.21461155,-0.08433814,-0.
 06619338,0.22780124,0.06913951,-0.00115334,-0.00131675,-0.00035287,-0.
 00034591,0.00123850,-0.00096802,-0.02059173,-0.00268821,0.01841178,0.0
 0538672,0.00137586,-0.00526547,-0.00380109,-0.00147055,-0.00164682,-0.
 00021180,-0.00007243,0.00046585,-0.00002645,0.00000843,0.00002324,-0.0
 0005507,-0.00001104,-0.00000885,-0.00000870,-0.00001106,-0.00003526,-0
 .00007517,-0.00000533,0.00005693,0.00000053,0.00001062,-0.00003862,0.0
 0000882,-0.00002670,-0.00002961,0.00390426,-0.00324048,0.00686472,-0.0
 0108121,0.00163058,-0.00314165,-0.00002995,0.00334823,0.00009564,-0.00
 006505,-0.00082011,-0.00036817,0.00028443,-0.00053595,-0.00010173,0.00
 021888,-0.00082102,0.00002730,-0.00003380,0.00003520,0.00002952,-0.000
 02215,-0.00011974,-0.00026751,0.00000069,0.00011243,0.00014803,0.00003
 959,-0.00032277,-0.00019303,-0.00012371,-0.00016741,0.00012678,0.00046
 078,-0.00003947,0.00007223,-0.00002943,0.00003225,-0.00000246,0.000053
 39,0.00010253,-0.00002249,-0.00013215,-0.00019302,0.00004677,-0.301131
 48,-0.06612367,-0.12890048,0.31856008,0.07009106,0.11497425\\-0.000000
 49,-0.00000745,0.00000555,-0.00000120,-0.00000746,0.00001098,-0.000001
 36,-0.00000010,0.00000447,-0.00000034,-0.00000003,0.00000466,0.0000008
 8,0.00000318,0.00000214,-0.00000074,-0.00000585,0.00000426,-0.00000037
 ,-0.00000501,0.00000284,-0.00000008,-0.00000913,0.00000150,-0.00000125
 ,-0.00000773,0.00000901,-0.00000037,-0.00000934,0.00000293,0.00000038,
 -0.00000345,-0.00000170,-0.00000081,-0.00000207,0.00000557,-0.00000239
 ,0.00000807,0.00001196,-0.00000218,0.00001110,0.00001344,0.00000174,0.
 00000013,-0.00000494,0.00000125,0.00000073,-0.00000621,0.00000127,-0.0
 0000157,-0.00000893,0.00000121,0.00000911,-0.00000589,0.00000028,0.000
 01263,-0.00000310,0.00000158,0.00001065,-0.00001024,-0.00000243,0.0000
 1283,-0.00000278,0.00000069,0.00000411,-0.00000436,0.00000104,-0.00000
 345,-0.00000637,0.00000184,0.00000243,-0.00001141,0.00000138,-0.000006
 86,-0.00000863,0.00000138,-0.00000123,-0.00000826,0.00000203,-0.000000
 41,-0.00001339,-0.00000156,-0.00000132,0.00000815,-0.00000138,-0.00000
 252,0.00000875\\\@


 YOU CAN WIPE THE SLATE CLEAN, BUT YOU'LL STILL
 HAVE TO EAT A LITTLE CHALK DUST.
 Job cpu time:       1 days  1 hours  5 minutes 39.0 seconds.
 Elapsed time:       0 days  2 hours  5 minutes 52.9 seconds.
 File lengths (MBytes):  RWF=    815 Int=      0 D2E=      0 Chk=     35 Scr=      1
 Normal termination of Gaussian 16 at Wed Oct  5 00:49:39 2022.
