 Entering Gaussian System, Link 0=g16
 Initial command:
 /mnt/data/applications/G16/g16/l1.exe "/scratch/Gau-835.inp" -scrdir="/scratch/"
 Entering Link 1 = /mnt/data/applications/G16/g16/l1.exe PID=       836.
  
 Copyright (c) 1988,1990,1992,1993,1995,1998,2003,2009,2016,
            Gaussian, Inc.  All Rights Reserved.
  
 This is part of the Gaussian(R) 16 program.  It is based on
 the Gaussian(R) 09 system (copyright 2009, Gaussian, Inc.),
 the Gaussian(R) 03 system (copyright 2003, Gaussian, Inc.),
 the Gaussian(R) 98 system (copyright 1998, Gaussian, Inc.),
 the Gaussian(R) 94 system (copyright 1995, Gaussian, Inc.),
 the Gaussian 92(TM) system (copyright 1992, Gaussian, Inc.),
 the Gaussian 90(TM) system (copyright 1990, Gaussian, Inc.),
 the Gaussian 88(TM) system (copyright 1988, Gaussian, Inc.),
 the Gaussian 86(TM) system (copyright 1986, Carnegie Mellon
 University), and the Gaussian 82(TM) system (copyright 1983,
 Carnegie Mellon University). Gaussian is a federally registered
 trademark of Gaussian, Inc.
  
 This software contains proprietary and confidential information,
 including trade secrets, belonging to Gaussian, Inc.
  
 This software is provided under written license and may be
 used, copied, transmitted, or stored only in accord with that
 written license.
  
 The following legend is applicable only to US Government
 contracts under FAR:
  
                    RESTRICTED RIGHTS LEGEND
  
 Use, reproduction and disclosure by the US Government is
 subject to restrictions as set forth in subparagraphs (a)
 and (c) of the Commercial Computer Software - Restricted
 Rights clause in FAR 52.227-19.
  
 Gaussian, Inc.
 340 Quinnipiac St., Bldg. 40, Wallingford CT 06492
  
  
 ---------------------------------------------------------------
 Warning -- This program may not be used in any manner that
 competes with the business of Gaussian, Inc. or will provide
 assistance to any competitor of Gaussian, Inc.  The licensee
 of this program is prohibited from giving any competitor of
 Gaussian, Inc. access to this program.  By using this program,
 the user acknowledges that Gaussian, Inc. is engaged in the
 business of creating and licensing software in the field of
 computational chemistry and represents and warrants to the
 licensee that it is not a competitor of Gaussian, Inc. and that
 it will not use this program in any manner prohibited above.
 ---------------------------------------------------------------
  

 Cite this work as:
 Gaussian 16, Revision A.03,
 M. J. Frisch, G. W. Trucks, H. B. Schlegel, G. E. Scuseria, 
 M. A. Robb, J. R. Cheeseman, G. Scalmani, V. Barone, 
 G. A. Petersson, H. Nakatsuji, X. Li, M. Caricato, A. V. Marenich, 
 J. Bloino, B. G. Janesko, R. Gomperts, B. Mennucci, H. P. Hratchian, 
 J. V. Ortiz, A. F. Izmaylov, J. L. Sonnenberg, D. Williams-Young, 
 F. Ding, F. Lipparini, F. Egidi, J. Goings, B. Peng, A. Petrone, 
 T. Henderson, D. Ranasinghe, V. G. Zakrzewski, J. Gao, N. Rega, 
 G. Zheng, W. Liang, M. Hada, M. Ehara, K. Toyota, R. Fukuda, 
 J. Hasegawa, M. Ishida, T. Nakajima, Y. Honda, O. Kitao, H. Nakai, 
 T. Vreven, K. Throssell, J. A. Montgomery, Jr., J. E. Peralta, 
 F. Ogliaro, M. J. Bearpark, J. J. Heyd, E. N. Brothers, K. N. Kudin, 
 V. N. Staroverov, T. A. Keith, R. Kobayashi, J. Normand, 
 K. Raghavachari, A. P. Rendell, J. C. Burant, S. S. Iyengar, 
 J. Tomasi, M. Cossi, J. M. Millam, M. Klene, C. Adamo, R. Cammi, 
 J. W. Ochterski, R. L. Martin, K. Morokuma, O. Farkas, 
 J. B. Foresman, and D. J. Fox, Gaussian, Inc., Wallingford CT, 2016.
 
 ******************************************
 Gaussian 16:  AM64L-G16RevA.03 25-Dec-2016
                 4-Oct-2022 
 ******************************************
 %nprocshared=12
 Will use up to   12 processors via shared memory.
 %mem=22GB
 %chk=TS4t.chk
 ----------------------------------------------------------------------
 #p opt=(ts,noeigentest,calcfc,maxstep=2) freq pseudo=read WB97XD gen s
 crf(smd,solvent=toluene)
 ----------------------------------------------------------------------
 1/5=1,8=2,10=4,11=1,18=20,26=3,38=1/1,3;
 2/9=110,12=2,17=6,18=5,40=1/2;
 3/5=7,11=2,16=1,17=8,25=1,30=1,70=32201,71=2,72=13,74=-58,140=1/1,2,3;
 4//1;
 5/5=2,38=5,53=13/2;
 8/6=4,10=90,11=11/1;
 11/6=1,8=1,9=11,15=111,16=1/1,2,10;
 10/6=1,13=1/2;
 6/7=2,8=2,9=2,10=2,28=1/1;
 7/10=1,18=20,25=1/1,2,3,16;
 1/5=1,8=2,10=4,11=1,18=20,26=3/3(2);
 2/9=110/2;
 99//99;
 2/9=110/2;
 3/5=7,6=1,11=2,16=1,17=8,25=1,30=1,70=32205,71=1,72=13,74=-58,82=7/1,2,3;
 4/5=5,16=3,69=1/1;
 5/5=2,38=5,53=13/2;
 7//1,2,3,16;
 1/5=1,8=2,11=1,18=20,26=3/3(-5);
 2/9=110/2;
 6/7=2,8=2,9=2,10=2,19=2,28=1/1;
 99/9=1/99;
 Leave Link    1 at Tue Oct  4 21:18:48 2022, MaxMem=  2952790016 cpu:               1.1 elap:               0.1
 (Enter /mnt/data/applications/G16/g16/l101.exe)
 ---------------------------
 Auto-generated job for TS4t
 ---------------------------
 Symbolic Z-matrix:
 Charge =  0 Multiplicity = 1
 H                     0.95171  -2.04528  -0.28611 
 H                     0.89554  -0.10821  -1.3847 
 Rh                    0.01647  -0.77071  -0.1317 
 C                     1.80017   0.4496   -0.39225 
 O                     1.76102   1.6541   -0.31191 
 C                     3.12044  -0.30023  -0.35222 
 C                     4.34429   0.59798  -0.39502 
 H                     3.11536  -1.01597  -1.17704 
 H                     3.10634  -0.90696   0.55772 
 H                     5.25301  -0.00577  -0.36382 
 H                     4.36494   1.196    -1.30743 
 H                     4.36266   1.28516   0.45122 
 C                     0.10766  -1.08448   1.75892 
 O                     0.20539  -1.29777   2.87222 
 P                    -1.3577    1.18573   0.02081 
 C                    -1.28592   2.28452  -1.42041 
 C                    -0.99528   2.27667   1.42505 
 C                    -3.13459   0.84852   0.20692 
 H                    -3.50007   0.31445  -0.67156 
 H                    -3.70409   1.77289   0.32256 
 H                    -3.29481   0.21664   1.08177 
 H                    -1.59434   1.73175  -2.30884 
 H                    -0.25687   2.61722  -1.55421 
 H                    -1.93666   3.15162  -1.29045 
 H                     0.05326   2.56973   1.38311 
 H                    -1.17234   1.7379    2.35725 
 H                    -1.62357   3.16935   1.40475 
 C                    -1.34545  -1.88502  -0.95223 
 O                    -2.09937  -2.59504  -1.41941 
 
 ITRead=  0  0  0  0  0  0  0  0  0  0  0  0  0  0  0  0  0  0  0  0
 ITRead=  0  0  0  0  0  0  0  0  0
 MicOpt= -1 -1 -1 -1 -1 -1 -1 -1 -1 -1 -1 -1 -1 -1 -1 -1 -1 -1 -1 -1
 MicOpt= -1 -1 -1 -1 -1 -1 -1 -1 -1
 NAtoms=     29 NQM=       29 NQMF=       0 NMMI=      0 NMMIF=      0
                NMic=       0 NMicF=      0.
                    Isotopes and Nuclear Properties:
 (Nuclear quadrupole moments (NQMom) in fm**2, nuclear magnetic moments (NMagM)
  in nuclear magnetons)

  Atom         1           2           3           4           5           6           7           8           9          10
 IAtWgt=           1           1         103          12          16          12          12           1           1           1
 AtmWgt=   1.0078250   1.0078250 102.9048000  12.0000000  15.9949146  12.0000000  12.0000000   1.0078250   1.0078250   1.0078250
 NucSpn=           1           1           1           0           0           0           0           1           1           1
 AtZEff=  -0.0000000  -0.0000000  -0.0000000  -0.0000000  -0.0000000  -0.0000000  -0.0000000  -0.0000000  -0.0000000  -0.0000000
 NQMom=    0.0000000   0.0000000   0.0000000   0.0000000   0.0000000   0.0000000   0.0000000   0.0000000   0.0000000   0.0000000
 NMagM=    2.7928460   2.7928460  -0.0884000   0.0000000   0.0000000   0.0000000   0.0000000   2.7928460   2.7928460   2.7928460
 AtZNuc=   1.0000000   1.0000000  45.0000000   6.0000000   8.0000000   6.0000000   6.0000000   1.0000000   1.0000000   1.0000000

  Atom        11          12          13          14          15          16          17          18          19          20
 IAtWgt=           1           1          12          16          31          12          12          12           1           1
 AtmWgt=   1.0078250   1.0078250  12.0000000  15.9949146  30.9737634  12.0000000  12.0000000  12.0000000   1.0078250   1.0078250
 NucSpn=           1           1           0           0           1           0           0           0           1           1
 AtZEff=  -0.0000000  -0.0000000  -0.0000000  -0.0000000  -0.0000000  -0.0000000  -0.0000000  -0.0000000  -0.0000000  -0.0000000
 NQMom=    0.0000000   0.0000000   0.0000000   0.0000000   0.0000000   0.0000000   0.0000000   0.0000000   0.0000000   0.0000000
 NMagM=    2.7928460   2.7928460   0.0000000   0.0000000   1.1316000   0.0000000   0.0000000   0.0000000   2.7928460   2.7928460
 AtZNuc=   1.0000000   1.0000000   6.0000000   8.0000000  15.0000000   6.0000000   6.0000000   6.0000000   1.0000000   1.0000000

  Atom        21          22          23          24          25          26          27          28          29
 IAtWgt=           1           1           1           1           1           1           1          12          16
 AtmWgt=   1.0078250   1.0078250   1.0078250   1.0078250   1.0078250   1.0078250   1.0078250  12.0000000  15.9949146
 NucSpn=           1           1           1           1           1           1           1           0           0
 AtZEff=  -0.0000000  -0.0000000  -0.0000000  -0.0000000  -0.0000000  -0.0000000  -0.0000000  -0.0000000  -0.0000000
 NQMom=    0.0000000   0.0000000   0.0000000   0.0000000   0.0000000   0.0000000   0.0000000   0.0000000   0.0000000
 NMagM=    2.7928460   2.7928460   2.7928460   2.7928460   2.7928460   2.7928460   2.7928460   0.0000000   0.0000000
 AtZNuc=   1.0000000   1.0000000   1.0000000   1.0000000   1.0000000   1.0000000   1.0000000   6.0000000   8.0000000
 Leave Link  101 at Tue Oct  4 21:18:49 2022, MaxMem=  2952790016 cpu:               5.2 elap:               0.5
 (Enter /mnt/data/applications/G16/g16/l103.exe)

 GradGradGradGradGradGradGradGradGradGradGradGradGradGradGradGradGradGrad
 Berny optimization.
 Initialization pass.
                           ----------------------------
                           !    Initial Parameters    !
                           ! (Angstroms and Degrees)  !
 --------------------------                            --------------------------
 ! Name  Definition              Value          Derivative Info.                !
 --------------------------------------------------------------------------------
 ! R1    R(1,3)                  1.5884         calculate D2E/DX2 analytically  !
 ! R2    R(2,3)                  1.6678         calculate D2E/DX2 analytically  !
 ! R3    R(3,4)                  2.1768         calculate D2E/DX2 analytically  !
 ! R4    R(3,13)                 1.9186         calculate D2E/DX2 analytically  !
 ! R5    R(3,15)                 2.3957         calculate D2E/DX2 analytically  !
 ! R6    R(3,28)                 1.9416         calculate D2E/DX2 analytically  !
 ! R7    R(4,5)                  1.2078         calculate D2E/DX2 analytically  !
 ! R8    R(4,6)                  1.5189         calculate D2E/DX2 analytically  !
 ! R9    R(6,7)                  1.5187         calculate D2E/DX2 analytically  !
 ! R10   R(6,8)                  1.0921         calculate D2E/DX2 analytically  !
 ! R11   R(6,9)                  1.0938         calculate D2E/DX2 analytically  !
 ! R12   R(7,10)                 1.0914         calculate D2E/DX2 analytically  !
 ! R13   R(7,11)                 1.0911         calculate D2E/DX2 analytically  !
 ! R14   R(7,12)                 1.0903         calculate D2E/DX2 analytically  !
 ! R15   R(13,14)                1.1378         calculate D2E/DX2 analytically  !
 ! R16   R(15,16)                1.8137         calculate D2E/DX2 analytically  !
 ! R17   R(15,17)                1.8148         calculate D2E/DX2 analytically  !
 ! R18   R(15,18)                1.8182         calculate D2E/DX2 analytically  !
 ! R19   R(16,22)                1.0909         calculate D2E/DX2 analytically  !
 ! R20   R(16,23)                1.0897         calculate D2E/DX2 analytically  !
 ! R21   R(16,24)                1.0919         calculate D2E/DX2 analytically  !
 ! R22   R(17,25)                1.0895         calculate D2E/DX2 analytically  !
 ! R23   R(17,26)                1.0912         calculate D2E/DX2 analytically  !
 ! R24   R(17,27)                1.0918         calculate D2E/DX2 analytically  !
 ! R25   R(18,19)                1.0911         calculate D2E/DX2 analytically  !
 ! R26   R(18,20)                1.0919         calculate D2E/DX2 analytically  !
 ! R27   R(18,21)                1.091          calculate D2E/DX2 analytically  !
 ! R28   R(28,29)                1.1361         calculate D2E/DX2 analytically  !
 ! A1    A(1,3,2)               86.2944         calculate D2E/DX2 analytically  !
 ! A2    A(1,3,4)               87.4631         calculate D2E/DX2 analytically  !
 ! A3    A(1,3,13)              86.3642         calculate D2E/DX2 analytically  !
 ! A4    A(1,3,28)              84.9172         calculate D2E/DX2 analytically  !
 ! A5    A(2,3,4)               41.8855         calculate D2E/DX2 analytically  !
 ! A6    A(2,3,13)             141.2795         calculate D2E/DX2 analytically  !
 ! A7    A(2,3,15)              91.4762         calculate D2E/DX2 analytically  !
 ! A8    A(2,3,28)             106.2713         calculate D2E/DX2 analytically  !
 ! A9    A(4,3,13)              99.8269         calculate D2E/DX2 analytically  !
 ! A10   A(4,3,15)              91.1358         calculate D2E/DX2 analytically  !
 ! A11   A(4,3,28)             147.7695         calculate D2E/DX2 analytically  !
 ! A12   A(13,3,15)             95.6289         calculate D2E/DX2 analytically  !
 ! A13   A(13,3,28)            110.85           calculate D2E/DX2 analytically  !
 ! A14   A(15,3,28)             95.35           calculate D2E/DX2 analytically  !
 ! A15   A(3,4,5)              121.6368         calculate D2E/DX2 analytically  !
 ! A16   A(3,4,6)              115.617          calculate D2E/DX2 analytically  !
 ! A17   A(5,4,6)              121.2481         calculate D2E/DX2 analytically  !
 ! A18   A(4,6,7)              114.0645         calculate D2E/DX2 analytically  !
 ! A19   A(4,6,8)              107.4334         calculate D2E/DX2 analytically  !
 ! A20   A(4,6,9)              106.5331         calculate D2E/DX2 analytically  !
 ! A21   A(7,6,8)              111.7208         calculate D2E/DX2 analytically  !
 ! A22   A(7,6,9)              111.2185         calculate D2E/DX2 analytically  !
 ! A23   A(8,6,9)              105.3509         calculate D2E/DX2 analytically  !
 ! A24   A(6,7,10)             110.0579         calculate D2E/DX2 analytically  !
 ! A25   A(6,7,11)             111.2831         calculate D2E/DX2 analytically  !
 ! A26   A(6,7,12)             111.3754         calculate D2E/DX2 analytically  !
 ! A27   A(10,7,11)            108.1393         calculate D2E/DX2 analytically  !
 ! A28   A(10,7,12)            108.2061         calculate D2E/DX2 analytically  !
 ! A29   A(11,7,12)            107.6551         calculate D2E/DX2 analytically  !
 ! A30   A(3,15,16)            114.9269         calculate D2E/DX2 analytically  !
 ! A31   A(3,15,17)            115.191          calculate D2E/DX2 analytically  !
 ! A32   A(3,15,18)            114.5595         calculate D2E/DX2 analytically  !
 ! A33   A(16,15,17)           104.0502         calculate D2E/DX2 analytically  !
 ! A34   A(16,15,18)           103.4367         calculate D2E/DX2 analytically  !
 ! A35   A(17,15,18)           103.1477         calculate D2E/DX2 analytically  !
 ! A36   A(15,16,22)           109.2072         calculate D2E/DX2 analytically  !
 ! A37   A(15,16,23)           108.6565         calculate D2E/DX2 analytically  !
 ! A38   A(15,16,24)           111.2809         calculate D2E/DX2 analytically  !
 ! A39   A(22,16,23)           108.7647         calculate D2E/DX2 analytically  !
 ! A40   A(22,16,24)           109.3199         calculate D2E/DX2 analytically  !
 ! A41   A(23,16,24)           109.5695         calculate D2E/DX2 analytically  !
 ! A42   A(15,17,25)           108.9109         calculate D2E/DX2 analytically  !
 ! A43   A(15,17,26)           109.3798         calculate D2E/DX2 analytically  !
 ! A44   A(15,17,27)           111.235          calculate D2E/DX2 analytically  !
 ! A45   A(25,17,26)           108.7757         calculate D2E/DX2 analytically  !
 ! A46   A(25,17,27)           109.4613         calculate D2E/DX2 analytically  !
 ! A47   A(26,17,27)           109.0398         calculate D2E/DX2 analytically  !
 ! A48   A(15,18,19)           109.6169         calculate D2E/DX2 analytically  !
 ! A49   A(15,18,20)           111.3198         calculate D2E/DX2 analytically  !
 ! A50   A(15,18,21)           109.4517         calculate D2E/DX2 analytically  !
 ! A51   A(19,18,20)           108.9625         calculate D2E/DX2 analytically  !
 ! A52   A(19,18,21)           108.236          calculate D2E/DX2 analytically  !
 ! A53   A(20,18,21)           109.1957         calculate D2E/DX2 analytically  !
 ! A54   L(1,3,15,2,-1)        177.7706         calculate D2E/DX2 analytically  !
 ! A55   L(3,13,14,9,-1)       177.7801         calculate D2E/DX2 analytically  !
 ! A56   L(3,28,29,18,-1)      183.3218         calculate D2E/DX2 analytically  !
 ! A57   L(1,3,15,2,-2)        179.6135         calculate D2E/DX2 analytically  !
 ! A58   L(3,13,14,9,-2)       181.4666         calculate D2E/DX2 analytically  !
 ! A59   L(3,28,29,18,-2)      181.688          calculate D2E/DX2 analytically  !
 ! D1    D(1,3,4,5)           -176.5187         calculate D2E/DX2 analytically  !
 ! D2    D(1,3,4,6)            -10.3226         calculate D2E/DX2 analytically  !
 ! D3    D(2,3,4,5)             96.2035         calculate D2E/DX2 analytically  !
 ! D4    D(2,3,4,6)            -97.6004         calculate D2E/DX2 analytically  !
 ! D5    D(13,3,4,5)           -90.6531         calculate D2E/DX2 analytically  !
 ! D6    D(13,3,4,6)            75.543          calculate D2E/DX2 analytically  !
 ! D7    D(15,3,4,5)             5.2588         calculate D2E/DX2 analytically  !
 ! D8    D(15,3,4,6)           171.4549         calculate D2E/DX2 analytically  !
 ! D9    D(28,3,4,5)           107.1647         calculate D2E/DX2 analytically  !
 ! D10   D(28,3,4,6)           -86.6392         calculate D2E/DX2 analytically  !
 ! D11   D(2,3,15,16)           16.4729         calculate D2E/DX2 analytically  !
 ! D12   D(2,3,15,17)         -104.4881         calculate D2E/DX2 analytically  !
 ! D13   D(2,3,15,18)          136.0842         calculate D2E/DX2 analytically  !
 ! D14   D(4,3,15,16)           58.3685         calculate D2E/DX2 analytically  !
 ! D15   D(4,3,15,17)          -62.5925         calculate D2E/DX2 analytically  !
 ! D16   D(4,3,15,18)          177.9798         calculate D2E/DX2 analytically  !
 ! D17   D(13,3,15,16)         158.3592         calculate D2E/DX2 analytically  !
 ! D18   D(13,3,15,17)          37.3981         calculate D2E/DX2 analytically  !
 ! D19   D(13,3,15,18)         -82.0295         calculate D2E/DX2 analytically  !
 ! D20   D(28,3,15,16)         -90.0213         calculate D2E/DX2 analytically  !
 ! D21   D(28,3,15,17)         149.0176         calculate D2E/DX2 analytically  !
 ! D22   D(28,3,15,18)          29.59           calculate D2E/DX2 analytically  !
 ! D23   D(3,4,6,7)           -174.0826         calculate D2E/DX2 analytically  !
 ! D24   D(3,4,6,8)             61.511          calculate D2E/DX2 analytically  !
 ! D25   D(3,4,6,9)            -50.9873         calculate D2E/DX2 analytically  !
 ! D26   D(5,4,6,7)             -7.8282         calculate D2E/DX2 analytically  !
 ! D27   D(5,4,6,8)           -132.2346         calculate D2E/DX2 analytically  !
 ! D28   D(5,4,6,9)            115.2671         calculate D2E/DX2 analytically  !
 ! D29   D(4,6,7,10)          -179.9584         calculate D2E/DX2 analytically  !
 ! D30   D(4,6,7,11)           -60.0961         calculate D2E/DX2 analytically  !
 ! D31   D(4,6,7,12)            60.036          calculate D2E/DX2 analytically  !
 ! D32   D(8,6,7,10)           -57.879          calculate D2E/DX2 analytically  !
 ! D33   D(8,6,7,11)            61.9833         calculate D2E/DX2 analytically  !
 ! D34   D(8,6,7,12)          -177.8846         calculate D2E/DX2 analytically  !
 ! D35   D(9,6,7,10)            59.5307         calculate D2E/DX2 analytically  !
 ! D36   D(9,6,7,11)           179.393          calculate D2E/DX2 analytically  !
 ! D37   D(9,6,7,12)           -60.4749         calculate D2E/DX2 analytically  !
 ! D38   D(3,15,16,22)          58.9148         calculate D2E/DX2 analytically  !
 ! D39   D(3,15,16,23)         -59.5854         calculate D2E/DX2 analytically  !
 ! D40   D(3,15,16,24)         179.6903         calculate D2E/DX2 analytically  !
 ! D41   D(17,15,16,22)       -174.205          calculate D2E/DX2 analytically  !
 ! D42   D(17,15,16,23)         67.2948         calculate D2E/DX2 analytically  !
 ! D43   D(17,15,16,24)        -53.4295         calculate D2E/DX2 analytically  !
 ! D44   D(18,15,16,22)        -66.6954         calculate D2E/DX2 analytically  !
 ! D45   D(18,15,16,23)        174.8043         calculate D2E/DX2 analytically  !
 ! D46   D(18,15,16,24)         54.0801         calculate D2E/DX2 analytically  !
 ! D47   D(3,15,17,25)          56.4782         calculate D2E/DX2 analytically  !
 ! D48   D(3,15,17,26)         -62.2838         calculate D2E/DX2 analytically  !
 ! D49   D(3,15,17,27)         177.2058         calculate D2E/DX2 analytically  !
 ! D50   D(16,15,17,25)        -70.2369         calculate D2E/DX2 analytically  !
 ! D51   D(16,15,17,26)        171.0011         calculate D2E/DX2 analytically  !
 ! D52   D(16,15,17,27)         50.4907         calculate D2E/DX2 analytically  !
 ! D53   D(18,15,17,25)       -177.9614         calculate D2E/DX2 analytically  !
 ! D54   D(18,15,17,26)         63.2765         calculate D2E/DX2 analytically  !
 ! D55   D(18,15,17,27)        -57.2339         calculate D2E/DX2 analytically  !
 ! D56   D(3,15,18,19)         -62.2892         calculate D2E/DX2 analytically  !
 ! D57   D(3,15,18,20)         177.0858         calculate D2E/DX2 analytically  !
 ! D58   D(3,15,18,21)          56.2787         calculate D2E/DX2 analytically  !
 ! D59   D(16,15,18,19)         63.5564         calculate D2E/DX2 analytically  !
 ! D60   D(16,15,18,20)        -57.0686         calculate D2E/DX2 analytically  !
 ! D61   D(16,15,18,21)       -177.8757         calculate D2E/DX2 analytically  !
 ! D62   D(17,15,18,19)        171.744          calculate D2E/DX2 analytically  !
 ! D63   D(17,15,18,20)         51.119          calculate D2E/DX2 analytically  !
 ! D64   D(17,15,18,21)        -69.6882         calculate D2E/DX2 analytically  !
 --------------------------------------------------------------------------------
 Trust Radius=2.00D-02 FncErr=1.00D-07 GrdErr=1.00D-06 EigMax=2.50D+02 EigMin=1.00D-04
 Number of steps in this run=    161 maximum allowed number of steps=    174.
 Search for a saddle point of order  1.
 GradGradGradGradGradGradGradGradGradGradGradGradGradGradGradGradGradGrad

 Leave Link  103 at Tue Oct  4 21:18:49 2022, MaxMem=  2952790016 cpu:               0.1 elap:               0.0
 (Enter /mnt/data/applications/G16/g16/l202.exe)
                          Input orientation:                          
 ---------------------------------------------------------------------
 Center     Atomic      Atomic             Coordinates (Angstroms)
 Number     Number       Type             X           Y           Z
 ---------------------------------------------------------------------
      1          1           0        0.951705   -2.045277   -0.286109
      2          1           0        0.895539   -0.108212   -1.384699
      3         45           0        0.016470   -0.770714   -0.131695
      4          6           0        1.800170    0.449598   -0.392246
      5          8           0        1.761023    1.654098   -0.311912
      6          6           0        3.120441   -0.300234   -0.352215
      7          6           0        4.344292    0.597982   -0.395021
      8          1           0        3.115358   -1.015968   -1.177041
      9          1           0        3.106335   -0.906962    0.557720
     10          1           0        5.253008   -0.005771   -0.363817
     11          1           0        4.364943    1.196000   -1.307429
     12          1           0        4.362662    1.285162    0.451220
     13          6           0        0.107663   -1.084476    1.758918
     14          8           0        0.205389   -1.297765    2.872221
     15         15           0       -1.357698    1.185727    0.020813
     16          6           0       -1.285923    2.284518   -1.420406
     17          6           0       -0.995280    2.276672    1.425053
     18          6           0       -3.134592    0.848518    0.206917
     19          1           0       -3.500073    0.314446   -0.671563
     20          1           0       -3.704091    1.772887    0.322560
     21          1           0       -3.294807    0.216643    1.081774
     22          1           0       -1.594336    1.731745   -2.308840
     23          1           0       -0.256868    2.617221   -1.554210
     24          1           0       -1.936663    3.151615   -1.290453
     25          1           0        0.053258    2.569734    1.383107
     26          1           0       -1.172338    1.737895    2.357254
     27          1           0       -1.623568    3.169348    1.404746
     28          6           0       -1.345453   -1.885016   -0.952230
     29          8           0       -2.099367   -2.595040   -1.419406
 ---------------------------------------------------------------------
                    Distance matrix (angstroms):
                    1          2          3          4          5
     1  H    0.000000
     2  H    2.227617   0.000000
     3  Rh   1.588401   1.667840   0.000000
     4  C    2.637339   1.454122   2.176840   0.000000
     5  O    3.786956   2.237336   2.992600   1.207811   0.000000
     6  C    2.784414   2.460302   3.147160   1.518870   2.380978
     7  C    4.302130   3.656784   4.546725   2.548447   2.792054
     8  H    2.556292   2.407226   3.279635   2.119789   3.116396
     9  H    2.578806   3.049363   3.168773   2.109208   3.020787
    10  H    4.760970   4.476632   5.297202   3.482852   3.866758
    11  H    4.816551   3.707250   4.915235   2.823603   2.825121
    12  H    4.823910   4.163296   4.843119   2.824176   2.736240
    13  C    2.411987   3.384696   1.918640   3.137749   3.810738
    14  O    3.330287   4.473557   3.055648   4.031544   4.612179
    15  P    3.983332   2.954119   2.395675   3.268736   3.171198
    16  C    5.004072   3.238087   3.562506   3.734704   3.303039
    17  C    5.039650   4.142170   3.568426   3.802015   3.316904
    18  C    5.031396   4.437401   3.558899   4.986984   4.988506
    19  H    5.053236   4.473098   3.719557   5.309318   5.440877
    20  H    6.051883   5.254509   4.529771   5.706043   5.503102
    21  H    5.002025   4.873194   3.662231   5.309029   5.437835
    22  H    4.983940   3.230937   3.687405   4.103645   3.905405
    23  H    4.980724   2.963910   3.684612   3.206268   2.557889
    24  H    6.029848   4.319343   4.532341   4.698041   4.107673
    25  H    4.989170   3.942281   3.668047   3.270865   2.574479
    26  H    5.080484   4.656870   3.728438   4.249149   3.966872
    27  H    6.056677   4.986913   4.535908   4.727389   4.086362
    28  C    2.397152   2.892422   1.941592   3.957139   4.752423
    29  O    3.300855   3.892940   3.076220   5.052847   5.846736
                    6          7          8          9         10
     6  C    0.000000
     7  C    1.518695   0.000000
     8  H    1.092080   2.174090   0.000000
     9  H    1.093755   2.169126   1.738206   0.000000
    10  H    2.152832   1.091447   2.500276   2.503913   0.000000
    11  H    2.167933   1.091119   2.543868   3.079825   1.767291
    12  H    2.168433   1.090265   3.082564   2.528855   1.767345
    13  C    3.761482   5.041740   4.203662   3.235185   5.669584
    14  O    4.459774   5.603503   4.994382   3.731639   6.133486
    15  P    4.732965   5.747265   5.127431   4.959356   6.728227
    16  C    5.219006   5.966166   5.506697   5.778448   7.008525
    17  C    5.170908   5.885720   5.874497   5.264127   6.888447
    18  C    6.384176   7.507250   6.667348   6.492607   8.450289
    19  H    6.656652   7.854357   6.766789   6.829905   8.764341
    20  H    7.164314   8.165280   7.518737   7.322485   9.157749
    21  H    6.593853   7.789877   6.907372   6.520103   8.672044
    22  H    5.494219   6.341563   5.568852   6.105428   7.327223
    23  H    4.621964   5.156716   4.971341   5.309543   6.217383
    24  H    6.194340   6.839096   6.550155   6.731985   7.906903
    25  H    4.544851   5.046040   5.365452   4.699996   6.059898
    26  H    5.470205   6.269579   6.201559   5.342343   7.192334
    27  H    6.134373   6.742880   6.829342   6.301249   7.777949
    28  C    4.776585   6.232893   4.550233   4.801558   6.886035
    29  O    5.800985   7.263986   5.453950   5.818760   7.866130
                   11         12         13         14         15
    11  H    0.000000
    12  H    1.760909   0.000000
    13  C    5.720794   5.042844   0.000000
    14  O    6.402361   5.460373   1.137755   0.000000
    15  P    5.874773   5.737391   3.212805   4.091638   0.000000
    16  C    5.755860   6.033922   4.837386   5.786485   1.813727
    17  C    6.112798   5.535249   3.553205   4.038874   1.814772
    18  C    7.658787   7.513931   4.081347   4.781825   1.818158
    19  H    7.939769   8.001596   4.569462   5.374763   2.414184
    20  H    8.252210   8.082508   4.975652   5.586923   2.437492
    21  H    8.083267   7.757330   3.705164   4.213135   2.411878
    22  H    6.066535   6.580516   5.232070   6.265807   2.404458
    23  H    4.841684   5.209241   4.981191   5.927401   2.396184
    24  H    6.598102   6.796953   5.605569   6.458578   2.432968
    25  H    5.264671   4.592331   3.673887   4.147066   2.400441
    26  H    6.662209   5.871470   3.156293   3.373211   2.407946
    27  H    6.863837   6.347781   4.606258   5.045163   2.433251
    28  C    6.498265   6.678494   3.178480   4.168501   3.221246
    29  O    7.494787   7.766146   4.153857   5.041119   4.113211
                   16         17         18         19         20
    16  C    0.000000
    17  C    2.860275   0.000000
    18  C    2.850939   2.846074   0.000000
    19  H    3.056863   3.810527   1.091117   0.000000
    20  H    3.024439   2.967650   1.091861   1.776782   0.000000
    21  H    3.817411   3.106346   1.091013   1.768019   1.779274
    22  H    1.090867   3.820703   3.079206   2.884657   3.372985
    23  H    1.089747   3.088241   3.809353   4.074336   4.014787
    24  H    1.091883   3.004280   2.996899   3.298000   2.761612
    25  H    3.120006   1.089531   3.808989   4.683391   3.984645
    26  H    3.818693   1.091159   3.043909   4.076554   3.248227
    27  H    2.979666   1.091801   3.017323   3.997849   2.729433
    28  C    4.196159   4.805595   3.466533   3.091730   4.535253
    29  O    4.946896   5.748350   3.946481   3.314567   4.968739
                   21         22         23         24         25
    21  H    0.000000
    22  H    4.084532   0.000000
    23  H    4.684043   1.772669   0.000000
    24  H    4.010745   1.780542   1.782374   0.000000
    25  H    4.103337   4.128833   2.954025   3.383237   0.000000
    26  H    2.906188   4.685142   4.112280   3.986046   1.772852
    27  H    3.408199   3.982245   3.305773   2.713382   1.780941
    28  C    3.514843   3.870826   4.670924   5.082477   5.220631
    29  O    3.948486   4.446034   5.529976   5.750404   6.258016
                   26         27         28         29
    26  H    0.000000
    27  H    1.777621   0.000000
    28  C    4.910004   5.583841   0.000000
    29  O    5.822102   6.436644   1.136122   0.000000
 Stoichiometry    C8H16O3PRh
 Framework group  C1[X(C8H16O3PRh)]
 Deg. of freedom    81
 Full point group                 C1      NOp   1
 Largest Abelian subgroup         C1      NOp   1
 Largest concise Abelian subgroup C1      NOp   1
                         Standard orientation:                         
 ---------------------------------------------------------------------
 Center     Atomic      Atomic             Coordinates (Angstroms)
 Number     Number       Type             X           Y           Z
 ---------------------------------------------------------------------
      1          1           0        0.951705   -2.045277   -0.286109
      2          1           0        0.895539   -0.108212   -1.384699
      3         45           0        0.016470   -0.770714   -0.131695
      4          6           0        1.800170    0.449598   -0.392246
      5          8           0        1.761023    1.654098   -0.311912
      6          6           0        3.120441   -0.300234   -0.352215
      7          6           0        4.344292    0.597982   -0.395021
      8          1           0        3.115358   -1.015968   -1.177041
      9          1           0        3.106335   -0.906962    0.557720
     10          1           0        5.253008   -0.005771   -0.363817
     11          1           0        4.364943    1.196000   -1.307429
     12          1           0        4.362662    1.285162    0.451220
     13          6           0        0.107663   -1.084476    1.758918
     14          8           0        0.205389   -1.297765    2.872221
     15         15           0       -1.357698    1.185727    0.020813
     16          6           0       -1.285923    2.284518   -1.420406
     17          6           0       -0.995280    2.276672    1.425053
     18          6           0       -3.134592    0.848518    0.206917
     19          1           0       -3.500073    0.314446   -0.671563
     20          1           0       -3.704091    1.772887    0.322560
     21          1           0       -3.294807    0.216643    1.081774
     22          1           0       -1.594336    1.731745   -2.308840
     23          1           0       -0.256868    2.617221   -1.554210
     24          1           0       -1.936663    3.151615   -1.290453
     25          1           0        0.053258    2.569734    1.383107
     26          1           0       -1.172338    1.737895    2.357254
     27          1           0       -1.623568    3.169348    1.404746
     28          6           0       -1.345453   -1.885016   -0.952230
     29          8           0       -2.099367   -2.595040   -1.419406
 ---------------------------------------------------------------------
 Rotational constants (GHZ):           0.6115405           0.4341788           0.3615011
 Leave Link  202 at Tue Oct  4 21:18:49 2022, MaxMem=  2952790016 cpu:               0.1 elap:               0.0
 (Enter /mnt/data/applications/G16/g16/l301.exe)
 General basis read from cards:  (5D, 7F)
 Centers:       3
 SDD
 ****
 Centers:       5     14     29      4      6      7     13     16     17     18
 Centers:      28      1      2      8      9     10     11     12     19     20
 Centers:      21     22     23     24     25     26     27     15
 def2tzvp
 ****
 ======================================================================================================
                                       Pseudopotential Parameters
 ======================================================================================================
  Center     Atomic      Valence      Angular      Power
  Number     Number     Electrons     Momentum     of R      Exponent        Coefficient   SO-Coeffient
 ======================================================================================================
    1          1
                                   No pseudopotential on this center.
    2          1
                                   No pseudopotential on this center.
    3         45           17
                                      G and up 
                                                     2        1.0000000        0.00000000    0.00000000
                                      S - G
                                                     2       11.7200000      225.34775400    0.00000000
                                                     2        5.8200000       32.82318900    0.00000000
                                      P - G
                                                     2       10.4200000      158.70941200    0.00000000
                                                     2        5.4500000       26.44410000    0.00000000
                                      D - G
                                                     2        8.8200000       62.75862600    0.00000000
                                                     2        3.8700000       10.97871900    0.00000000
                                      F - G
                                                     2       12.3100000      -30.09345600    0.00000000
                                                     2        6.1600000       -5.21848200    0.00000000
    4          6
                                   No pseudopotential on this center.
    5          8
                                   No pseudopotential on this center.
    6          6
                                   No pseudopotential on this center.
    7          6
                                   No pseudopotential on this center.
    8          1
                                   No pseudopotential on this center.
    9          1
                                   No pseudopotential on this center.
   10          1
                                   No pseudopotential on this center.
   11          1
                                   No pseudopotential on this center.
   12          1
                                   No pseudopotential on this center.
   13          6
                                   No pseudopotential on this center.
   14          8
                                   No pseudopotential on this center.
   15         15
                                   No pseudopotential on this center.
   16          6
                                   No pseudopotential on this center.
   17          6
                                   No pseudopotential on this center.
   18          6
                                   No pseudopotential on this center.
   19          1
                                   No pseudopotential on this center.
   20          1
                                   No pseudopotential on this center.
   21          1
                                   No pseudopotential on this center.
   22          1
                                   No pseudopotential on this center.
   23          1
                                   No pseudopotential on this center.
   24          1
                                   No pseudopotential on this center.
   25          1
                                   No pseudopotential on this center.
   26          1
                                   No pseudopotential on this center.
   27          1
                                   No pseudopotential on this center.
   28          6
                                   No pseudopotential on this center.
   29          8
                                   No pseudopotential on this center.
 ======================================================================================================
 Ernie: Thresh=  0.10000D-02 Tol=  0.10000D-05 Strict=F.
 There are   573 symmetry adapted cartesian basis functions of A   symmetry.
 There are   510 symmetry adapted basis functions of A   symmetry.
   510 basis functions,   823 primitive gaussians,   573 cartesian basis functions
    60 alpha electrons       60 beta electrons
       nuclear repulsion energy      1111.2482922521 Hartrees.
 IExCor= 4639 DFT=T Ex+Corr=wB97XD ExCW=0 ScaHFX=  1.000000
 ScaDFX=  1.000000  1.000000  1.000000  1.000000 ScalE2=  1.000000  1.000000
 IRadAn=      5 IRanWt=     -1 IRanGd=            0 ICorTp=0 IEmpDi=121
 HFx  wShort=  0.000000 wLong=  0.200000 cFull=  0.222036 cShort=  0.000000 cLong=  0.777964
 DFx  wShort=  0.000000 wLong=  0.200000 cFull=  0.000000 cShort=  0.000000 cLong=  1.000000
 NAtoms=   29 NActive=   29 NUniq=   29 SFac= 1.00D+00 NAtFMM=   60 NAOKFM=F Big=F
 Integral buffers will be    131072 words long.
 Raffenetti 2 integral format.
 Two-electron integral symmetry is turned on.
 R6Disp:  Grimme-D2 Dispersion energy=       -0.0242746804 Hartrees.
 Nuclear repulsion after empirical dispersion term =     1111.2240175717 Hartrees.
 Force inversion solution in PCM.
 ------------------------------------------------------------------------------
 Polarizable Continuum Model (PCM)
 =================================
 Model                : PCM.
 Atomic radii         : SMD-Coulomb.
 Polarization charges : Total charges.
 Charge compensation  : None.
 Solution method      : Matrix inversion.
 Cavity type          : VdW (van der Waals Surface) (Alpha=1.000).
 Cavity algorithm     : GePol (No added spheres)
                        Default sphere list used, NSphG=   29.
                        Lebedev-Laikov grids with approx.  5.0 points / Ang**2.
                        Smoothing algorithm: York/Karplus (Gamma=1.0000).
                        Polarization charges: spherical gaussians, with
                                              point-specific exponents (IZeta= 3).
                        Self-potential: point-specific (ISelfS= 7).
                        Self-field    : sphere-specific E.n sum rule (ISelfD= 2).
 1st derivatives      : Analytical E(r).r(x)/FMM algorithm (CHGder, D1EAlg=3).
                        Cavity 1st derivative terms included.
 2nd derivatives      : Analytical E(r).r(xy)/FMM algorithm (CHGder, D2EAlg=3).
                        Cavity 2nd derivative terms included.
 Solvent              : Toluene, Eps=   2.374100 Eps(inf)=   2.238315
 ------------------------------------------------------------------------------
 GePol: Number of generator spheres                  =      29
 GePol: Total number of spheres                      =      29
 GePol: Number of exposed spheres                    =      29 (100.00%)
 GePol: Number of points                             =    2606
 GePol: Average weight of points                     =       0.12
 GePol: Minimum weight of points                     =   0.36D-11
 GePol: Maximum weight of points                     =    0.20337
 GePol: Number of points with low weight             =     136
 GePol: Fraction of low-weight points (<1% of avg)   =       5.22%
 GePol: Cavity surface area                          =    309.903 Ang**2
 GePol: Cavity volume                                =    292.133 Ang**3
 ------------------------------------------------------------------------------
 Atomic radii for non-electrostatic terms: SMD-CDS.
 ------------------------------------------------------------------------------
 PCM non-electrostatic energy =        -0.0002792181 Hartrees.
 Nuclear repulsion after PCM non-electrostatic terms =     1111.2237383536 Hartrees.
 Leave Link  301 at Tue Oct  4 21:18:49 2022, MaxMem=  2952790016 cpu:               2.5 elap:               0.2
 (Enter /mnt/data/applications/G16/g16/l302.exe)
 NPDir=0 NMtPBC=     1 NCelOv=     1 NCel=       1 NClECP=     1 NCelD=      1
         NCelK=      1 NCelE2=     1 NClLst=     1 CellRange=     0.0.
 One-electron integrals computed using PRISM.
 One-electron integral symmetry used in STVInt
   1 Symmetry operations used in ECPInt.
 ECPInt:  NShTT=   22578 NPrTT=   66767 LenC2=   20894 LenP2D=   46062.
 LDataN:  DoStor=T MaxTD1= 7 Len=  274
 NBasis=   510 RedAO= T EigKep=  1.43D-04  NBF=   510
 NBsUse=   510 1.00D-06 EigRej= -1.00D+00 NBFU=   510
 Precomputing XC quadrature grid using
 IXCGrd= 4 IRadAn=           5 IRanWt=          -1 IRanGd=           0 AccXCQ= 0.00D+00.
 Defaulting to unpruned grid for atomic number  45.
 Generated NRdTot=       0 NPtTot=           0 NUsed=           0 NTot=          32
 NSgBfM=   568   568   568   568   568 MxSgAt=    29 MxSgA2=    29.
 Leave Link  302 at Tue Oct  4 21:18:51 2022, MaxMem=  2952790016 cpu:              22.5 elap:               1.9
 (Enter /mnt/data/applications/G16/g16/l303.exe)
 DipDrv:  MaxL=1.
 Leave Link  303 at Tue Oct  4 21:18:51 2022, MaxMem=  2952790016 cpu:               1.2 elap:               0.1
 (Enter /mnt/data/applications/G16/g16/l401.exe)
 ExpMin= 1.60D-02 ExpMax= 5.24D+04 ExpMxC= 1.79D+03 IAcc=3 IRadAn=         5 AccDes= 0.00D+00
 Harris functional with IExCor= 4639 and IRadAn=       5 diagonalized for initial guess.
 HarFok:  IExCor= 4639 AccDes= 0.00D+00 IRadAn=         5 IDoV= 1 UseB2=F ITyADJ=14
 ICtDFT=  3500011 ScaDFX=  1.000000  1.000000  1.000000  1.000000
 Defaulting to unpruned grid for atomic number  45.
 FoFCou: FMM=F IPFlag=           0 FMFlag=      100000 FMFlg1=           0
         NFxFlg=           0 DoJE=T BraDBF=F KetDBF=T FulRan=T
         wScrn=  0.000000 ICntrl=       500 IOpCl=  0 I1Cent=   200000004 NGrid=           0
         NMat0=    1 NMatS0=      1 NMatT0=    0 NMatD0=    1 NMtDS0=    0 NMtDT0=    0
 Petite list used in FoFCou.
 Harris En= -959.565890600762    
 JPrj=0 DoOrth=F DoCkMO=F.
 Leave Link  401 at Tue Oct  4 21:19:00 2022, MaxMem=  2952790016 cpu:             104.6 elap:               8.8
 (Enter /mnt/data/applications/G16/g16/l502.exe)
 Integral symmetry usage will be decided dynamically.
 Closed shell SCF:
 Using DIIS extrapolation, IDIIS=  1040.
 NGot=  2952790016 LenX=  2952121135 LenY=  2951792233
 Requested convergence on RMS density matrix=1.00D-08 within 128 cycles.
 Requested convergence on MAX density matrix=1.00D-06.
 Requested convergence on             energy=1.00D-06.
 No special actions if energy rises.
 Fock matrices will be formed incrementally for  20 cycles.

 Cycle   1  Pass 1  IDiag  1:
 FoFJK:  IHMeth= 1 ICntrl=       0 DoSepK=T KAlg= 0 I1Cent=           0 FoldK=F
 IRaf=         1 NMat=       1 IRICut=       1 DoRegI=T DoRafI=F ISym2E= 0 IDoP0=0 IntGTp=1.
 FoFCou: FMM=F IPFlag=           0 FMFlag=      100000 FMFlg1=           0
         NFxFlg=           0 DoJE=T BraDBF=F KetDBF=F FulRan=T
         wScrn=  0.000000 ICntrl=       500 IOpCl=  0 I1Cent=           0 NGrid=           0
         NMat0=    1 NMatS0=      1 NMatT0=    0 NMatD0=    1 NMtDS0=    0 NMtDT0=    0
 Symmetry not used in FoFCou.
 Defaulting to unpruned grid for atomic number  45.
 Defaulting to unpruned grid for atomic number  45.
 Defaulting to unpruned grid for atomic number  45.
 Defaulting to unpruned grid for atomic number  45.
 Defaulting to unpruned grid for atomic number  45.
 Defaulting to unpruned grid for atomic number  45.
 Defaulting to unpruned grid for atomic number  45.
 Defaulting to unpruned grid for atomic number  45.
 Defaulting to unpruned grid for atomic number  45.
 Defaulting to unpruned grid for atomic number  45.
 Defaulting to unpruned grid for atomic number  45.
 Defaulting to unpruned grid for atomic number  45.
 Inv3:  Mode=1 IEnd=    20373708.
 Iteration    1 A*A^-1 deviation from unit magnitude is 2.44D-15 for    112.
 Iteration    1 A*A^-1 deviation from orthogonality  is 2.07D-15 for    748    388.
 Iteration    1 A^-1*A deviation from unit magnitude is 2.44D-15 for    199.
 Iteration    1 A^-1*A deviation from orthogonality  is 1.42D-15 for   1382    315.
 E= -990.324354817265    
 DIIS: error= 7.39D-02 at cycle   1 NSaved=   1.
 NSaved= 1 IEnMin= 1 EnMin= -990.324354817265     IErMin= 1 ErrMin= 7.39D-02
 ErrMax= 7.39D-02  0.00D+00 EMaxC= 1.00D-01 BMatC= 3.68D+00 BMatP= 3.68D+00
 IDIUse=3 WtCom= 2.61D-01 WtEn= 7.39D-01
 Coeff-Com:  0.100D+01
 Coeff-En:   0.100D+01
 Coeff:      0.100D+01
 Gap=     0.717 Goal=   None    Shift=    0.000
 GapD=    0.717 DampG=2.000 DampE=0.250 DampFc=0.5000 IDamp=-1.
 Damping current iteration by 5.00D-01
 RMSDP=8.19D-03 MaxDP=8.48D-01              OVMax= 6.42D-01

 Cycle   2  Pass 1  IDiag  1:
 RMSU=  4.09D-03    CP:  1.01D+00
 E= -990.988521967402     Delta-E=       -0.664167150137 Rises=F Damp=T
 DIIS: error= 2.11D-02 at cycle   2 NSaved=   2.
 NSaved= 2 IEnMin= 2 EnMin= -990.988521967402     IErMin= 2 ErrMin= 2.11D-02
 ErrMax= 2.11D-02  0.00D+00 EMaxC= 1.00D-01 BMatC= 5.88D-01 BMatP= 3.68D+00
 IDIUse=3 WtCom= 7.89D-01 WtEn= 2.11D-01
 Coeff-Com:  0.129D+00 0.871D+00
 Coeff-En:   0.332D+00 0.668D+00
 Coeff:      0.172D+00 0.828D+00
 Gap=     0.387 Goal=   None    Shift=    0.000
 RMSDP=3.55D-03 MaxDP=2.77D-01 DE=-6.64D-01 OVMax= 5.25D-01

 Cycle   3  Pass 1  IDiag  1:
 RMSU=  1.84D-03    CP:  9.74D-01  2.63D-01
 E= -992.047641769177     Delta-E=       -1.059119801775 Rises=F Damp=F
 DIIS: error= 1.34D-02 at cycle   3 NSaved=   3.
 NSaved= 3 IEnMin= 3 EnMin= -992.047641769177     IErMin= 3 ErrMin= 1.34D-02
 ErrMax= 1.34D-02  0.00D+00 EMaxC= 1.00D-01 BMatC= 2.26D-01 BMatP= 5.88D-01
 IDIUse=3 WtCom= 8.66D-01 WtEn= 1.34D-01
 Coeff-Com: -0.505D-01 0.364D+00 0.687D+00
 Coeff-En:   0.000D+00 0.000D+00 0.100D+01
 Coeff:     -0.437D-01 0.315D+00 0.729D+00
 Gap=     0.332 Goal=   None    Shift=    0.000
 RMSDP=9.20D-04 MaxDP=1.12D-01 DE=-1.06D+00 OVMax= 1.33D-01

 Cycle   4  Pass 1  IDiag  1:
 RMSU=  8.23D-04    CP:  9.75D-01  3.64D-01  1.00D+00
 E= -992.119087258768     Delta-E=       -0.071445489591 Rises=F Damp=F
 DIIS: error= 9.63D-03 at cycle   4 NSaved=   4.
 NSaved= 4 IEnMin= 4 EnMin= -992.119087258768     IErMin= 4 ErrMin= 9.63D-03
 ErrMax= 9.63D-03  0.00D+00 EMaxC= 1.00D-01 BMatC= 1.30D-01 BMatP= 2.26D-01
 IDIUse=3 WtCom= 9.04D-01 WtEn= 9.63D-02
 Coeff-Com: -0.134D-01 0.643D-01 0.452D+00 0.497D+00
 Coeff-En:   0.000D+00 0.000D+00 0.386D+00 0.614D+00
 Coeff:     -0.121D-01 0.581D-01 0.445D+00 0.509D+00
 Gap=     0.328 Goal=   None    Shift=    0.000
 RMSDP=4.16D-04 MaxDP=3.37D-02 DE=-7.14D-02 OVMax= 4.77D-02

 Cycle   5  Pass 1  IDiag  1:
 RMSU=  2.20D-04    CP:  9.70D-01  3.21D-01  1.08D+00  6.67D-01
 E= -992.205549263149     Delta-E=       -0.086462004381 Rises=F Damp=F
 DIIS: error= 1.50D-03 at cycle   5 NSaved=   5.
 NSaved= 5 IEnMin= 5 EnMin= -992.205549263149     IErMin= 5 ErrMin= 1.50D-03
 ErrMax= 1.50D-03  0.00D+00 EMaxC= 1.00D-01 BMatC= 3.77D-03 BMatP= 1.30D-01
 IDIUse=3 WtCom= 9.85D-01 WtEn= 1.50D-02
 Coeff-Com:  0.120D-01-0.318D-01 0.920D-01 0.196D+00 0.732D+00
 Coeff-En:   0.000D+00 0.000D+00 0.000D+00 0.000D+00 0.100D+01
 Coeff:      0.118D-01-0.313D-01 0.906D-01 0.193D+00 0.736D+00
 Gap=     0.322 Goal=   None    Shift=    0.000
 RMSDP=1.12D-04 MaxDP=8.56D-03 DE=-8.65D-02 OVMax= 1.27D-02

 Cycle   6  Pass 1  IDiag  1:
 RMSU=  8.74D-05    CP:  9.69D-01  3.10D-01  1.09D+00  7.06D-01  1.14D+00
 E= -992.208401462753     Delta-E=       -0.002852199604 Rises=F Damp=F
 DIIS: error= 3.84D-04 at cycle   6 NSaved=   6.
 NSaved= 6 IEnMin= 6 EnMin= -992.208401462753     IErMin= 6 ErrMin= 3.84D-04
 ErrMax= 3.84D-04  0.00D+00 EMaxC= 1.00D-01 BMatC= 3.08D-04 BMatP= 3.77D-03
 IDIUse=3 WtCom= 9.96D-01 WtEn= 3.84D-03
 Coeff-Com:  0.741D-02-0.185D-01-0.129D-01 0.217D-02 0.211D+00 0.811D+00
 Coeff-En:   0.000D+00 0.000D+00 0.000D+00 0.000D+00 0.000D+00 0.100D+01
 Coeff:      0.738D-02-0.184D-01-0.129D-01 0.216D-02 0.210D+00 0.812D+00
 Gap=     0.321 Goal=   None    Shift=    0.000
 RMSDP=4.87D-05 MaxDP=3.39D-03 DE=-2.85D-03 OVMax= 8.53D-03

 Cycle   7  Pass 1  IDiag  1:
 RMSU=  3.51D-05    CP:  9.69D-01  3.07D-01  1.09D+00  7.22D-01  1.26D+00
                    CP:  1.12D+00
 E= -992.208738716197     Delta-E=       -0.000337253444 Rises=F Damp=F
 DIIS: error= 3.00D-04 at cycle   7 NSaved=   7.
 NSaved= 7 IEnMin= 7 EnMin= -992.208738716197     IErMin= 7 ErrMin= 3.00D-04
 ErrMax= 3.00D-04  0.00D+00 EMaxC= 1.00D-01 BMatC= 7.48D-05 BMatP= 3.08D-04
 IDIUse=3 WtCom= 9.97D-01 WtEn= 3.00D-03
 Coeff-Com:  0.198D-02-0.400D-02-0.144D-01-0.272D-01-0.124D-01 0.387D+00
 Coeff-Com:  0.669D+00
 Coeff-En:   0.000D+00 0.000D+00 0.000D+00 0.000D+00 0.000D+00 0.000D+00
 Coeff-En:   0.100D+01
 Coeff:      0.198D-02-0.399D-02-0.144D-01-0.272D-01-0.124D-01 0.386D+00
 Coeff:      0.670D+00
 Gap=     0.321 Goal=   None    Shift=    0.000
 RMSDP=2.30D-05 MaxDP=1.45D-03 DE=-3.37D-04 OVMax= 4.31D-03

 Cycle   8  Pass 1  IDiag  1:
 RMSU=  1.53D-05    CP:  9.68D-01  3.06D-01  1.09D+00  7.23D-01  1.32D+00
                    CP:  1.23D+00  9.87D-01
 E= -992.208823268652     Delta-E=       -0.000084552455 Rises=F Damp=F
 DIIS: error= 7.73D-05 at cycle   8 NSaved=   8.
 NSaved= 8 IEnMin= 8 EnMin= -992.208823268652     IErMin= 8 ErrMin= 7.73D-05
 ErrMax= 7.73D-05  0.00D+00 EMaxC= 1.00D-01 BMatC= 1.20D-05 BMatP= 7.48D-05
 IDIUse=1 WtCom= 1.00D+00 WtEn= 0.00D+00
 Coeff-Com: -0.271D-03 0.110D-02-0.308D-02-0.129D-01-0.447D-01 0.129D-01
 Coeff-Com:  0.292D+00 0.755D+00
 Coeff:     -0.271D-03 0.110D-02-0.308D-02-0.129D-01-0.447D-01 0.129D-01
 Coeff:      0.292D+00 0.755D+00
 Gap=     0.321 Goal=   None    Shift=    0.000
 RMSDP=1.19D-05 MaxDP=1.03D-03 DE=-8.46D-05 OVMax= 3.08D-03

 Cycle   9  Pass 1  IDiag  1:
 RMSU=  6.16D-06    CP:  9.68D-01  3.05D-01  1.09D+00  7.25D-01  1.34D+00
                    CP:  1.29D+00  1.13D+00  1.32D+00
 E= -992.208844814995     Delta-E=       -0.000021546343 Rises=F Damp=F
 DIIS: error= 3.77D-05 at cycle   9 NSaved=   9.
 NSaved= 9 IEnMin= 9 EnMin= -992.208844814995     IErMin= 9 ErrMin= 3.77D-05
 ErrMax= 3.77D-05  0.00D+00 EMaxC= 1.00D-01 BMatC= 1.39D-06 BMatP= 1.20D-05
 IDIUse=1 WtCom= 1.00D+00 WtEn= 0.00D+00
 Coeff-Com: -0.523D-03 0.114D-02 0.228D-02 0.186D-02-0.913D-02-0.859D-01
 Coeff-Com: -0.582D-01 0.234D+00 0.914D+00
 Coeff:     -0.523D-03 0.114D-02 0.228D-02 0.186D-02-0.913D-02-0.859D-01
 Coeff:     -0.582D-01 0.234D+00 0.914D+00
 Gap=     0.321 Goal=   None    Shift=    0.000
 RMSDP=7.44D-06 MaxDP=4.73D-04 DE=-2.15D-05 OVMax= 2.24D-03

 Cycle  10  Pass 1  IDiag  1:
 RMSU=  3.45D-06    CP:  9.68D-01  3.05D-01  1.09D+00  7.26D-01  1.34D+00
                    CP:  1.32D+00  1.26D+00  1.55D+00  1.18D+00
 E= -992.208850262072     Delta-E=       -0.000005447077 Rises=F Damp=F
 DIIS: error= 1.04D-05 at cycle  10 NSaved=  10.
 NSaved=10 IEnMin=10 EnMin= -992.208850262072     IErMin=10 ErrMin= 1.04D-05
 ErrMax= 1.04D-05  0.00D+00 EMaxC= 1.00D-01 BMatC= 2.16D-07 BMatP= 1.39D-06
 IDIUse=1 WtCom= 1.00D+00 WtEn= 0.00D+00
 Coeff-Com: -0.121D-03 0.215D-03 0.535D-03 0.168D-02 0.364D-02-0.186D-01
 Coeff-Com: -0.524D-01-0.403D-01 0.192D+00 0.914D+00
 Coeff:     -0.121D-03 0.215D-03 0.535D-03 0.168D-02 0.364D-02-0.186D-01
 Coeff:     -0.524D-01-0.403D-01 0.192D+00 0.914D+00
 Gap=     0.321 Goal=   None    Shift=    0.000
 RMSDP=3.09D-06 MaxDP=1.86D-04 DE=-5.45D-06 OVMax= 9.68D-04

 Cycle  11  Pass 1  IDiag  1:
 RMSU=  1.56D-06    CP:  9.68D-01  3.05D-01  1.09D+00  7.26D-01  1.35D+00
                    CP:  1.32D+00  1.27D+00  1.67D+00  1.43D+00  1.19D+00
 E= -992.208851203517     Delta-E=       -0.000000941445 Rises=F Damp=F
 DIIS: error= 6.33D-06 at cycle  11 NSaved=  11.
 NSaved=11 IEnMin=11 EnMin= -992.208851203517     IErMin=11 ErrMin= 6.33D-06
 ErrMax= 6.33D-06  0.00D+00 EMaxC= 1.00D-01 BMatC= 4.05D-08 BMatP= 2.16D-07
 IDIUse=1 WtCom= 1.00D+00 WtEn= 0.00D+00
 Coeff-Com:  0.100D-03-0.240D-03-0.441D-03 0.559D-04 0.335D-02 0.174D-01
 Coeff-Com: -0.432D-02-0.652D-01-0.170D+00 0.189D+00 0.103D+01
 Coeff:      0.100D-03-0.240D-03-0.441D-03 0.559D-04 0.335D-02 0.174D-01
 Coeff:     -0.432D-02-0.652D-01-0.170D+00 0.189D+00 0.103D+01
 Gap=     0.321 Goal=   None    Shift=    0.000
 RMSDP=1.79D-06 MaxDP=1.24D-04 DE=-9.41D-07 OVMax= 6.12D-04

 Cycle  12  Pass 1  IDiag  1:
 RMSU=  6.05D-07    CP:  9.68D-01  3.05D-01  1.09D+00  7.26D-01  1.35D+00
                    CP:  1.33D+00  1.28D+00  1.72D+00  1.54D+00  1.51D+00
                    CP:  1.32D+00
 E= -992.208851443139     Delta-E=       -0.000000239622 Rises=F Damp=F
 DIIS: error= 2.86D-06 at cycle  12 NSaved=  12.
 NSaved=12 IEnMin=12 EnMin= -992.208851443139     IErMin=12 ErrMin= 2.86D-06
 ErrMax= 2.86D-06  0.00D+00 EMaxC= 1.00D-01 BMatC= 9.06D-09 BMatP= 4.05D-08
 IDIUse=1 WtCom= 1.00D+00 WtEn= 0.00D+00
 Coeff-Com:  0.517D-04-0.111D-03-0.986D-04-0.163D-03 0.306D-03 0.680D-02
 Coeff-Com:  0.486D-02-0.104D-01-0.609D-01-0.973D-01 0.269D+00 0.888D+00
 Coeff:      0.517D-04-0.111D-03-0.986D-04-0.163D-03 0.306D-03 0.680D-02
 Coeff:      0.486D-02-0.104D-01-0.609D-01-0.973D-01 0.269D+00 0.888D+00
 Gap=     0.321 Goal=   None    Shift=    0.000
 RMSDP=5.70D-07 MaxDP=3.17D-05 DE=-2.40D-07 OVMax= 1.65D-04

 Cycle  13  Pass 1  IDiag  1:
 RMSU=  1.94D-07    CP:  9.68D-01  3.05D-01  1.09D+00  7.26D-01  1.35D+00
                    CP:  1.33D+00  1.28D+00  1.73D+00  1.57D+00  1.59D+00
                    CP:  1.54D+00  1.17D+00
 E= -992.208851469849     Delta-E=       -0.000000026709 Rises=F Damp=F
 DIIS: error= 1.55D-06 at cycle  13 NSaved=  13.
 NSaved=13 IEnMin=13 EnMin= -992.208851469849     IErMin=13 ErrMin= 1.55D-06
 ErrMax= 1.55D-06  0.00D+00 EMaxC= 1.00D-01 BMatC= 1.88D-09 BMatP= 9.06D-09
 IDIUse=1 WtCom= 1.00D+00 WtEn= 0.00D+00
 Coeff-Com:  0.757D-05-0.833D-05 0.635D-04-0.653D-04-0.506D-03-0.566D-03
 Coeff-Com:  0.256D-02 0.746D-02 0.981D-02-0.746D-01-0.791D-01 0.303D+00
 Coeff-Com:  0.832D+00
 Coeff:      0.757D-05-0.833D-05 0.635D-04-0.653D-04-0.506D-03-0.566D-03
 Coeff:      0.256D-02 0.746D-02 0.981D-02-0.746D-01-0.791D-01 0.303D+00
 Coeff:      0.832D+00
 Gap=     0.321 Goal=   None    Shift=    0.000
 RMSDP=2.07D-07 MaxDP=1.03D-05 DE=-2.67D-08 OVMax= 5.38D-05

 Cycle  14  Pass 1  IDiag  1:
 RMSU=  6.81D-08    CP:  9.68D-01  3.05D-01  1.09D+00  7.26D-01  1.35D+00
                    CP:  1.33D+00  1.28D+00  1.73D+00  1.58D+00  1.62D+00
                    CP:  1.61D+00  1.33D+00  1.33D+00
 E= -992.208851473291     Delta-E=       -0.000000003442 Rises=F Damp=F
 DIIS: error= 6.59D-07 at cycle  14 NSaved=  14.
 NSaved=14 IEnMin=14 EnMin= -992.208851473291     IErMin=14 ErrMin= 6.59D-07
 ErrMax= 6.59D-07  0.00D+00 EMaxC= 1.00D-01 BMatC= 4.40D-10 BMatP= 1.88D-09
 IDIUse=1 WtCom= 1.00D+00 WtEn= 0.00D+00
 Coeff-Com: -0.212D-05 0.926D-05 0.493D-04-0.928D-05-0.315D-03-0.124D-02
 Coeff-Com:  0.769D-03 0.531D-02 0.144D-01-0.272D-01-0.821D-01 0.348D-01
 Coeff-Com:  0.471D+00 0.584D+00
 Coeff:     -0.212D-05 0.926D-05 0.493D-04-0.928D-05-0.315D-03-0.124D-02
 Coeff:      0.769D-03 0.531D-02 0.144D-01-0.272D-01-0.821D-01 0.348D-01
 Coeff:      0.471D+00 0.584D+00
 Gap=     0.321 Goal=   None    Shift=    0.000
 RMSDP=5.64D-08 MaxDP=2.57D-06 DE=-3.44D-09 OVMax= 1.19D-05

 Cycle  15  Pass 1  IDiag  1:
 RMSU=  2.63D-08    CP:  9.68D-01  3.05D-01  1.09D+00  7.26D-01  1.35D+00
                    CP:  1.33D+00  1.28D+00  1.73D+00  1.58D+00  1.62D+00
                    CP:  1.62D+00  1.38D+00  1.47D+00  1.08D+00
 E= -992.208851473724     Delta-E=       -0.000000000434 Rises=F Damp=F
 DIIS: error= 1.49D-07 at cycle  15 NSaved=  15.
 NSaved=15 IEnMin=15 EnMin= -992.208851473724     IErMin=15 ErrMin= 1.49D-07
 ErrMax= 1.49D-07  0.00D+00 EMaxC= 1.00D-01 BMatC= 2.59D-11 BMatP= 4.40D-10
 IDIUse=1 WtCom= 1.00D+00 WtEn= 0.00D+00
 Coeff-Com: -0.121D-05 0.206D-05-0.193D-05 0.101D-04 0.204D-04-0.847D-04
 Coeff-Com: -0.126D-03-0.307D-03 0.131D-02 0.463D-02-0.457D-02-0.351D-01
 Coeff-Com: -0.173D-01 0.127D+00 0.924D+00
 Coeff:     -0.121D-05 0.206D-05-0.193D-05 0.101D-04 0.204D-04-0.847D-04
 Coeff:     -0.126D-03-0.307D-03 0.131D-02 0.463D-02-0.457D-02-0.351D-01
 Coeff:     -0.173D-01 0.127D+00 0.924D+00
 Gap=     0.321 Goal=   None    Shift=    0.000
 RMSDP=2.46D-08 MaxDP=9.88D-07 DE=-4.34D-10 OVMax= 4.46D-06

 Cycle  16  Pass 1  IDiag  1:
 RMSU=  1.12D-08    CP:  9.68D-01  3.05D-01  1.09D+00  7.26D-01  1.35D+00
                    CP:  1.33D+00  1.28D+00  1.73D+00  1.58D+00  1.62D+00
                    CP:  1.63D+00  1.40D+00  1.54D+00  1.23D+00  1.29D+00
 E= -992.208851473856     Delta-E=       -0.000000000132 Rises=F Damp=F
 DIIS: error= 4.89D-08 at cycle  16 NSaved=  16.
 NSaved=16 IEnMin=16 EnMin= -992.208851473856     IErMin=16 ErrMin= 4.89D-08
 ErrMax= 4.89D-08  0.00D+00 EMaxC= 1.00D-01 BMatC= 2.20D-12 BMatP= 2.59D-11
 IDIUse=1 WtCom= 1.00D+00 WtEn= 0.00D+00
 Coeff-Com: -0.302D-07-0.511D-06-0.644D-05 0.200D-05 0.352D-04 0.126D-03
 Coeff-Com: -0.886D-04-0.662D-03-0.142D-02 0.371D-02 0.900D-02-0.100D-01
 Coeff-Com: -0.563D-01-0.503D-01 0.146D+00 0.960D+00
 Coeff:     -0.302D-07-0.511D-06-0.644D-05 0.200D-05 0.352D-04 0.126D-03
 Coeff:     -0.886D-04-0.662D-03-0.142D-02 0.371D-02 0.900D-02-0.100D-01
 Coeff:     -0.563D-01-0.503D-01 0.146D+00 0.960D+00
 Gap=     0.321 Goal=   None    Shift=    0.000
 RMSDP=1.04D-08 MaxDP=5.48D-07 DE=-1.32D-10 OVMax= 1.81D-06

 Cycle  17  Pass 1  IDiag  1:
 RMSU=  5.14D-09    CP:  9.68D-01  3.05D-01  1.09D+00  7.26D-01  1.35D+00
                    CP:  1.33D+00  1.28D+00  1.73D+00  1.58D+00  1.62D+00
                    CP:  1.63D+00  1.40D+00  1.56D+00  1.30D+00  1.46D+00
                    CP:  1.34D+00
 E= -992.208851473909     Delta-E=       -0.000000000053 Rises=F Damp=F
 DIIS: error= 1.98D-08 at cycle  17 NSaved=  17.
 NSaved=17 IEnMin=17 EnMin= -992.208851473909     IErMin=17 ErrMin= 1.98D-08
 ErrMax= 1.98D-08  0.00D+00 EMaxC= 1.00D-01 BMatC= 4.48D-13 BMatP= 2.20D-12
 IDIUse=1 WtCom= 1.00D+00 WtEn= 0.00D+00
 Coeff-Com:  0.157D-06-0.301D-06-0.912D-07-0.121D-05 0.209D-06 0.141D-04
 Coeff-Com: -0.597D-06-0.327D-04-0.267D-03-0.132D-03 0.157D-02 0.294D-02
 Coeff-Com: -0.408D-02-0.244D-01-0.114D+00 0.157D+00 0.982D+00
 Coeff:      0.157D-06-0.301D-06-0.912D-07-0.121D-05 0.209D-06 0.141D-04
 Coeff:     -0.597D-06-0.327D-04-0.267D-03-0.132D-03 0.157D-02 0.294D-02
 Coeff:     -0.408D-02-0.244D-01-0.114D+00 0.157D+00 0.982D+00
 Gap=     0.321 Goal=   None    Shift=    0.000
 RMSDP=4.16D-09 MaxDP=2.41D-07 DE=-5.32D-11 OVMax= 8.47D-07

 Error on total polarization charges =  0.03074
 SCF Done:  E(RwB97XD) =  -992.208851474     A.U. after   17 cycles
            NFock= 17  Conv=0.42D-08     -V/T= 2.0799
 KE= 9.188029179596D+02 PE=-4.529217297981D+03 EE= 1.506981790194D+03
 SMD-CDS (non-electrostatic) energy       (kcal/mol) =      -0.18
 (included in total energy above)
 Leave Link  502 at Tue Oct  4 21:38:02 2022, MaxMem=  2952790016 cpu:           13628.3 elap:            1142.5
 (Enter /mnt/data/applications/G16/g16/l801.exe)
 DoSCS=F DFT=T ScalE2(SS,OS)=  1.000000  1.000000
 Range of M.O.s used for correlation:     1   510
 NBasis=   510 NAE=    60 NBE=    60 NFC=     0 NFV=     0
 NROrb=    510 NOA=    60 NOB=    60 NVA=   450 NVB=   450

 **** Warning!!: The largest alpha MO coefficient is  0.18207523D+02

 Leave Link  801 at Tue Oct  4 21:38:02 2022, MaxMem=  2952790016 cpu:               0.3 elap:               0.0
 (Enter /mnt/data/applications/G16/g16/l1101.exe)
 Using compressed storage, NAtomX=    29.
 Will process     30 centers per pass.
   1 Symmetry operations used in ECPInt.
 ECPInt:  NShTT=   22578 NPrTT=   66767 LenC2=   20894 LenP2D=   46062.
 LDataN:  DoStor=T MaxTD1= 8 Len=  415
 R6Disp: Adding Grimme-D2 dispersion energy 1st derivatives to the gradient.
 Leave Link 1101 at Tue Oct  4 21:38:06 2022, MaxMem=  2952790016 cpu:              41.5 elap:               3.5
 (Enter /mnt/data/applications/G16/g16/l1102.exe)
 Symmetrizing basis deriv contribution to polar:
 IMax=3 JMax=2 DiffMx= 0.00D+00
 Leave Link 1102 at Tue Oct  4 21:38:06 2022, MaxMem=  2952790016 cpu:               1.1 elap:               0.1
 (Enter /mnt/data/applications/G16/g16/l1110.exe)
 Forming Gx(P) for the SCF density, NAtomX=    29.
 Integral derivatives from FoFJK, PRISM(SPDF).
 Do as many integral derivatives as possible in FoFJK.
 G2DrvN: MDV=    2952787676.
 G2DrvN: will do    30 centers at a time, making    1 passes.
 Calling FoFCou, ICntrl=  3107 FMM=F I1Cent=   0 AccDes= 0.00D+00.
 FoFJK:  IHMeth= 1 ICntrl=    3107 DoSepK=T KAlg= 0 I1Cent=           0 FoldK=F
 IRaf=         1 NMat=       1 IRICut=       1 DoRegI=T DoRafI=F ISym2E= 0 IDoP0=0 IntGTp=1.
 FoFCou: FMM=F IPFlag=           0 FMFlag=      100000 FMFlg1=           0
         NFxFlg=           0 DoJE=F BraDBF=F KetDBF=F FulRan=T
         wScrn=  0.000000 ICntrl=      3507 IOpCl=  0 I1Cent=           0 NGrid=           0
         NMat0=    1 NMatS0=      1 NMatT0=    0 NMatD0=    1 NMtDS0=    0 NMtDT0=    0
 Symmetry not used in FoFCou.
 Defaulting to unpruned grid for atomic number  45.
 Defaulting to unpruned grid for atomic number  45.
 Defaulting to unpruned grid for atomic number  45.
 Defaulting to unpruned grid for atomic number  45.
 Defaulting to unpruned grid for atomic number  45.
 Defaulting to unpruned grid for atomic number  45.
 Defaulting to unpruned grid for atomic number  45.
 Defaulting to unpruned grid for atomic number  45.
 Defaulting to unpruned grid for atomic number  45.
 Defaulting to unpruned grid for atomic number  45.
 Defaulting to unpruned grid for atomic number  45.
 Defaulting to unpruned grid for atomic number  45.
 NEqPCM:  Using equilibrium solvation (IEInf=0, Eps=   2.3741, EpsInf=   2.2383)
 G2PCM: DoFxE=T DoFxN=T DoGrad=T DoDP/DQ/DG/TGxP=FFFF NFrqRd=   0 IEInf=0 SqF1=F DoCFld=F IF1Alg=4.
 GePol: Maximum number of non-zero 1st derivatives   =     436
 End of G2Drv F.D. properties file   721 does not exist.
 End of G2Drv F.D. properties file   722 does not exist.
 End of G2Drv F.D. properties file   788 does not exist.
 Leave Link 1110 at Tue Oct  4 21:56:32 2022, MaxMem=  2952790016 cpu:           13236.4 elap:            1106.0
 (Enter /mnt/data/applications/G16/g16/l1002.exe)
 Minotr:  Closed shell wavefunction.
          IDoAtm=11111111111111111111111111111
 NEqPCM:  Using equilibrium solvation (IEInf=0, Eps=   2.3741, EpsInf=   2.2383)
          Direct CPHF calculation.
          Differentiating once with respect to nuclear coordinates.
          Requested convergence is 1.0D-08 RMS, and 1.0D-07 maximum.
          Secondary convergence is 1.0D-12 RMS, and 1.0D-12 maximum.
          NewPWx=T KeepS1=F KeepF1=F KeepIn=T MapXYZ=F SortEE=F KeepMc=T.
 Defaulting to unpruned grid for atomic number  45.
         8986 words used for storage of precomputed grid.
 Two-electron integrals replicated using symmetry.
          MDV=    2952790016 using IRadAn=       1.
          Solving linear equations simultaneously, MaxMat=     384.
 FoF2E skips out because all densities are zero.
 CalDSu exits because no D1Ps are significant.
 FoFJK:  IHMeth= 1 ICntrl=       0 DoSepK=T KAlg= 0 I1Cent=           0 FoldK=F
 IRaf=         1 NMat=      87 IRICut=       1 DoRegI=T DoRafI=F ISym2E= 2 IDoP0=3 IntGTp=3.
 Defaulting to unpruned grid for atomic number  45.
 Defaulting to unpruned grid for atomic number  45.
 Defaulting to unpruned grid for atomic number  45.
 Defaulting to unpruned grid for atomic number  45.
 Defaulting to unpruned grid for atomic number  45.
 Defaulting to unpruned grid for atomic number  45.
 Defaulting to unpruned grid for atomic number  45.
 Defaulting to unpruned grid for atomic number  45.
 Defaulting to unpruned grid for atomic number  45.
 Defaulting to unpruned grid for atomic number  45.
 Defaulting to unpruned grid for atomic number  45.
 Defaulting to unpruned grid for atomic number  45.
          There are    90 degrees of freedom in the 1st order CPHF.  IDoFFX=6 NUNeed=     0.
     84 vectors produced by pass  0 Test12= 3.00D-14 1.11D-09 XBig12= 1.15D-01 7.39D-02.
 AX will form    84 AO Fock derivatives at one time.
     84 vectors produced by pass  1 Test12= 3.00D-14 1.11D-09 XBig12= 1.78D-02 2.49D-02.
     84 vectors produced by pass  2 Test12= 3.00D-14 1.11D-09 XBig12= 6.45D-04 5.87D-03.
     84 vectors produced by pass  3 Test12= 3.00D-14 1.11D-09 XBig12= 1.30D-05 5.19D-04.
     84 vectors produced by pass  4 Test12= 3.00D-14 1.11D-09 XBig12= 1.57D-07 4.14D-05.
     84 vectors produced by pass  5 Test12= 3.00D-14 1.11D-09 XBig12= 1.44D-09 5.57D-06.
     84 vectors produced by pass  6 Test12= 3.00D-14 1.11D-09 XBig12= 1.45D-11 4.81D-07.
     42 vectors produced by pass  7 Test12= 3.00D-14 1.11D-09 XBig12= 1.15D-13 3.67D-08.
      6 vectors produced by pass  8 Test12= 3.00D-14 1.11D-09 XBig12= 1.15D-15 2.67D-09.
      5 vectors produced by pass  9 Test12= 3.00D-14 1.11D-09 XBig12= 4.59D-16 1.95D-09.
      5 vectors produced by pass 10 Test12= 3.00D-14 1.11D-09 XBig12= 3.66D-16 1.90D-09.
 InvSVY:  IOpt=1 It=  1 EMax= 2.78D-16
 Solved reduced A of dimension   646 with    90 vectors.
 End of Minotr F.D. properties file   721 does not exist.
 End of Minotr F.D. properties file   722 does not exist.
 End of Minotr F.D. properties file   788 does not exist.
 Leave Link 1002 at Tue Oct  4 22:48:28 2022, MaxMem=  2952790016 cpu:           37295.1 elap:            3116.1
 (Enter /mnt/data/applications/G16/g16/l601.exe)
 Copying SCF densities to generalized density rwf, IOpCl= 0 IROHF=0.

 **********************************************************************

            Population analysis using the SCF density.

 **********************************************************************

 Orbital symmetries:
       Occupied  (A) (A) (A) (A) (A) (A) (A) (A) (A) (A) (A) (A)
                 (A) (A) (A) (A) (A) (A) (A) (A) (A) (A) (A) (A)
                 (A) (A) (A) (A) (A) (A) (A) (A) (A) (A) (A) (A)
                 (A) (A) (A) (A) (A) (A) (A) (A) (A) (A) (A) (A)
                 (A) (A) (A) (A) (A) (A) (A) (A) (A) (A) (A) (A)
       Virtual   (A) (A) (A) (A) (A) (A) (A) (A) (A) (A) (A) (A)
                 (A) (A) (A) (A) (A) (A) (A) (A) (A) (A) (A) (A)
                 (A) (A) (A) (A) (A) (A) (A) (A) (A) (A) (A) (A)
                 (A) (A) (A) (A) (A) (A) (A) (A) (A) (A) (A) (A)
                 (A) (A) (A) (A) (A) (A) (A) (A) (A) (A) (A) (A)
                 (A) (A) (A) (A) (A) (A) (A) (A) (A) (A) (A) (A)
                 (A) (A) (A) (A) (A) (A) (A) (A) (A) (A) (A) (A)
                 (A) (A) (A) (A) (A) (A) (A) (A) (A) (A) (A) (A)
                 (A) (A) (A) (A) (A) (A) (A) (A) (A) (A) (A) (A)
                 (A) (A) (A) (A) (A) (A) (A) (A) (A) (A) (A) (A)
                 (A) (A) (A) (A) (A) (A) (A) (A) (A) (A) (A) (A)
                 (A) (A) (A) (A) (A) (A) (A) (A) (A) (A) (A) (A)
                 (A) (A) (A) (A) (A) (A) (A) (A) (A) (A) (A) (A)
                 (A) (A) (A) (A) (A) (A) (A) (A) (A) (A) (A) (A)
                 (A) (A) (A) (A) (A) (A) (A) (A) (A) (A) (A) (A)
                 (A) (A) (A) (A) (A) (A) (A) (A) (A) (A) (A) (A)
                 (A) (A) (A) (A) (A) (A) (A) (A) (A) (A) (A) (A)
                 (A) (A) (A) (A) (A) (A) (A) (A) (A) (A) (A) (A)
                 (A) (A) (A) (A) (A) (A) (A) (A) (A) (A) (A) (A)
                 (A) (A) (A) (A) (A) (A) (A) (A) (A) (A) (A) (A)
                 (A) (A) (A) (A) (A) (A) (A) (A) (A) (A) (A) (A)
                 (A) (A) (A) (A) (A) (A) (A) (A) (A) (A) (A) (A)
                 (A) (A) (A) (A) (A) (A) (A) (A) (A) (A) (A) (A)
                 (A) (A) (A) (A) (A) (A) (A) (A) (A) (A) (A) (A)
                 (A) (A) (A) (A) (A) (A) (A) (A) (A) (A) (A) (A)
                 (A) (A) (A) (A) (A) (A) (A) (A) (A) (A) (A) (A)
                 (A) (A) (A) (A) (A) (A) (A) (A) (A) (A) (A) (A)
                 (A) (A) (A) (A) (A) (A) (A) (A) (A) (A) (A) (A)
                 (A) (A) (A) (A) (A) (A) (A) (A) (A) (A) (A) (A)
                 (A) (A) (A) (A) (A) (A) (A) (A) (A) (A) (A) (A)
                 (A) (A) (A) (A) (A) (A) (A) (A) (A) (A) (A) (A)
                 (A) (A) (A) (A) (A) (A) (A) (A) (A) (A) (A) (A)
                 (A) (A) (A) (A) (A) (A) (A) (A) (A) (A) (A) (A)
                 (A) (A) (A) (A) (A) (A) (A) (A) (A) (A) (A) (A)
                 (A) (A) (A) (A) (A) (A) (A) (A) (A) (A) (A) (A)
                 (A) (A) (A) (A) (A) (A) (A) (A) (A) (A) (A) (A)
                 (A) (A) (A) (A) (A) (A) (A) (A) (A) (A) (A) (A)
                 (A) (A) (A) (A) (A) (A)
 The electronic state is 1-A.
 Alpha  occ. eigenvalues --  -77.24209 -19.32655 -19.32445 -19.23329 -10.40841
 Alpha  occ. eigenvalues --  -10.40833 -10.38264 -10.28632 -10.28179 -10.28121
 Alpha  occ. eigenvalues --  -10.27790 -10.26285  -6.68630  -4.83323  -4.83299
 Alpha  occ. eigenvalues --   -4.83012  -3.36977  -2.11623  -2.11486  -2.11286
 Alpha  occ. eigenvalues --   -1.24210  -1.23976  -1.14287  -0.88137  -0.86850
 Alpha  occ. eigenvalues --   -0.80037  -0.79823  -0.74686  -0.66847  -0.65825
 Alpha  occ. eigenvalues --   -0.64153  -0.62801  -0.57496  -0.56137  -0.55414
 Alpha  occ. eigenvalues --   -0.55351  -0.55209  -0.54963  -0.54369  -0.53727
 Alpha  occ. eigenvalues --   -0.53483  -0.52636  -0.52357  -0.51282  -0.49545
 Alpha  occ. eigenvalues --   -0.49497  -0.47981  -0.47217  -0.45576  -0.44975
 Alpha  occ. eigenvalues --   -0.43430  -0.42863  -0.42710  -0.41906  -0.37782
 Alpha  occ. eigenvalues --   -0.36695  -0.36426  -0.32946  -0.31779  -0.28727
 Alpha virt. eigenvalues --    0.03412   0.04498   0.05226   0.06355   0.07089
 Alpha virt. eigenvalues --    0.07375   0.07714   0.07965   0.08834   0.09451
 Alpha virt. eigenvalues --    0.12444   0.13459   0.13768   0.14272   0.15793
 Alpha virt. eigenvalues --    0.15988   0.16897   0.17499   0.17951   0.18282
 Alpha virt. eigenvalues --    0.18333   0.19794   0.20072   0.20577   0.21034
 Alpha virt. eigenvalues --    0.21529   0.21609   0.22262   0.22711   0.23273
 Alpha virt. eigenvalues --    0.24234   0.24562   0.25424   0.25933   0.26397
 Alpha virt. eigenvalues --    0.26999   0.27489   0.28474   0.28830   0.29279
 Alpha virt. eigenvalues --    0.30706   0.32118   0.32337   0.32930   0.33835
 Alpha virt. eigenvalues --    0.34521   0.35226   0.35957   0.37176   0.39931
 Alpha virt. eigenvalues --    0.40641   0.41677   0.42287   0.43179   0.43636
 Alpha virt. eigenvalues --    0.43909   0.44438   0.45676   0.46398   0.46651
 Alpha virt. eigenvalues --    0.47764   0.48041   0.48924   0.49762   0.50139
 Alpha virt. eigenvalues --    0.50486   0.50848   0.51233   0.51467   0.52263
 Alpha virt. eigenvalues --    0.52478   0.52632   0.53666   0.53882   0.54208
 Alpha virt. eigenvalues --    0.54956   0.55535   0.55723   0.56612   0.56771
 Alpha virt. eigenvalues --    0.57181   0.57602   0.58665   0.59308   0.59991
 Alpha virt. eigenvalues --    0.60729   0.62001   0.62129   0.63007   0.63516
 Alpha virt. eigenvalues --    0.65084   0.66671   0.67160   0.67869   0.69003
 Alpha virt. eigenvalues --    0.70321   0.70656   0.71215   0.71756   0.72522
 Alpha virt. eigenvalues --    0.73388   0.73713   0.74915   0.75958   0.76786
 Alpha virt. eigenvalues --    0.78482   0.80239   0.81111   0.82066   0.83315
 Alpha virt. eigenvalues --    0.83578   0.84385   0.84672   0.85938   0.86731
 Alpha virt. eigenvalues --    0.88241   0.88594   0.89190   0.89874   0.92056
 Alpha virt. eigenvalues --    0.93218   0.94362   0.96087   0.97181   0.97409
 Alpha virt. eigenvalues --    0.98563   0.99831   1.00659   1.01979   1.03325
 Alpha virt. eigenvalues --    1.03695   1.06146   1.07768   1.08370   1.08546
 Alpha virt. eigenvalues --    1.09818   1.11887   1.12268   1.12737   1.14211
 Alpha virt. eigenvalues --    1.14944   1.16192   1.16907   1.17439   1.17981
 Alpha virt. eigenvalues --    1.18733   1.20527   1.20860   1.23330   1.25836
 Alpha virt. eigenvalues --    1.27279   1.29681   1.29995   1.33612   1.34826
 Alpha virt. eigenvalues --    1.38418   1.40441   1.47245   1.50086   1.52313
 Alpha virt. eigenvalues --    1.52750   1.53952   1.54687   1.55046   1.55987
 Alpha virt. eigenvalues --    1.56679   1.57285   1.57864   1.58763   1.59170
 Alpha virt. eigenvalues --    1.59908   1.60590   1.60977   1.61119   1.61881
 Alpha virt. eigenvalues --    1.62677   1.62900   1.63688   1.63962   1.64447
 Alpha virt. eigenvalues --    1.64723   1.65065   1.65669   1.66898   1.67585
 Alpha virt. eigenvalues --    1.67792   1.68468   1.69377   1.69418   1.70381
 Alpha virt. eigenvalues --    1.71514   1.71725   1.72548   1.73063   1.73753
 Alpha virt. eigenvalues --    1.74415   1.75388   1.75748   1.77246   1.78096
 Alpha virt. eigenvalues --    1.80148   1.81184   1.84010   1.84452   1.89289
 Alpha virt. eigenvalues --    1.89682   1.92808   1.93706   1.94467   1.96629
 Alpha virt. eigenvalues --    1.98482   1.99449   2.00772   2.03691   2.04309
 Alpha virt. eigenvalues --    2.05862   2.07253   2.08584   2.09868   2.11066
 Alpha virt. eigenvalues --    2.11497   2.12784   2.14174   2.14626   2.15612
 Alpha virt. eigenvalues --    2.16241   2.17052   2.17692   2.18389   2.19657
 Alpha virt. eigenvalues --    2.20771   2.22029   2.23931   2.25394   2.27817
 Alpha virt. eigenvalues --    2.28209   2.29308   2.33207   2.35171   2.37257
 Alpha virt. eigenvalues --    2.38504   2.38795   2.39314   2.40746   2.41476
 Alpha virt. eigenvalues --    2.42056   2.43565   2.44798   2.44956   2.46200
 Alpha virt. eigenvalues --    2.47210   2.49306   2.50161   2.51401   2.53071
 Alpha virt. eigenvalues --    2.54914   2.55919   2.58314   2.58585   2.61742
 Alpha virt. eigenvalues --    2.62361   2.63575   2.64320   2.66317   2.66619
 Alpha virt. eigenvalues --    2.67353   2.67939   2.68796   2.70606   2.71817
 Alpha virt. eigenvalues --    2.72607   2.73060   2.74166   2.74949   2.75166
 Alpha virt. eigenvalues --    2.76627   2.78015   2.78281   2.79846   2.82108
 Alpha virt. eigenvalues --    2.83097   2.87056   2.87406   2.88254   2.89725
 Alpha virt. eigenvalues --    2.91177   2.91721   2.92768   2.93233   2.94998
 Alpha virt. eigenvalues --    2.96069   2.97411   2.98758   2.99594   3.01092
 Alpha virt. eigenvalues --    3.01338   3.02881   3.03748   3.04768   3.05544
 Alpha virt. eigenvalues --    3.06611   3.08215   3.10006   3.10510   3.13222
 Alpha virt. eigenvalues --    3.13949   3.15240   3.15572   3.16632   3.17898
 Alpha virt. eigenvalues --    3.18827   3.19403   3.20133   3.21436   3.22517
 Alpha virt. eigenvalues --    3.23270   3.23945   3.24860   3.26113   3.27629
 Alpha virt. eigenvalues --    3.28681   3.30314   3.31353   3.31990   3.32683
 Alpha virt. eigenvalues --    3.33328   3.34211   3.36843   3.37330   3.38803
 Alpha virt. eigenvalues --    3.40500   3.40996   3.41839   3.42537   3.43577
 Alpha virt. eigenvalues --    3.44221   3.45186   3.45820   3.47046   3.49751
 Alpha virt. eigenvalues --    3.52209   3.54280   3.55537   3.56066   3.57826
 Alpha virt. eigenvalues --    3.60518   3.62300   3.63045   3.63587   3.64725
 Alpha virt. eigenvalues --    3.66733   3.68104   3.68498   3.68827   3.70529
 Alpha virt. eigenvalues --    3.71816   3.72283   3.72529   3.73256   3.74432
 Alpha virt. eigenvalues --    3.75889   3.77325   3.79749   3.80440   3.84589
 Alpha virt. eigenvalues --    3.85419   3.91190   3.92379   3.97676   4.00389
 Alpha virt. eigenvalues --    4.01999   4.03116   4.09380   4.15207   4.20244
 Alpha virt. eigenvalues --    4.30065   4.32729   4.34627   4.35110   4.36143
 Alpha virt. eigenvalues --    4.38871   4.40434   4.40995   4.41159   4.43806
 Alpha virt. eigenvalues --    4.49458   4.50106   4.50891   4.54007   4.54841
 Alpha virt. eigenvalues --    4.63270   4.66387   4.69891   4.92674   4.96592
 Alpha virt. eigenvalues --    5.18818   5.18858   5.19008   5.19032   5.28310
 Alpha virt. eigenvalues --    5.30862   5.57556   5.58214   5.58367   5.60422
 Alpha virt. eigenvalues --    5.65287   5.68295   6.22517   6.29148   6.30630
 Alpha virt. eigenvalues --    6.32587   6.34337   6.34539   6.35068   6.35699
 Alpha virt. eigenvalues --    6.36150   6.41850   6.44521   6.51524   6.56614
 Alpha virt. eigenvalues --    6.61548   6.63399   6.81583   6.82339   6.82664
 Alpha virt. eigenvalues --    6.84047   6.93284   7.12065   7.16838   7.17093
 Alpha virt. eigenvalues --    7.19715   7.82482   7.91288   7.93408  15.69542
 Alpha virt. eigenvalues --   22.41724  22.42013  22.42617  22.46564  22.59623
 Alpha virt. eigenvalues --   22.68689  22.74868  23.00669  38.38994  38.45412
 Alpha virt. eigenvalues --   38.56886  43.92400  43.94774  44.06295  49.75681
          Condensed to atoms (all electrons):
               1          2          3          4          5          6
     1  H    0.646436   0.008065   0.326707  -0.006833   0.000341   0.000380
     2  H    0.008065   0.640795   0.252625   0.092252  -0.029667  -0.034963
     3  Rh   0.326707   0.252625  16.041036   0.141593  -0.052276  -0.082181
     4  C   -0.006833   0.092252   0.141593   4.926592   0.513161   0.264458
     5  O    0.000341  -0.029667  -0.052276   0.513161   8.011360  -0.088168
     6  C    0.000380  -0.034963  -0.082181   0.264458  -0.088168   5.180028
     7  C    0.001037   0.001962   0.014302  -0.027801   0.014414   0.254677
     8  H   -0.003470   0.000189  -0.006612  -0.026351   0.002386   0.410132
     9  H   -0.004346   0.001089   0.003771  -0.033690  -0.000302   0.410289
    10  H   -0.000048  -0.000064  -0.000646   0.011058   0.000903  -0.051152
    11  H    0.000005  -0.000230   0.001436  -0.003961   0.000617  -0.034571
    12  H   -0.000036   0.000201   0.001219  -0.011075   0.003080  -0.025248
    13  C    0.001899  -0.015999   0.204072   0.034286  -0.006549  -0.007752
    14  O   -0.001884   0.000336  -0.012475  -0.002384   0.000208   0.000750
    15  P   -0.014416  -0.011795   0.231180  -0.028250   0.022000   0.001852
    16  C    0.000315   0.002507  -0.012841  -0.000437  -0.014601  -0.000236
    17  C    0.000347   0.000292  -0.009121  -0.002270  -0.010713  -0.000670
    18  C    0.000189  -0.000308  -0.023510   0.000790   0.001044   0.000149
    19  H   -0.000005   0.000011  -0.008550  -0.000003  -0.000011  -0.000002
    20  H   -0.000010  -0.000014   0.005161  -0.000057  -0.000006  -0.000001
    21  H   -0.000006  -0.000006   0.002118  -0.000010  -0.000005  -0.000003
    22  H   -0.000025  -0.000484  -0.000752  -0.000150   0.000334   0.000007
    23  H   -0.000025  -0.002736  -0.010631  -0.000872   0.012662   0.000790
    24  H   -0.000009   0.000029   0.005331  -0.000187   0.000236   0.000014
    25  H   -0.000000   0.000348  -0.003388  -0.002830   0.008951   0.000189
    26  H   -0.000011  -0.000015  -0.009062   0.000036   0.000323   0.000096
    27  H   -0.000008  -0.000001   0.005546   0.000054  -0.000036  -0.000005
    28  C    0.010396   0.016160   0.171661  -0.018492   0.000614   0.000254
    29  O   -0.001963  -0.000974  -0.014547   0.000439  -0.000003   0.000003
               7          8          9         10         11         12
     1  H    0.001037  -0.003470  -0.004346  -0.000048   0.000005  -0.000036
     2  H    0.001962   0.000189   0.001089  -0.000064  -0.000230   0.000201
     3  Rh   0.014302  -0.006612   0.003771  -0.000646   0.001436   0.001219
     4  C   -0.027801  -0.026351  -0.033690   0.011058  -0.003961  -0.011075
     5  O    0.014414   0.002386  -0.000302   0.000903   0.000617   0.003080
     6  C    0.254677   0.410132   0.410289  -0.051152  -0.034571  -0.025248
     7  C    4.901054  -0.025131  -0.032242   0.422588   0.414379   0.411658
     8  H   -0.025131   0.535566  -0.028077  -0.003465  -0.004912   0.005734
     9  H   -0.032242  -0.028077   0.536207  -0.003251   0.006189  -0.005829
    10  H    0.422588  -0.003465  -0.003251   0.547114  -0.024884  -0.024581
    11  H    0.414379  -0.004912   0.006189  -0.024884   0.548414  -0.024418
    12  H    0.411658   0.005734  -0.005829  -0.024581  -0.024418   0.545490
    13  C    0.000709  -0.000007  -0.001287   0.000007   0.000005   0.000002
    14  O   -0.000054   0.000003   0.000079   0.000000  -0.000000  -0.000009
    15  P   -0.000441   0.000201   0.000350   0.000005  -0.000030  -0.000003
    16  C    0.000022   0.000001  -0.000013   0.000000   0.000002   0.000006
    17  C    0.000036   0.000001   0.000003  -0.000000   0.000004  -0.000003
    18  C   -0.000003  -0.000004  -0.000005  -0.000000  -0.000000  -0.000000
    19  H   -0.000000   0.000000   0.000000   0.000000   0.000000   0.000000
    20  H   -0.000000   0.000000   0.000000   0.000000   0.000000   0.000000
    21  H   -0.000000   0.000000  -0.000000   0.000000   0.000000   0.000000
    22  H   -0.000000   0.000002  -0.000001  -0.000000  -0.000000  -0.000000
    23  H   -0.000061  -0.000028  -0.000008  -0.000000  -0.000016  -0.000011
    24  H   -0.000002   0.000000   0.000001   0.000000  -0.000000   0.000000
    25  H   -0.000006  -0.000006  -0.000026  -0.000000  -0.000008  -0.000016
    26  H   -0.000007  -0.000001   0.000002  -0.000000  -0.000000  -0.000000
    27  H   -0.000000   0.000000   0.000001   0.000000  -0.000000   0.000000
    28  C   -0.000086  -0.000396   0.000595  -0.000001   0.000007  -0.000004
    29  O    0.000000   0.000001  -0.000003  -0.000000  -0.000000   0.000000
              13         14         15         16         17         18
     1  H    0.001899  -0.001884  -0.014416   0.000315   0.000347   0.000189
     2  H   -0.015999   0.000336  -0.011795   0.002507   0.000292  -0.000308
     3  Rh   0.204072  -0.012475   0.231180  -0.012841  -0.009121  -0.023510
     4  C    0.034286  -0.002384  -0.028250  -0.000437  -0.002270   0.000790
     5  O   -0.006549   0.000208   0.022000  -0.014601  -0.010713   0.001044
     6  C   -0.007752   0.000750   0.001852  -0.000236  -0.000670   0.000149
     7  C    0.000709  -0.000054  -0.000441   0.000022   0.000036  -0.000003
     8  H   -0.000007   0.000003   0.000201   0.000001   0.000001  -0.000004
     9  H   -0.001287   0.000079   0.000350  -0.000013   0.000003  -0.000005
    10  H    0.000007   0.000000   0.000005   0.000000  -0.000000  -0.000000
    11  H    0.000005  -0.000000  -0.000030   0.000002   0.000004  -0.000000
    12  H    0.000002  -0.000009  -0.000003   0.000006  -0.000003  -0.000000
    13  C    5.251283   0.552018   0.001564  -0.000004  -0.003501  -0.001322
    14  O    0.552018   7.576279  -0.001971  -0.000001  -0.000270   0.000044
    15  P    0.001564  -0.001971  13.807436   0.320259   0.324495   0.326272
    16  C   -0.000004  -0.000001   0.320259   5.024896  -0.033865  -0.034392
    17  C   -0.003501  -0.000270   0.324495  -0.033865   5.016566  -0.035444
    18  C   -0.001322   0.000044   0.326272  -0.034392  -0.035444   5.023607
    19  H    0.000066   0.000001  -0.019717  -0.001916   0.004173   0.398636
    20  H    0.000101  -0.000010  -0.028806  -0.004614  -0.004490   0.398070
    21  H   -0.000818   0.000020  -0.021914   0.004147  -0.001926   0.398121
    22  H   -0.000056  -0.000000  -0.021034   0.393156   0.004169  -0.000485
    23  H    0.000208  -0.000003  -0.019314   0.397145  -0.000852   0.004446
    24  H   -0.000014  -0.000000  -0.029101   0.396248  -0.004927  -0.004801
    25  H   -0.001401   0.000062  -0.021683  -0.001419   0.401167   0.004115
    26  H    0.001060   0.000870  -0.021324   0.004424   0.395360  -0.000427
    27  H    0.000272  -0.000024  -0.027868  -0.004717   0.398298  -0.004981
    28  C    0.005326  -0.000249  -0.010855  -0.002395   0.001024  -0.001648
    29  O   -0.000702   0.000042  -0.001767   0.000103   0.000002   0.000097
              19         20         21         22         23         24
     1  H   -0.000005  -0.000010  -0.000006  -0.000025  -0.000025  -0.000009
     2  H    0.000011  -0.000014  -0.000006  -0.000484  -0.002736   0.000029
     3  Rh  -0.008550   0.005161   0.002118  -0.000752  -0.010631   0.005331
     4  C   -0.000003  -0.000057  -0.000010  -0.000150  -0.000872  -0.000187
     5  O   -0.000011  -0.000006  -0.000005   0.000334   0.012662   0.000236
     6  C   -0.000002  -0.000001  -0.000003   0.000007   0.000790   0.000014
     7  C   -0.000000  -0.000000  -0.000000  -0.000000  -0.000061  -0.000002
     8  H    0.000000   0.000000   0.000000   0.000002  -0.000028   0.000000
     9  H    0.000000   0.000000  -0.000000  -0.000001  -0.000008   0.000001
    10  H    0.000000   0.000000   0.000000  -0.000000  -0.000000   0.000000
    11  H    0.000000   0.000000   0.000000  -0.000000  -0.000016  -0.000000
    12  H    0.000000   0.000000   0.000000  -0.000000  -0.000011   0.000000
    13  C    0.000066   0.000101  -0.000818  -0.000056   0.000208  -0.000014
    14  O    0.000001  -0.000010   0.000020  -0.000000  -0.000003  -0.000000
    15  P   -0.019717  -0.028806  -0.021914  -0.021034  -0.019314  -0.029101
    16  C   -0.001916  -0.004614   0.004147   0.393156   0.397145   0.396248
    17  C    0.004173  -0.004490  -0.001926   0.004169  -0.000852  -0.004927
    18  C    0.398636   0.398070   0.398121  -0.000485   0.004446  -0.004801
    19  H    0.496697  -0.019907  -0.015065   0.001081  -0.000091  -0.000218
    20  H   -0.019907   0.515629  -0.019808  -0.000103  -0.000084   0.003659
    21  H   -0.015065  -0.019808   0.489788  -0.000162  -0.000079  -0.000089
    22  H    0.001081  -0.000103  -0.000162   0.499323  -0.012077  -0.020803
    23  H   -0.000091  -0.000084  -0.000079  -0.012077   0.471079  -0.018733
    24  H   -0.000218   0.003659  -0.000089  -0.020803  -0.018733   0.523340
    25  H   -0.000080  -0.000101  -0.000110  -0.000093   0.000758  -0.000053
    26  H   -0.000120  -0.000413   0.001226  -0.000094  -0.000080  -0.000096
    27  H   -0.000141   0.003700  -0.000073  -0.000061  -0.000182   0.003299
    28  C    0.001997   0.000337  -0.000910  -0.000527   0.000004   0.000140
    29  O    0.000671  -0.000027  -0.000134  -0.000042  -0.000000  -0.000007
              25         26         27         28         29
     1  H   -0.000000  -0.000011  -0.000008   0.010396  -0.001963
     2  H    0.000348  -0.000015  -0.000001   0.016160  -0.000974
     3  Rh  -0.003388  -0.009062   0.005546   0.171661  -0.014547
     4  C   -0.002830   0.000036   0.000054  -0.018492   0.000439
     5  O    0.008951   0.000323  -0.000036   0.000614  -0.000003
     6  C    0.000189   0.000096  -0.000005   0.000254   0.000003
     7  C   -0.000006  -0.000007  -0.000000  -0.000086   0.000000
     8  H   -0.000006  -0.000001   0.000000  -0.000396   0.000001
     9  H   -0.000026   0.000002   0.000001   0.000595  -0.000003
    10  H   -0.000000  -0.000000   0.000000  -0.000001  -0.000000
    11  H   -0.000008  -0.000000  -0.000000   0.000007  -0.000000
    12  H   -0.000016  -0.000000   0.000000  -0.000004   0.000000
    13  C   -0.001401   0.001060   0.000272   0.005326  -0.000702
    14  O    0.000062   0.000870  -0.000024  -0.000249   0.000042
    15  P   -0.021683  -0.021324  -0.027868  -0.010855  -0.001767
    16  C   -0.001419   0.004424  -0.004717  -0.002395   0.000103
    17  C    0.401167   0.395360   0.398298   0.001024   0.000002
    18  C    0.004115  -0.000427  -0.004981  -0.001648   0.000097
    19  H   -0.000080  -0.000120  -0.000141   0.001997   0.000671
    20  H   -0.000101  -0.000413   0.003700   0.000337  -0.000027
    21  H   -0.000110   0.001226  -0.000073  -0.000910  -0.000134
    22  H   -0.000093  -0.000094  -0.000061  -0.000527  -0.000042
    23  H    0.000758  -0.000080  -0.000182   0.000004  -0.000000
    24  H   -0.000053  -0.000096   0.003299   0.000140  -0.000007
    25  H    0.466939  -0.013174  -0.018418  -0.000028  -0.000001
    26  H   -0.013174   0.505249  -0.021732   0.000150  -0.000004
    27  H   -0.018418  -0.021732   0.518925  -0.000039  -0.000000
    28  C   -0.000028   0.000150  -0.000039   5.282231   0.555853
    29  O   -0.000001  -0.000004  -0.000000   0.555853   7.568137
 Mulliken charges:
               1
     1  H    0.036976
     2  H    0.080396
     3  Rh  -0.161165
     4  C    0.180933
     5  O   -0.390297
     6  C   -0.199117
     7  C   -0.351002
     8  H    0.144244
     9  H    0.150504
    10  H    0.126419
    11  H    0.121974
    12  H    0.123843
    13  C   -0.013466
    14  O   -0.111375
    15  P    0.244674
    16  C   -0.431780
    17  C   -0.437886
    18  C   -0.448247
    19  H    0.162491
    20  H    0.151793
    21  H    0.165697
    22  H    0.158878
    23  H    0.178791
    24  H    0.146745
    25  H    0.180314
    26  H    0.157765
    27  H    0.148193
    28  C   -0.011121
    29  O   -0.105177
 Sum of Mulliken charges =  -0.00000
 Mulliken charges with hydrogens summed into heavy atoms:
               1
     3  Rh  -0.124188
     4  C    0.261329
     5  O   -0.390297
     6  C    0.095631
     7  C    0.021234
    13  C   -0.013466
    14  O   -0.111375
    15  P    0.244674
    16  C    0.052634
    17  C    0.048387
    18  C    0.031734
    28  C   -0.011121
    29  O   -0.105177
 APT charges:
               1
     1  H    0.151376
     2  H    0.106930
     3  Rh  -0.285890
     4  C   -0.252981
     5  O   -0.141546
     6  C   -0.306980
     7  C   -1.580544
     8  H    0.367867
     9  H    0.277817
    10  H    0.763331
    11  H    0.388463
    12  H    0.303595
    13  C   -0.790017
    14  O    0.719749
    15  P    0.075191
    16  C   -1.208470
    17  C   -1.183905
    18  C   -1.309952
    19  H    0.393314
    20  H    0.655474
    21  H    0.340370
    22  H    0.368128
    23  H    0.270880
    24  H    0.654582
    25  H    0.259696
    26  H    0.352503
    27  H    0.654841
    28  C   -0.965310
    29  O    0.921486
 Sum of APT charges =  -0.00000
 APT charges with hydrogens summed into heavy atoms:
               1
     3  Rh  -0.134514
     4  C   -0.146051
     5  O   -0.141546
     6  C    0.338705
     7  C   -0.125154
    13  C   -0.790017
    14  O    0.719749
    15  P    0.075191
    16  C    0.085119
    17  C    0.083136
    18  C    0.079207
    28  C   -0.965310
    29  O    0.921486
 Electronic spatial extent (au):  <R**2>=           3551.6423
 Charge=             -0.0000 electrons
 Dipole moment (field-independent basis, Debye):
    X=             -2.7211    Y=              2.5746    Z=              0.0022  Tot=              3.7460
 Quadrupole moment (field-independent basis, Debye-Ang):
   XX=            -95.3261   YY=           -106.4329   ZZ=           -104.3704
   XY=            -10.7216   XZ=             -1.9084   YZ=              0.2767
 Traceless Quadrupole moment (field-independent basis, Debye-Ang):
   XX=              6.7170   YY=             -4.3898   ZZ=             -2.3272
   XY=            -10.7216   XZ=             -1.9084   YZ=              0.2767
 Octapole moment (field-independent basis, Debye-Ang**2):
  XXX=             -9.1126  YYY=            -19.6112  ZZZ=            -14.3868  XYY=            -15.0182
  XXY=             -8.2202  XXZ=              2.7811  XZZ=             -3.2185  YZZ=             -0.0663
  YYZ=              5.6501  XYZ=              5.7870
 Hexadecapole moment (field-independent basis, Debye-Ang**3):
 XXXX=          -2452.0147 YYYY=          -1404.0945 ZZZZ=           -875.9119 XXXY=            -49.7294
 XXXZ=              1.4831 YYYX=            -42.5792 YYYZ=             -7.3375 ZZZX=              2.0107
 ZZZY=             19.0863 XXYY=           -665.2812 XXZZ=           -545.1860 YYZZ=           -384.1067
 XXYZ=             -7.6100 YYXZ=             -8.4591 ZZXY=              1.3924
 N-N= 1.111223738354D+03 E-N=-4.529217296240D+03  KE= 9.188029179596D+02
  Exact polarizability:   0.000   0.000   0.000   0.000   0.000   0.000
 Approx polarizability: 191.120  12.827 200.269   7.716   2.034 189.690
 No NMR shielding tensors so no spin-rotation constants.
 Leave Link  601 at Tue Oct  4 22:48:30 2022, MaxMem=  2952790016 cpu:              13.3 elap:               1.2
 (Enter /mnt/data/applications/G16/g16/l701.exe)
 ... and contract with generalized density number  0.
 Compute integral second derivatives.
 R6Disp: Adding Grimme-D2 dispersion energy 2nd derivatives to the Hessian.
   1 Symmetry operations used in ECPInt.
 ECPInt:  NShTT=   22578 NPrTT=   66767 LenC2=   20894 LenP2D=   46062.
 LDataN:  DoStor=T MaxTD1= 9 Len=  602
 D2PCM: PCM CHGder 2nd derivatives, FixD1E=F FixD2E=F DoIter=F DoCFld=F I1PDM=0
 GePol: Maximum number of non-zero 2nd derivatives   =     436
 Leave Link  701 at Tue Oct  4 22:49:42 2022, MaxMem=  2952790016 cpu:             864.3 elap:              72.2
 (Enter /mnt/data/applications/G16/g16/l702.exe)
 L702 exits ... SP integral derivatives will be done elsewhere.
 Leave Link  702 at Tue Oct  4 22:49:42 2022, MaxMem=  2952790016 cpu:               0.2 elap:               0.0
 (Enter /mnt/data/applications/G16/g16/l703.exe)
 Integral derivatives from FoFJK, PRISM(SPDF).
 Compute integral second derivatives, UseDBF=F ICtDFT=           0.
 Calling FoFJK, ICntrl=    100147 FMM=F ISym2X=0 I1Cent= 0 IOpClX= 0 NMat=1 NMatS=1 NMatT=0.
 FoFJK:  IHMeth= 1 ICntrl=  100147 DoSepK=T KAlg= 0 I1Cent=           0 FoldK=F
 IRaf=         1 NMat=       1 IRICut=       1 DoRegI=T DoRafI=F ISym2E= 0 IDoP0=0 IntGTp=1.
 FoFCou: FMM=F IPFlag=           0 FMFlag=      100000 FMFlg1=         800
         NFxFlg=           0 DoJE=F BraDBF=F KetDBF=F FulRan=T
         wScrn=  0.000000 ICntrl=    100547 IOpCl=  0 I1Cent=           0 NGrid=           0
         NMat0=    1 NMatS0=      1 NMatT0=    0 NMatD0=    1 NMtDS0=    0 NMtDT0=    0
 Symmetry not used in FoFCou.
 Defaulting to unpruned grid for atomic number  45.
 Defaulting to unpruned grid for atomic number  45.
 Defaulting to unpruned grid for atomic number  45.
 Defaulting to unpruned grid for atomic number  45.
 Defaulting to unpruned grid for atomic number  45.
 Defaulting to unpruned grid for atomic number  45.
 Defaulting to unpruned grid for atomic number  45.
 Defaulting to unpruned grid for atomic number  45.
 Defaulting to unpruned grid for atomic number  45.
 Defaulting to unpruned grid for atomic number  45.
 Defaulting to unpruned grid for atomic number  45.
 Defaulting to unpruned grid for atomic number  45.
 Leave Link  703 at Tue Oct  4 23:16:22 2022, MaxMem=  2952790016 cpu:           19149.1 elap:            1600.0
 (Enter /mnt/data/applications/G16/g16/l716.exe)
 Dipole        =-1.07054746D+00 1.01291242D+00 8.47210368D-04
 Polarizability= 0.00000000D+00 0.00000000D+00 0.00000000D+00
                 0.00000000D+00 0.00000000D+00 0.00000000D+00
 ***** Axes restored to original set *****
 -------------------------------------------------------------------
 Center     Atomic                   Forces (Hartrees/Bohr)
 Number     Number              X              Y              Z
 -------------------------------------------------------------------
      1        1           0.000377098   -0.000440258   -0.000107003
      2        1          -0.000128787   -0.000180245   -0.000134029
      3       45          -0.001380646    0.000935986    0.000253897
      4        6           0.000517471    0.000177728    0.000240874
      5        8          -0.000031710   -0.000081788   -0.000074470
      6        6          -0.000027325    0.000061068   -0.000049230
      7        6          -0.000003729   -0.000030922    0.000012764
      8        1          -0.000001121   -0.000016762   -0.000005016
      9        1          -0.000019417    0.000001335    0.000010419
     10        1          -0.000000405   -0.000012717    0.000003532
     11        1           0.000005606   -0.000016423    0.000002353
     12        1           0.000004862   -0.000018007    0.000006338
     13        6           0.000368835    0.000026516    0.000225450
     14        8          -0.000128917   -0.000008989   -0.000062042
     15       15           0.000185522   -0.000300049   -0.000050689
     16        6           0.000023931   -0.000042232   -0.000005011
     17        6           0.000029201   -0.000033945   -0.000004097
     18        6           0.000037436   -0.000029417   -0.000007512
     19        1           0.000007734    0.000005053   -0.000003864
     20        1           0.000033448    0.000025967   -0.000011148
     21        1          -0.000008100    0.000005884   -0.000006583
     22        1           0.000005874    0.000002055   -0.000000051
     23        1           0.000004975    0.000005839   -0.000001918
     24        1           0.000010162    0.000002222    0.000021810
     25        1           0.000001265   -0.000002130    0.000006354
     26        1           0.000009268   -0.000001028   -0.000004312
     27        1          -0.000004689   -0.000006745   -0.000025216
     28        6           0.000169568   -0.000072368   -0.000304838
     29        8          -0.000057408    0.000044374    0.000073239
 -------------------------------------------------------------------
 Cartesian Forces:  Max     0.001380646 RMS     0.000217738
 FormGI is forming the generalized inverse of G from B-inverse, IUseBI=4.
 Leave Link  716 at Tue Oct  4 23:16:22 2022, MaxMem=  2952790016 cpu:               0.5 elap:               0.1
 (Enter /mnt/data/applications/G16/g16/l103.exe)

 GradGradGradGradGradGradGradGradGradGradGradGradGradGradGradGradGradGrad
 Berny optimization.
 Red2BG is reusing G-inverse.
 Internal  Forces:  Max     0.000588423 RMS     0.000094197
 Search for a saddle point.
 Step number   1 out of a maximum of  161
 All quantities printed in internal units (Hartrees-Bohrs-Radians)
 Swapping is turned off.
 Second derivative matrix not updated -- analytic derivatives used.
 ITU=  0
     Eigenvalues ---   -0.03807   0.00139   0.00161   0.00224   0.00224
     Eigenvalues ---    0.00255   0.00329   0.00709   0.01689   0.02017
     Eigenvalues ---    0.02190   0.02384   0.02798   0.03007   0.03470
     Eigenvalues ---    0.03620   0.03824   0.03980   0.04010   0.04024
     Eigenvalues ---    0.04052   0.04110   0.04175   0.04218   0.04437
     Eigenvalues ---    0.04555   0.04865   0.04958   0.06303   0.07080
     Eigenvalues ---    0.07685   0.07830   0.07952   0.08844   0.09715
     Eigenvalues ---    0.09794   0.10153   0.10878   0.11080   0.11145
     Eigenvalues ---    0.11194   0.11327   0.11425   0.12027   0.12265
     Eigenvalues ---    0.12284   0.12967   0.13535   0.14427   0.14612
     Eigenvalues ---    0.14709   0.14957   0.16009   0.16281   0.16904
     Eigenvalues ---    0.19262   0.19971   0.21822   0.22498   0.22634
     Eigenvalues ---    0.23722   0.25521   0.29699   0.31655   0.33580
     Eigenvalues ---    0.34142   0.34168   0.34175   0.34216   0.34263
     Eigenvalues ---    0.34449   0.34484   0.34638   0.34671   0.34867
     Eigenvalues ---    0.34959   0.35076   0.35281   0.81933   1.16757
     Eigenvalues ---    1.19577
 Eigenvectors required to have negative eigenvalues:
                          A5        A6        R3        D12       D11
   1                   -0.42193  -0.31885   0.27015   0.25494   0.24811
                          D13       R2        A11       A8        D16
   1                    0.24788   0.22402  -0.21938   0.20190  -0.17381
 RFO step:  Lambda0=1.776932286D-07 Lambda=-1.74181252D-05.
 Linear search not attempted -- option 19 set.
 Iteration  1 RMS(Cart)=  0.00353141 RMS(Int)=  0.00000588
 Iteration  2 RMS(Cart)=  0.00001149 RMS(Int)=  0.00000132
 Iteration  3 RMS(Cart)=  0.00000000 RMS(Int)=  0.00000132
 ITry= 1 IFail=0 DXMaxC= 1.53D-02 DCOld= 1.00D+10 DXMaxT= 2.00D-02 DXLimC= 3.00D+00 Rises=F
 Variable       Old X    -DE/DX   Delta X   Delta X   Delta X     New X
                                 (Linear)    (Quad)   (Total)
    R1        3.00164   0.00059   0.00000   0.00455   0.00455   3.00619
    R2        3.15176  -0.00004   0.00000  -0.00095  -0.00095   3.15081
    R3        4.11363   0.00044   0.00000   0.00608   0.00608   4.11971
    R4        3.62570   0.00017   0.00000   0.00106   0.00106   3.62676
    R5        4.52717  -0.00053   0.00000  -0.00690  -0.00690   4.52027
    R6        3.66908   0.00003   0.00000  -0.00142  -0.00142   3.66765
    R7        2.28243  -0.00008   0.00000  -0.00076  -0.00076   2.28167
    R8        2.87025  -0.00005   0.00000  -0.00071  -0.00071   2.86954
    R9        2.86992  -0.00001   0.00000  -0.00011  -0.00011   2.86981
   R10        2.06373   0.00001   0.00000   0.00011   0.00011   2.06384
   R11        2.06690   0.00000   0.00000  -0.00006  -0.00006   2.06684
   R12        2.06254  -0.00000   0.00000  -0.00002  -0.00002   2.06252
   R13        2.06192  -0.00000   0.00000  -0.00003  -0.00003   2.06188
   R14        2.06030  -0.00000   0.00000   0.00002   0.00002   2.06032
   R15        2.15005  -0.00007   0.00000  -0.00002  -0.00002   2.15002
   R16        3.42745  -0.00005   0.00000  -0.00016  -0.00016   3.42729
   R17        3.42942  -0.00005   0.00000  -0.00015  -0.00015   3.42927
   R18        3.43582  -0.00006   0.00000  -0.00031  -0.00031   3.43551
   R19        2.06144  -0.00000   0.00000  -0.00001  -0.00001   2.06143
   R20        2.05932  -0.00000   0.00000  -0.00000  -0.00000   2.05932
   R21        2.06336  -0.00000   0.00000   0.00001   0.00001   2.06337
   R22        2.05891  -0.00000   0.00000   0.00002   0.00002   2.05894
   R23        2.06199  -0.00000   0.00000  -0.00003  -0.00003   2.06197
   R24        2.06320  -0.00000   0.00000  -0.00001  -0.00001   2.06320
   R25        2.06191  -0.00000   0.00000  -0.00001  -0.00001   2.06190
   R26        2.06332  -0.00000   0.00000  -0.00000  -0.00000   2.06332
   R27        2.06172   0.00000   0.00000  -0.00003  -0.00003   2.06168
   R28        2.14696  -0.00002   0.00000   0.00010   0.00010   2.14706
    A1        1.50612  -0.00010   0.00000  -0.00213  -0.00213   1.50399
    A2        1.52652  -0.00009   0.00000  -0.00138  -0.00138   1.52513
    A3        1.50734  -0.00004   0.00000  -0.00036  -0.00036   1.50698
    A4        1.48208   0.00000   0.00000  -0.00153  -0.00154   1.48054
    A5        0.73104   0.00019   0.00000   0.00066   0.00066   0.73170
    A6        2.46579   0.00000   0.00000  -0.00261  -0.00262   2.46318
    A7        1.59656   0.00007   0.00000   0.00143   0.00143   1.59799
    A8        1.85478  -0.00023   0.00000  -0.00560  -0.00560   1.84918
    A9        1.74231  -0.00017   0.00000  -0.00302  -0.00302   1.73929
   A10        1.59062   0.00008   0.00000   0.00137   0.00137   1.59199
   A11        2.57906  -0.00004   0.00000  -0.00509  -0.00509   2.57397
   A12        1.66904   0.00008   0.00000   0.00131   0.00132   1.67035
   A13        1.93470   0.00018   0.00000   0.00720   0.00719   1.94189
   A14        1.66417  -0.00002   0.00000   0.00082   0.00083   1.66500
   A15        2.12296  -0.00004   0.00000  -0.00051  -0.00051   2.12245
   A16        2.01790   0.00001   0.00000  -0.00030  -0.00030   2.01759
   A17        2.11618   0.00003   0.00000   0.00115   0.00115   2.11732
   A18        1.99080   0.00006   0.00000   0.00018   0.00018   1.99098
   A19        1.87507  -0.00001   0.00000  -0.00061  -0.00061   1.87446
   A20        1.85935  -0.00003   0.00000   0.00017   0.00017   1.85952
   A21        1.94990  -0.00002   0.00000   0.00015   0.00015   1.95004
   A22        1.94113  -0.00001   0.00000   0.00025   0.00025   1.94138
   A23        1.83872   0.00001   0.00000  -0.00019  -0.00019   1.83853
   A24        1.92087   0.00000   0.00000  -0.00010  -0.00010   1.92077
   A25        1.94226  -0.00000   0.00000   0.00009   0.00009   1.94235
   A26        1.94387   0.00000   0.00000   0.00001   0.00001   1.94388
   A27        1.88739  -0.00000   0.00000   0.00001   0.00001   1.88739
   A28        1.88855  -0.00000   0.00000  -0.00009  -0.00009   1.88846
   A29        1.87894   0.00000   0.00000   0.00008   0.00008   1.87902
   A30        2.00585   0.00000   0.00000   0.00021   0.00021   2.00606
   A31        2.01046  -0.00002   0.00000  -0.00031  -0.00031   2.01016
   A32        1.99944  -0.00001   0.00000   0.00012   0.00012   1.99956
   A33        1.81602   0.00001   0.00000  -0.00011  -0.00011   1.81591
   A34        1.80531   0.00000   0.00000  -0.00016  -0.00016   1.80515
   A35        1.80027   0.00002   0.00000   0.00024   0.00024   1.80051
   A36        1.90603   0.00000   0.00000   0.00003   0.00003   1.90606
   A37        1.89641   0.00001   0.00000   0.00018   0.00018   1.89660
   A38        1.94222  -0.00004   0.00000  -0.00031  -0.00031   1.94191
   A39        1.89830   0.00000   0.00000   0.00007   0.00007   1.89837
   A40        1.90799   0.00002   0.00000   0.00010   0.00010   1.90809
   A41        1.91235   0.00001   0.00000  -0.00007  -0.00007   1.91228
   A42        1.90085   0.00001   0.00000   0.00012   0.00012   1.90097
   A43        1.90904  -0.00000   0.00000  -0.00002  -0.00002   1.90901
   A44        1.94142  -0.00004   0.00000  -0.00010  -0.00010   1.94132
   A45        1.89849  -0.00001   0.00000  -0.00011  -0.00011   1.89839
   A46        1.91046   0.00001   0.00000  -0.00000  -0.00000   1.91046
   A47        1.90310   0.00002   0.00000   0.00012   0.00012   1.90322
   A48        1.91318  -0.00000   0.00000  -0.00016  -0.00016   1.91302
   A49        1.94290  -0.00005   0.00000  -0.00037  -0.00037   1.94252
   A50        1.91029   0.00002   0.00000   0.00023   0.00023   1.91052
   A51        1.90176   0.00002   0.00000   0.00007   0.00007   1.90183
   A52        1.88908  -0.00000   0.00000   0.00003   0.00003   1.88911
   A53        1.90582   0.00002   0.00000   0.00020   0.00020   1.90603
   A54        3.10268  -0.00003   0.00000  -0.00070  -0.00070   3.10199
   A55        3.10285   0.00025   0.00000   0.00093   0.00093   3.10378
   A56        3.19957  -0.00017   0.00000  -0.00056  -0.00056   3.19901
   A57        3.13485  -0.00002   0.00000  -0.00073  -0.00073   3.13412
   A58        3.16719   0.00005   0.00000   0.00029   0.00029   3.16748
   A59        3.17105   0.00011   0.00000  -0.00147  -0.00147   3.16959
    D1       -3.08083  -0.00005   0.00000  -0.00205  -0.00205  -3.08288
    D2       -0.18016  -0.00002   0.00000  -0.00039  -0.00038  -0.18055
    D3        1.67907   0.00000   0.00000  -0.00041  -0.00041   1.67866
    D4       -1.70345   0.00003   0.00000   0.00126   0.00125  -1.70219
    D5       -1.58219  -0.00011   0.00000  -0.00249  -0.00248  -1.58468
    D6        1.31847  -0.00007   0.00000  -0.00082  -0.00082   1.31766
    D7        0.09178  -0.00002   0.00000  -0.00103  -0.00102   0.09076
    D8        2.99245   0.00001   0.00000   0.00064   0.00064   2.99309
    D9        1.87038   0.00007   0.00000   0.00097   0.00096   1.87134
   D10       -1.51214   0.00010   0.00000   0.00263   0.00263  -1.50951
   D11        0.28751  -0.00011   0.00000  -0.00243  -0.00243   0.28508
   D12       -1.82366  -0.00012   0.00000  -0.00220  -0.00220  -1.82586
   D13        2.37512  -0.00012   0.00000  -0.00238  -0.00238   2.37274
   D14        1.01872   0.00008   0.00000  -0.00174  -0.00174   1.01698
   D15       -1.09245   0.00008   0.00000  -0.00151  -0.00151  -1.09396
   D16        3.10633   0.00007   0.00000  -0.00170  -0.00170   3.10464
   D17        2.76389  -0.00008   0.00000  -0.00459  -0.00459   2.75930
   D18        0.65272  -0.00009   0.00000  -0.00436  -0.00436   0.64836
   D19       -1.43169  -0.00009   0.00000  -0.00454  -0.00454  -1.43623
   D20       -1.57117   0.00011   0.00000   0.00301   0.00301  -1.56816
   D21        2.60085   0.00011   0.00000   0.00324   0.00324   2.60409
   D22        0.51644   0.00010   0.00000   0.00306   0.00306   0.51950
   D23       -3.03831  -0.00001   0.00000   0.00416   0.00416  -3.03416
   D24        1.07357  -0.00002   0.00000   0.00430   0.00430   1.07787
   D25       -0.88990  -0.00001   0.00000   0.00471   0.00471  -0.88519
   D26       -0.13663   0.00001   0.00000   0.00557   0.00557  -0.13106
   D27       -2.30793   0.00001   0.00000   0.00571   0.00571  -2.30222
   D28        2.01179   0.00002   0.00000   0.00612   0.00612   2.01791
   D29       -3.14087  -0.00000   0.00000   0.00067   0.00067  -3.14019
   D30       -1.04888  -0.00001   0.00000   0.00067   0.00067  -1.04820
   D31        1.04783  -0.00000   0.00000   0.00085   0.00085   1.04867
   D32       -1.01018   0.00001   0.00000   0.00012   0.00012  -1.01006
   D33        1.08181   0.00000   0.00000   0.00012   0.00012   1.08194
   D34       -3.10467   0.00001   0.00000   0.00029   0.00029  -3.10438
   D35        1.03901   0.00000   0.00000   0.00014   0.00014   1.03915
   D36        3.13100  -0.00000   0.00000   0.00014   0.00014   3.13114
   D37       -1.05549   0.00000   0.00000   0.00031   0.00031  -1.05517
   D38        1.02826   0.00000   0.00000   0.00087   0.00087   1.02912
   D39       -1.03996  -0.00000   0.00000   0.00066   0.00066  -1.03930
   D40        3.13619   0.00000   0.00000   0.00082   0.00082   3.13700
   D41       -3.04045  -0.00001   0.00000   0.00053   0.00053  -3.03992
   D42        1.17452  -0.00002   0.00000   0.00032   0.00032   1.17484
   D43       -0.93252  -0.00001   0.00000   0.00048   0.00048  -0.93204
   D44       -1.16405   0.00002   0.00000   0.00070   0.00070  -1.16335
   D45        3.05091   0.00001   0.00000   0.00049   0.00049   3.05140
   D46        0.94388   0.00002   0.00000   0.00065   0.00065   0.94453
   D47        0.98573   0.00001   0.00000   0.00065   0.00065   0.98638
   D48       -1.08706   0.00001   0.00000   0.00073   0.00073  -1.08633
   D49        3.09282   0.00001   0.00000   0.00066   0.00066   3.09348
   D50       -1.22586   0.00001   0.00000   0.00067   0.00067  -1.22519
   D51        2.98453   0.00000   0.00000   0.00075   0.00075   2.98528
   D52        0.88123   0.00001   0.00000   0.00068   0.00068   0.88191
   D53       -3.10601  -0.00001   0.00000   0.00079   0.00079  -3.10522
   D54        1.10438  -0.00001   0.00000   0.00087   0.00087   1.10525
   D55       -0.99892  -0.00001   0.00000   0.00080   0.00080  -0.99812
   D56       -1.08715  -0.00001   0.00000  -0.00019  -0.00019  -1.08734
   D57        3.09073  -0.00000   0.00000   0.00007   0.00007   3.09080
   D58        0.98225  -0.00000   0.00000  -0.00010  -0.00010   0.98215
   D59        1.10927  -0.00001   0.00000   0.00004   0.00004   1.10930
   D60       -0.99604  -0.00000   0.00000   0.00029   0.00029  -0.99575
   D61       -3.10452  -0.00001   0.00000   0.00012   0.00012  -3.10440
   D62        2.99750   0.00001   0.00000  -0.00005  -0.00005   2.99745
   D63        0.89219   0.00002   0.00000   0.00020   0.00020   0.89239
   D64       -1.21629   0.00001   0.00000   0.00003   0.00003  -1.21626
         Item               Value     Threshold  Converged?
 Maximum Force            0.000588     0.000450     NO 
 RMS     Force            0.000094     0.000300     YES
 Maximum Displacement     0.015324     0.001800     NO 
 RMS     Displacement     0.003533     0.001200     NO 
 Predicted change in Energy=-8.620194D-06
 Lowest energy point so far.  Saving SCF results.
 GradGradGradGradGradGradGradGradGradGradGradGradGradGradGradGradGradGrad

 Leave Link  103 at Tue Oct  4 23:16:22 2022, MaxMem=  2952790016 cpu:               0.6 elap:               0.1
 (Enter /mnt/data/applications/G16/g16/l202.exe)
                          Input orientation:                          
 ---------------------------------------------------------------------
 Center     Atomic      Atomic             Coordinates (Angstroms)
 Number     Number       Type             X           Y           Z
 ---------------------------------------------------------------------
      1          1           0        0.950281   -2.045048   -0.284233
      2          1           0        0.891873   -0.110298   -1.384188
      3         45           0        0.013671   -0.768590   -0.129029
      4          6           0        1.801150    0.451114   -0.393392
      5          8           0        1.762618    1.655419   -0.315927
      6          6           0        3.120023   -0.300453   -0.354025
      7          6           0        4.345269    0.595920   -0.393438
      8          1           0        3.114177   -1.013845   -1.180948
      9          1           0        3.104162   -0.909917    0.554013
     10          1           0        5.252945   -0.009444   -0.363583
     11          1           0        4.367441    1.196712   -1.303966
     12          1           0        4.364365    1.280386    0.454999
     13          6           0        0.112442   -1.078625    1.762387
     14          8           0        0.213498   -1.290064    2.875733
     15         15           0       -1.358762    1.184743    0.021582
     16          6           0       -1.286535    2.283093   -1.419845
     17          6           0       -0.996690    2.276152    1.425448
     18          6           0       -3.135592    0.847616    0.206852
     19          1           0       -3.500461    0.313288   -0.671722
     20          1           0       -3.704837    1.772247    0.321645
     21          1           0       -3.296512    0.216081    1.081805
     22          1           0       -1.595233    1.730273   -2.308143
     23          1           0       -0.257427    2.615561   -1.553803
     24          1           0       -1.937001    3.150388   -1.289801
     25          1           0        0.051696    2.569785    1.383386
     26          1           0       -1.173282    1.737473    2.357778
     27          1           0       -1.625466    3.168474    1.404929
     28          6           0       -1.344239   -1.882560   -0.954865
     29          8           0       -2.096375   -2.591509   -1.426639
 ---------------------------------------------------------------------
                    Distance matrix (angstroms):
                    1          2          3          4          5
     1  H    0.000000
     2  H    2.226336   0.000000
     3  Rh   1.590809   1.667337   0.000000
     4  C    2.639454   1.457273   2.180057   0.000000
     5  O    3.788714   2.239896   2.994923   1.207409   0.000000
     6  C    2.785007   2.462123   3.149476   1.518496   2.381058
     7  C    4.302625   3.661458   4.549125   2.548236   2.792603
     8  H    2.559282   2.407558   3.283264   2.119053   3.114473
     9  H    2.574953   3.047990   3.168226   2.108986   3.022828
    10  H    4.760556   4.480039   5.299180   3.482511   3.867353
    11  H    4.819320   3.714066   4.919167   2.823280   2.823427
    12  H    4.822960   4.168310   4.844370   2.824452   2.739355
    13  C    2.413422   3.383210   1.919201   3.136754   3.810179
    14  O    3.331402   4.472021   3.056217   4.029829   4.611110
    15  P    3.982055   2.952741   2.392022   3.270392   3.174659
    16  C    5.002576   3.236519   3.559426   3.734107   3.303020
    17  C    5.038500   4.141964   3.564783   3.803532   3.321366
    18  C    5.030212   4.435029   3.555671   4.988881   4.991824
    19  H    5.051832   4.469858   3.716733   5.310701   5.443152
    20  H    6.050534   5.252008   4.526175   5.707238   5.505743
    21  H    5.001402   4.871367   3.659646   5.312025   5.442439
    22  H    4.982861   3.229100   3.685298   4.103405   3.905085
    23  H    4.979121   2.963100   3.681841   3.204548   2.556324
    24  H    6.028277   4.317813   4.528896   4.697170   4.107377
    25  H    4.988496   3.943121   3.665186   3.272048   2.578950
    26  H    5.079095   4.656332   3.724703   4.250989   3.971767
    27  H    6.055457   4.986634   4.532138   4.728606   4.090207
    28  C    2.396033   2.885382   1.940839   3.956610   4.751641
    29  O    3.299367   3.884307   3.075569   5.051322   5.844819
                    6          7          8          9         10
     6  C    0.000000
     7  C    1.518639   0.000000
     8  H    1.092137   2.174190   0.000000
     9  H    1.093723   2.169230   1.738101   0.000000
    10  H    2.152703   1.091436   2.500247   2.504017   0.000000
    11  H    2.167936   1.091102   2.544085   3.079911   1.767272
    12  H    2.168400   1.090277   3.082659   2.528901   1.767289
    13  C    3.759029   5.036716   4.204502   3.230947   5.664598
    14  O    4.456294   5.596065   4.994687   3.727041   6.126106
    15  P    4.733541   5.749341   5.127090   4.958707   6.729718
    16  C    5.218088   5.968021   5.503920   5.776647   7.009723
    17  C    5.172306   5.887958   5.875083   5.265683   6.890755
    18  C    6.384776   7.509126   6.667131   6.491839   8.451479
    19  H    6.656457   7.855749   6.765650   6.827862   8.764771
    20  H    7.164589   8.166963   7.517915   7.321917   9.158920
    21  H    6.595479   7.792139   6.908668   6.520358   8.673708
    22  H    5.493275   6.343690   5.565904   6.103020   7.328401
    23  H    4.620582   5.158508   4.967828   5.307746   6.218639
    24  H    6.193342   6.840737   6.547296   6.730457   7.908080
    25  H    4.546592   5.048565   5.366283   4.702524   6.062781
    26  H    5.471699   6.271103   6.202792   5.344040   7.194019
    27  H    6.135719   6.745505   6.829551   6.302913   7.780703
    28  C    4.774276   6.231257   4.547884   4.796980   6.883387
    29  O    5.797435   7.260991   5.449701   5.813460   7.861911
                   11         12         13         14         15
    11  H    0.000000
    12  H    1.760957   0.000000
    13  C    5.717054   5.035180   0.000000
    14  O    6.396029   5.449482   1.137743   0.000000
    15  P    5.877638   5.740312   3.212114   4.091803   0.000000
    16  C    5.758567   6.037643   4.835792   5.785286   1.813643
    17  C    6.114637   5.538432   3.549398   4.035564   1.814692
    18  C    7.661589   7.516529   4.084093   4.786336   1.817995
    19  H    7.942547   8.003765   4.573333   5.380397   2.413914
    20  H    8.254425   8.085278   4.977432   5.590569   2.437061
    21  H    8.086391   7.759811   3.709504   4.219813   2.411898
    22  H    6.070134   6.584387   5.232138   6.266300   2.404400
    23  H    4.844064   5.213342   4.978044   5.924227   2.396250
    24  H    6.600230   6.800621   5.603625   6.457084   2.432662
    25  H    5.266199   4.596038   3.668545   4.141462   2.400467
    26  H    6.663363   5.873246   3.152456   3.370076   2.407846
    27  H    6.865923   6.351796   4.602820   5.042184   2.433099
    28  C    6.498237   6.676833   3.186172   4.177449   3.219008
    29  O    7.493103   7.763587   4.163842   5.053680   4.111144
                   16         17         18         19         20
    16  C    0.000000
    17  C    2.860026   0.000000
    18  C    2.850570   2.846154   0.000000
    19  H    3.056352   3.810489   1.091113   0.000000
    20  H    3.023563   2.967552   1.091861   1.776825   0.000000
    21  H    3.817171   3.106633   1.090997   1.768021   1.779389
    22  H    1.090861   3.820463   3.078472   2.883681   3.371643
    23  H    1.089745   3.088307   3.809116   4.073794   4.014115
    24  H    1.091887   3.003506   2.996556   3.297812   2.760666
    25  H    3.119480   1.089542   3.809055   4.683275   3.984332
    26  H    3.818502   1.091146   3.044502   4.077001   3.248972
    27  H    2.979618   1.091796   3.016994   3.997521   2.728872
    28  C    4.191921   4.804328   3.465890   3.090504   4.534260
    29  O    4.941420   5.747855   3.946625   3.313489   4.968503
                   21         22         23         24         25
    21  H    0.000000
    22  H    4.083977   0.000000
    23  H    4.684012   1.772706   0.000000
    24  H    4.010354   1.780605   1.782332   0.000000
    25  H    4.103824   4.128503   2.953765   3.382003   0.000000
    26  H    2.907034   4.684966   4.112212   3.985527   1.772781
    27  H    3.407848   3.981990   3.306258   2.712739   1.780945
    28  C    3.516203   3.866125   4.666152   5.078791   5.219140
    29  O    3.951605   4.439143   5.523720   5.745739   6.256949
                   26         27         28         29
    26  H    0.000000
    27  H    1.777683   0.000000
    28  C    4.909936   5.582174   0.000000
    29  O    5.823573   6.435600   1.136173   0.000000
 Stoichiometry    C8H16O3PRh
 Framework group  C1[X(C8H16O3PRh)]
 Deg. of freedom    81
 Full point group                 C1      NOp   1
 RotChk:  IX=0 Diff= 2.84D-03
 Largest Abelian subgroup         C1      NOp   1
 Largest concise Abelian subgroup C1      NOp   1
                         Standard orientation:                         
 ---------------------------------------------------------------------
 Center     Atomic      Atomic             Coordinates (Angstroms)
 Number     Number       Type             X           Y           Z
 ---------------------------------------------------------------------
      1          1           0        0.951983   -2.045985   -0.282195
      2          1           0        0.891017   -0.113076   -1.385245
      3         45           0        0.014406   -0.770078   -0.128300
      4          6           0        1.800622    0.450724   -0.396107
      5          8           0        1.761119    1.655120   -0.320568
      6          6           0        3.120170   -0.299648   -0.356596
      7          6           0        4.344614    0.597709   -0.398469
      8          1           0        3.114261   -1.014388   -1.182355
      9          1           0        3.105573   -0.907648    0.552444
     10          1           0        5.252833   -0.006828   -0.368372
     11          1           0        4.365527    1.197039   -1.309991
     12          1           0        4.363815    1.283570    0.448839
     13          6           0        0.114986   -1.076952    1.763536
     14          8           0        0.217133   -1.286494    2.877142
     15         15           0       -1.359579    1.182321    0.020258
     16          6           0       -1.289471    2.278387   -1.423011
     17          6           0       -0.997297    2.276321    1.422051
     18          6           0       -3.135967    0.843974    0.207529
     19          1           0       -3.501095    0.307906   -0.669877
     20          1           0       -3.705912    1.768303    0.321284
     21          1           0       -3.295631    0.213725    1.083638
     22          1           0       -1.598419    1.723859   -2.310156
     23          1           0       -0.260758    2.611518   -1.558351
     24          1           0       -1.940574    3.145335   -1.293845
     25          1           0        0.050801    2.570783    1.378655
     26          1           0       -1.172666    1.739008    2.355400
     27          1           0       -1.626855    3.168070    1.400597
     28          6           0       -1.343222   -1.886552   -0.951213
     29          8           0       -2.095135   -2.596912   -1.421220
 ---------------------------------------------------------------------
 Rotational constants (GHZ):           0.6118921           0.4337838           0.3617670
 Leave Link  202 at Tue Oct  4 23:16:22 2022, MaxMem=  2952790016 cpu:               0.1 elap:               0.0
 (Enter /mnt/data/applications/G16/g16/l301.exe)
 Basis read from rwf:  (5D, 7F)
 Pseudo-potential data read from rwf file.
 There are   573 symmetry adapted cartesian basis functions of A   symmetry.
 There are   510 symmetry adapted basis functions of A   symmetry.
   510 basis functions,   823 primitive gaussians,   573 cartesian basis functions
    60 alpha electrons       60 beta electrons
       nuclear repulsion energy      1111.2950296999 Hartrees.
 IExCor= 4639 DFT=T Ex+Corr=wB97XD ExCW=0 ScaHFX=  1.000000
 ScaDFX=  1.000000  1.000000  1.000000  1.000000 ScalE2=  1.000000  1.000000
 IRadAn=      5 IRanWt=     -1 IRanGd=            0 ICorTp=0 IEmpDi=121
 HFx  wShort=  0.000000 wLong=  0.200000 cFull=  0.222036 cShort=  0.000000 cLong=  0.777964
 DFx  wShort=  0.000000 wLong=  0.200000 cFull=  0.000000 cShort=  0.000000 cLong=  1.000000
 NAtoms=   29 NActive=   29 NUniq=   29 SFac= 1.00D+00 NAtFMM=   60 NAOKFM=F Big=F
 Integral buffers will be    131072 words long.
 Raffenetti 2 integral format.
 Two-electron integral symmetry is turned on.
 R6Disp:  Grimme-D2 Dispersion energy=       -0.0242882315 Hartrees.
 Nuclear repulsion after empirical dispersion term =     1111.2707414684 Hartrees.
 No density basis found on file   724.
 ------------------------------------------------------------------------------
 Polarizable Continuum Model (PCM)
 =================================
 Model                : PCM.
 Atomic radii         : SMD-Coulomb.
 Polarization charges : Total charges.
 Charge compensation  : None.
 Solution method      : Matrix inversion.
 Cavity type          : VdW (van der Waals Surface) (Alpha=1.000).
 Cavity algorithm     : GePol (No added spheres)
                        Default sphere list used, NSphG=   29.
                        Lebedev-Laikov grids with approx.  5.0 points / Ang**2.
                        Smoothing algorithm: York/Karplus (Gamma=1.0000).
                        Polarization charges: spherical gaussians, with
                                              point-specific exponents (IZeta= 3).
                        Self-potential: point-specific (ISelfS= 7).
                        Self-field    : sphere-specific E.n sum rule (ISelfD= 2).
 1st derivatives      : Analytical E(r).r(x)/FMM algorithm (CHGder, D1EAlg=3).
                        Cavity 1st derivative terms included.
 Solvent              : Toluene, Eps=   2.374100 Eps(inf)=   2.238315
 ------------------------------------------------------------------------------
 GePol: Number of generator spheres                  =      29
 GePol: Total number of spheres                      =      29
 GePol: Number of exposed spheres                    =      29 (100.00%)
 GePol: Number of points                             =    2605
 GePol: Average weight of points                     =       0.12
 GePol: Minimum weight of points                     =   0.13D-11
 GePol: Maximum weight of points                     =    0.20337
 GePol: Number of points with low weight             =     135
 GePol: Fraction of low-weight points (<1% of avg)   =       5.18%
 GePol: Cavity surface area                          =    309.937 Ang**2
 GePol: Cavity volume                                =    292.186 Ang**3
 ------------------------------------------------------------------------------
 Atomic radii for non-electrostatic terms: SMD-CDS.
 ------------------------------------------------------------------------------
 PCM non-electrostatic energy =        -0.0002754152 Hartrees.
 Nuclear repulsion after PCM non-electrostatic terms =     1111.2704660532 Hartrees.
 Leave Link  301 at Tue Oct  4 23:16:23 2022, MaxMem=  2952790016 cpu:               2.2 elap:               0.2
 (Enter /mnt/data/applications/G16/g16/l302.exe)
 NPDir=0 NMtPBC=     1 NCelOv=     1 NCel=       1 NClECP=     1 NCelD=      1
         NCelK=      1 NCelE2=     1 NClLst=     1 CellRange=     0.0.
 One-electron integrals computed using PRISM.
 One-electron integral symmetry used in STVInt
   1 Symmetry operations used in ECPInt.
 ECPInt:  NShTT=   22578 NPrTT=   66767 LenC2=   20894 LenP2D=   46066.
 LDataN:  DoStor=T MaxTD1= 7 Len=  274
 NBasis=   510 RedAO= T EigKep=  1.43D-04  NBF=   510
 NBsUse=   510 1.00D-06 EigRej= -1.00D+00 NBFU=   510
 Precomputing XC quadrature grid using
 IXCGrd= 4 IRadAn=           5 IRanWt=          -1 IRanGd=           0 AccXCQ= 0.00D+00.
 Defaulting to unpruned grid for atomic number  45.
 Generated NRdTot=       0 NPtTot=           0 NUsed=           0 NTot=          32
 NSgBfM=   568   568   568   568   568 MxSgAt=    29 MxSgA2=    29.
 Leave Link  302 at Tue Oct  4 23:16:24 2022, MaxMem=  2952790016 cpu:              23.0 elap:               1.9
 (Enter /mnt/data/applications/G16/g16/l303.exe)
 DipDrv:  MaxL=1.
 Leave Link  303 at Tue Oct  4 23:16:25 2022, MaxMem=  2952790016 cpu:               1.2 elap:               0.1
 (Enter /mnt/data/applications/G16/g16/l401.exe)
 Initial guess from the checkpoint file:  "TS4t.chk"
 B after Tr=    -0.000000    0.000000   -0.000000
         Rot=    0.999999    0.000985   -0.000493   -0.000470 Ang=   0.14 deg.
 Guess basis will be translated and rotated to current coordinates.
 JPrj=2 DoOrth=T DoCkMO=T.
 Leave Link  401 at Tue Oct  4 23:16:26 2022, MaxMem=  2952790016 cpu:              12.7 elap:               1.1
 (Enter /mnt/data/applications/G16/g16/l502.exe)
 Integral symmetry usage will be decided dynamically.
 Closed shell SCF:
 Using DIIS extrapolation, IDIIS=  1040.
 NGot=  2952790016 LenX=  2952121135 LenY=  2951792233
 Requested convergence on RMS density matrix=1.00D-08 within 128 cycles.
 Requested convergence on MAX density matrix=1.00D-06.
 Requested convergence on             energy=1.00D-06.
 No special actions if energy rises.
 Fock matrices will be formed incrementally for  20 cycles.

 Cycle   1  Pass 1  IDiag  1:
 FoFJK:  IHMeth= 1 ICntrl=       0 DoSepK=T KAlg= 0 I1Cent=           0 FoldK=F
 IRaf=         1 NMat=       1 IRICut=       1 DoRegI=T DoRafI=F ISym2E= 0 IDoP0=0 IntGTp=1.
 FoFCou: FMM=F IPFlag=           0 FMFlag=      100000 FMFlg1=           0
         NFxFlg=           0 DoJE=T BraDBF=F KetDBF=F FulRan=T
         wScrn=  0.000000 ICntrl=       500 IOpCl=  0 I1Cent=           0 NGrid=           0
         NMat0=    1 NMatS0=      1 NMatT0=    0 NMatD0=    1 NMtDS0=    0 NMtDT0=    0
 Symmetry not used in FoFCou.
 Defaulting to unpruned grid for atomic number  45.
 Defaulting to unpruned grid for atomic number  45.
 Defaulting to unpruned grid for atomic number  45.
 Defaulting to unpruned grid for atomic number  45.
 Defaulting to unpruned grid for atomic number  45.
 Defaulting to unpruned grid for atomic number  45.
 Defaulting to unpruned grid for atomic number  45.
 Defaulting to unpruned grid for atomic number  45.
 Defaulting to unpruned grid for atomic number  45.
 Defaulting to unpruned grid for atomic number  45.
 Defaulting to unpruned grid for atomic number  45.
 Defaulting to unpruned grid for atomic number  45.
 Inv3:  Mode=1 IEnd=    20358075.
 Iteration    1 A*A^-1 deviation from unit magnitude is 2.44D-15 for    118.
 Iteration    1 A*A^-1 deviation from orthogonality  is 1.40D-15 for    871    413.
 Iteration    1 A^-1*A deviation from unit magnitude is 2.44D-15 for   1256.
 Iteration    1 A^-1*A deviation from orthogonality  is 1.80D-15 for   2034    985.
 E= -992.208804332249    
 DIIS: error= 2.21D-04 at cycle   1 NSaved=   1.
 NSaved= 1 IEnMin= 1 EnMin= -992.208804332249     IErMin= 1 ErrMin= 2.21D-04
 ErrMax= 2.21D-04  0.00D+00 EMaxC= 1.00D-01 BMatC= 7.09D-05 BMatP= 7.09D-05
 IDIUse=3 WtCom= 9.98D-01 WtEn= 2.21D-03
 Coeff-Com:  0.100D+01
 Coeff-En:   0.100D+01
 Coeff:      0.100D+01
 Gap=     1.430 Goal=   None    Shift=    0.000
 RMSDP=1.69D-05 MaxDP=6.29D-04              OVMax= 1.34D-03

 Cycle   2  Pass 1  IDiag  1:
 RMSU=  1.69D-05    CP:  1.00D+00
 E= -992.208854376238     Delta-E=       -0.000050043988 Rises=F Damp=F
 DIIS: error= 3.58D-05 at cycle   2 NSaved=   2.
 NSaved= 2 IEnMin= 2 EnMin= -992.208854376238     IErMin= 2 ErrMin= 3.58D-05
 ErrMax= 3.58D-05  0.00D+00 EMaxC= 1.00D-01 BMatC= 1.96D-06 BMatP= 7.09D-05
 IDIUse=1 WtCom= 1.00D+00 WtEn= 0.00D+00
 Coeff-Com: -0.426D-01 0.104D+01
 Coeff:     -0.426D-01 0.104D+01
 Gap=     0.322 Goal=   None    Shift=    0.000
 RMSDP=7.40D-06 MaxDP=4.96D-04 DE=-5.00D-05 OVMax= 5.32D-04

 Cycle   3  Pass 1  IDiag  1:
 RMSU=  7.30D-06    CP:  1.00D+00  1.07D+00
 E= -992.208856980282     Delta-E=       -0.000002604044 Rises=F Damp=F
 DIIS: error= 4.27D-05 at cycle   3 NSaved=   3.
 NSaved= 3 IEnMin= 3 EnMin= -992.208856980282     IErMin= 2 ErrMin= 3.58D-05
 ErrMax= 4.27D-05  0.00D+00 EMaxC= 1.00D-01 BMatC= 1.98D-06 BMatP= 1.96D-06
 IDIUse=1 WtCom= 1.00D+00 WtEn= 0.00D+00
 Coeff-Com: -0.398D-01 0.544D+00 0.496D+00
 Coeff:     -0.398D-01 0.544D+00 0.496D+00
 Gap=     0.322 Goal=   None    Shift=    0.000
 RMSDP=3.25D-06 MaxDP=3.65D-04 DE=-2.60D-06 OVMax= 3.25D-04

 Cycle   4  Pass 1  IDiag  1:
 RMSU=  2.40D-06    CP:  1.00D+00  1.13D+00  7.46D-01
 E= -992.208858263845     Delta-E=       -0.000001283564 Rises=F Damp=F
 DIIS: error= 2.88D-05 at cycle   4 NSaved=   4.
 NSaved= 4 IEnMin= 4 EnMin= -992.208858263845     IErMin= 4 ErrMin= 2.88D-05
 ErrMax= 2.88D-05  0.00D+00 EMaxC= 1.00D-01 BMatC= 5.58D-07 BMatP= 1.96D-06
 IDIUse=1 WtCom= 1.00D+00 WtEn= 0.00D+00
 Coeff-Com: -0.149D-01 0.853D-01 0.331D+00 0.599D+00
 Coeff:     -0.149D-01 0.853D-01 0.331D+00 0.599D+00
 Gap=     0.322 Goal=   None    Shift=    0.000
 RMSDP=1.82D-06 MaxDP=2.19D-04 DE=-1.28D-06 OVMax= 2.03D-04

 Cycle   5  Pass 1  IDiag  1:
 RMSU=  1.60D-06    CP:  1.00D+00  1.17D+00  7.66D-01  7.80D-01
 E= -992.208858629322     Delta-E=       -0.000000365477 Rises=F Damp=F
 DIIS: error= 1.25D-05 at cycle   5 NSaved=   5.
 NSaved= 5 IEnMin= 5 EnMin= -992.208858629322     IErMin= 5 ErrMin= 1.25D-05
 ErrMax= 1.25D-05  0.00D+00 EMaxC= 1.00D-01 BMatC= 1.89D-07 BMatP= 5.58D-07
 IDIUse=1 WtCom= 1.00D+00 WtEn= 0.00D+00
 Coeff-Com:  0.700D-03-0.972D-01 0.990D-01 0.442D+00 0.555D+00
 Coeff:      0.700D-03-0.972D-01 0.990D-01 0.442D+00 0.555D+00
 Gap=     0.322 Goal=   None    Shift=    0.000
 RMSDP=8.09D-07 MaxDP=7.29D-05 DE=-3.65D-07 OVMax= 9.28D-05

 Cycle   6  Pass 1  IDiag  1:
 RMSU=  4.33D-07    CP:  1.00D+00  1.18D+00  8.18D-01  1.00D+00  9.20D-01
 E= -992.208858789236     Delta-E=       -0.000000159914 Rises=F Damp=F
 DIIS: error= 2.82D-06 at cycle   6 NSaved=   6.
 NSaved= 6 IEnMin= 6 EnMin= -992.208858789236     IErMin= 6 ErrMin= 2.82D-06
 ErrMax= 2.82D-06  0.00D+00 EMaxC= 1.00D-01 BMatC= 1.14D-08 BMatP= 1.89D-07
 IDIUse=1 WtCom= 1.00D+00 WtEn= 0.00D+00
 Coeff-Com:  0.203D-02-0.614D-01 0.102D-01 0.154D+00 0.279D+00 0.615D+00
 Coeff:      0.203D-02-0.614D-01 0.102D-01 0.154D+00 0.279D+00 0.615D+00
 Gap=     0.322 Goal=   None    Shift=    0.000
 RMSDP=3.45D-07 MaxDP=2.15D-05 DE=-1.60D-07 OVMax= 3.89D-05

 Cycle   7  Pass 1  IDiag  1:
 RMSU=  1.73D-07    CP:  1.00D+00  1.18D+00  8.54D-01  1.04D+00  9.76D-01
                    CP:  8.82D-01
 E= -992.208858800870     Delta-E=       -0.000000011634 Rises=F Damp=F
 DIIS: error= 6.72D-07 at cycle   7 NSaved=   7.
 NSaved= 7 IEnMin= 7 EnMin= -992.208858800870     IErMin= 7 ErrMin= 6.72D-07
 ErrMax= 6.72D-07  0.00D+00 EMaxC= 1.00D-01 BMatC= 7.74D-10 BMatP= 1.14D-08
 IDIUse=1 WtCom= 1.00D+00 WtEn= 0.00D+00
 Coeff-Com:  0.591D-03-0.344D-02-0.149D-01-0.243D-01-0.581D-02 0.178D+00
 Coeff-Com:  0.870D+00
 Coeff:      0.591D-03-0.344D-02-0.149D-01-0.243D-01-0.581D-02 0.178D+00
 Coeff:      0.870D+00
 Gap=     0.322 Goal=   None    Shift=    0.000
 RMSDP=1.43D-07 MaxDP=1.34D-05 DE=-1.16D-08 OVMax= 2.08D-05

 Cycle   8  Pass 1  IDiag  1:
 RMSU=  6.80D-08    CP:  1.00D+00  1.18D+00  8.59D-01  1.07D+00  1.02D+00
                    CP:  9.89D-01  1.19D+00
 E= -992.208858802426     Delta-E=       -0.000000001556 Rises=F Damp=F
 DIIS: error= 2.43D-07 at cycle   8 NSaved=   8.
 NSaved= 8 IEnMin= 8 EnMin= -992.208858802426     IErMin= 8 ErrMin= 2.43D-07
 ErrMax= 2.43D-07  0.00D+00 EMaxC= 1.00D-01 BMatC= 8.88D-11 BMatP= 7.74D-10
 IDIUse=1 WtCom= 1.00D+00 WtEn= 0.00D+00
 Coeff-Com: -0.816D-04 0.698D-02-0.635D-02-0.261D-01-0.359D-01-0.241D-01
 Coeff-Com:  0.245D+00 0.841D+00
 Coeff:     -0.816D-04 0.698D-02-0.635D-02-0.261D-01-0.359D-01-0.241D-01
 Coeff:      0.245D+00 0.841D+00
 Gap=     0.322 Goal=   None    Shift=    0.000
 RMSDP=6.12D-08 MaxDP=4.61D-06 DE=-1.56D-09 OVMax= 9.55D-06

 Cycle   9  Pass 1  IDiag  1:
 RMSU=  2.95D-08    CP:  1.00D+00  1.18D+00  8.58D-01  1.08D+00  1.05D+00
                    CP:  1.04D+00  1.33D+00  9.69D-01
 E= -992.208858802693     Delta-E=       -0.000000000266 Rises=F Damp=F
 DIIS: error= 7.86D-08 at cycle   9 NSaved=   9.
 NSaved= 9 IEnMin= 9 EnMin= -992.208858802693     IErMin= 9 ErrMin= 7.86D-08
 ErrMax= 7.86D-08  0.00D+00 EMaxC= 1.00D-01 BMatC= 1.34D-11 BMatP= 8.88D-11
 IDIUse=1 WtCom= 1.00D+00 WtEn= 0.00D+00
 Coeff-Com: -0.787D-04 0.281D-02-0.102D-02-0.655D-02-0.114D-01-0.223D-01
 Coeff-Com:  0.385D-02 0.286D+00 0.749D+00
 Coeff:     -0.787D-04 0.281D-02-0.102D-02-0.655D-02-0.114D-01-0.223D-01
 Coeff:      0.385D-02 0.286D+00 0.749D+00
 Gap=     0.322 Goal=   None    Shift=    0.000
 RMSDP=1.57D-08 MaxDP=7.88D-07 DE=-2.66D-10 OVMax= 3.12D-06

 Cycle  10  Pass 1  IDiag  1:
 RMSU=  9.19D-09    CP:  1.00D+00  1.18D+00  8.58D-01  1.08D+00  1.05D+00
                    CP:  1.05D+00  1.37D+00  1.10D+00  1.12D+00
 E= -992.208858802683     Delta-E=        0.000000000010 Rises=F Damp=F
 DIIS: error= 4.56D-08 at cycle  10 NSaved=  10.
 NSaved=10 IEnMin= 9 EnMin= -992.208858802693     IErMin=10 ErrMin= 4.56D-08
 ErrMax= 4.56D-08  0.00D+00 EMaxC= 1.00D-01 BMatC= 3.45D-12 BMatP= 1.34D-11
 IDIUse=1 WtCom= 1.00D+00 WtEn= 0.00D+00
 Coeff-Com: -0.140D-04-0.366D-03 0.833D-03 0.306D-02 0.297D-02-0.322D-02
 Coeff-Com: -0.517D-01-0.666D-01 0.293D+00 0.822D+00
 Coeff:     -0.140D-04-0.366D-03 0.833D-03 0.306D-02 0.297D-02-0.322D-02
 Coeff:     -0.517D-01-0.666D-01 0.293D+00 0.822D+00
 Gap=     0.322 Goal=   None    Shift=    0.000
 RMSDP=9.16D-09 MaxDP=6.15D-07 DE= 9.55D-12 OVMax= 2.05D-06

 Error on total polarization charges =  0.03067
 SCF Done:  E(RwB97XD) =  -992.208858803     A.U. after   10 cycles
            NFock= 10  Conv=0.92D-08     -V/T= 2.0799
 KE= 9.188018677787D+02 PE=-4.529308447941D+03 EE= 1.507027255306D+03
 SMD-CDS (non-electrostatic) energy       (kcal/mol) =      -0.17
 (included in total energy above)
 Leave Link  502 at Tue Oct  4 23:27:29 2022, MaxMem=  2952790016 cpu:            7892.6 elap:             663.1
 (Enter /mnt/data/applications/G16/g16/l701.exe)
 ... and contract with generalized density number  0.
 Compute integral first derivatives.
 R6Disp: Adding Grimme-D2 dispersion energy 1st derivatives to the gradient.
   1 Symmetry operations used in ECPInt.
 ECPInt:  NShTT=   22578 NPrTT=   66767 LenC2=   20894 LenP2D=   46066.
 LDataN:  DoStor=T MaxTD1= 8 Len=  415
 D1PCM: PCM CHGder 1st derivatives, ID1Alg=3 FixD1E=F DoIter=F DoCFld=F I1PDM=0.
 GePol: Maximum number of non-zero 1st derivatives   =     435
 Leave Link  701 at Tue Oct  4 23:27:41 2022, MaxMem=  2952790016 cpu:             141.1 elap:              11.8
 (Enter /mnt/data/applications/G16/g16/l702.exe)
 L702 exits ... SP integral derivatives will be done elsewhere.
 Leave Link  702 at Tue Oct  4 23:27:41 2022, MaxMem=  2952790016 cpu:               0.2 elap:               0.0
 (Enter /mnt/data/applications/G16/g16/l703.exe)
 Integral derivatives from FoFJK, PRISM(SPDF).
 Compute integral first derivatives, UseDBF=F ICtDFT=           0.
 Calling FoFJK, ICntrl=      2127 FMM=F ISym2X=0 I1Cent= 0 IOpClX= 0 NMat=1 NMatS=1 NMatT=0.
 FoFJK:  IHMeth= 1 ICntrl=    2127 DoSepK=T KAlg= 0 I1Cent=           0 FoldK=F
 IRaf=         1 NMat=       1 IRICut=       1 DoRegI=T DoRafI=F ISym2E= 0 IDoP0=0 IntGTp=1.
 FoFCou: FMM=F IPFlag=           0 FMFlag=      100000 FMFlg1=         800
         NFxFlg=           0 DoJE=F BraDBF=F KetDBF=F FulRan=T
         wScrn=  0.000000 ICntrl=      2527 IOpCl=  0 I1Cent=           0 NGrid=           0
         NMat0=    1 NMatS0=      1 NMatT0=    0 NMatD0=    1 NMtDS0=    0 NMtDT0=    0
 Symmetry not used in FoFCou.
 Defaulting to unpruned grid for atomic number  45.
 Defaulting to unpruned grid for atomic number  45.
 Defaulting to unpruned grid for atomic number  45.
 Defaulting to unpruned grid for atomic number  45.
 Defaulting to unpruned grid for atomic number  45.
 Defaulting to unpruned grid for atomic number  45.
 Defaulting to unpruned grid for atomic number  45.
 Defaulting to unpruned grid for atomic number  45.
 Defaulting to unpruned grid for atomic number  45.
 Defaulting to unpruned grid for atomic number  45.
 Defaulting to unpruned grid for atomic number  45.
 Defaulting to unpruned grid for atomic number  45.
 Leave Link  703 at Tue Oct  4 23:32:08 2022, MaxMem=  2952790016 cpu:            3198.1 elap:             267.2
 (Enter /mnt/data/applications/G16/g16/l716.exe)
 Dipole        =-1.06142176D+00 1.01723470D+00-8.81885116D-04
 ***** Axes restored to original set *****
 -------------------------------------------------------------------
 Center     Atomic                   Forces (Hartrees/Bohr)
 Number     Number              X              Y              Z
 -------------------------------------------------------------------
      1        1          -0.000007331   -0.000007789   -0.000002065
      2        1           0.000001722   -0.000009111   -0.000000029
      3       45          -0.000008121    0.000001598    0.000013720
      4        6           0.000003467   -0.000003042    0.000002235
      5        8           0.000000545   -0.000002414   -0.000000485
      6        6          -0.000001669   -0.000009584    0.000005178
      7        6           0.000000657   -0.000012812    0.000003628
      8        1          -0.000003869   -0.000009798    0.000004187
      9        1          -0.000005968   -0.000008198    0.000003741
     10        1          -0.000001537   -0.000015495    0.000005642
     11        1           0.000003259   -0.000013598    0.000003516
     12        1           0.000000998   -0.000011958    0.000003663
     13        6          -0.000010698    0.000002978    0.000000376
     14        8          -0.000006700    0.000001122    0.000002477
     15       15           0.000005860   -0.000000201    0.000003811
     16        6           0.000005395    0.000003205   -0.000002524
     17        6           0.000002259    0.000005211   -0.000002415
     18        6          -0.000002045    0.000011142   -0.000004321
     19        1          -0.000000101    0.000012404   -0.000001718
     20        1           0.000003021    0.000012774   -0.000004807
     21        1          -0.000001554    0.000011514   -0.000002488
     22        1           0.000005603    0.000003980   -0.000003602
     23        1           0.000011987   -0.000000367   -0.000000262
     24        1           0.000008602    0.000005217   -0.000005224
     25        1           0.000003920    0.000001767   -0.000001380
     26        1           0.000000874    0.000006084   -0.000003631
     27        1           0.000005316    0.000007428   -0.000004014
     28        6          -0.000005196    0.000014877   -0.000013550
     29        8          -0.000008694    0.000003064    0.000000342
 -------------------------------------------------------------------
 Cartesian Forces:  Max     0.000015495 RMS     0.000006475
 Leave Link  716 at Tue Oct  4 23:32:08 2022, MaxMem=  2952790016 cpu:               0.3 elap:               0.0
 (Enter /mnt/data/applications/G16/g16/l103.exe)

 GradGradGradGradGradGradGradGradGradGradGradGradGradGradGradGradGradGrad
 Berny optimization.
 FormGI is forming the generalized inverse of G from B-inverse, IUseBI=4.
 Internal  Forces:  Max     0.000008184 RMS     0.000002597
 Search for a saddle point.
 Step number   2 out of a maximum of  161
 All quantities printed in internal units (Hartrees-Bohrs-Radians)
 Swapping is turned off.
 Update second derivatives using D2CorX and points    1    2
 ITU=  0  0
     Eigenvalues ---   -0.03809   0.00153   0.00162   0.00224   0.00226
     Eigenvalues ---    0.00255   0.00343   0.00711   0.01672   0.01995
     Eigenvalues ---    0.02183   0.02383   0.02796   0.03007   0.03471
     Eigenvalues ---    0.03620   0.03824   0.03980   0.04009   0.04023
     Eigenvalues ---    0.04052   0.04107   0.04165   0.04217   0.04437
     Eigenvalues ---    0.04555   0.04865   0.04958   0.06308   0.07079
     Eigenvalues ---    0.07685   0.07831   0.07940   0.08842   0.09714
     Eigenvalues ---    0.09798   0.10158   0.10878   0.11078   0.11145
     Eigenvalues ---    0.11194   0.11326   0.11425   0.12027   0.12266
     Eigenvalues ---    0.12284   0.12967   0.13535   0.14427   0.14612
     Eigenvalues ---    0.14709   0.14959   0.16009   0.16282   0.16900
     Eigenvalues ---    0.19261   0.19972   0.21823   0.22498   0.22634
     Eigenvalues ---    0.23722   0.25521   0.29698   0.31655   0.33580
     Eigenvalues ---    0.34142   0.34168   0.34175   0.34216   0.34263
     Eigenvalues ---    0.34449   0.34484   0.34638   0.34671   0.34867
     Eigenvalues ---    0.34959   0.35076   0.35281   0.81933   1.16757
     Eigenvalues ---    1.19577
 Eigenvectors required to have negative eigenvalues:
                          A5        A6        R3        D12       D11
   1                   -0.42191  -0.31885   0.27052   0.25475   0.24790
                          D13       R2        A11       A8        D16
   1                    0.24766   0.22385  -0.22021   0.20098  -0.17402
 RFO step:  Lambda0=3.052866258D-10 Lambda=-3.57099791D-08.
 Linear search not attempted -- option 19 set.
 Iteration  1 RMS(Cart)=  0.00046843 RMS(Int)=  0.00000007
 Iteration  2 RMS(Cart)=  0.00000011 RMS(Int)=  0.00000001
 ITry= 1 IFail=0 DXMaxC= 2.63D-03 DCOld= 1.00D+10 DXMaxT= 2.00D-02 DXLimC= 3.00D+00 Rises=F
 Variable       Old X    -DE/DX   Delta X   Delta X   Delta X     New X
                                 (Linear)    (Quad)   (Total)
    R1        3.00619   0.00001   0.00000   0.00004   0.00004   3.00624
    R2        3.15081  -0.00000   0.00000  -0.00007  -0.00007   3.15074
    R3        4.11971   0.00000   0.00000   0.00005   0.00005   4.11976
    R4        3.62676   0.00000   0.00000  -0.00002  -0.00002   3.62674
    R5        4.52027  -0.00000   0.00000  -0.00004  -0.00004   4.52023
    R6        3.66765   0.00000   0.00000   0.00003   0.00003   3.66768
    R7        2.28167   0.00000   0.00000  -0.00000  -0.00000   2.28167
    R8        2.86954  -0.00000   0.00000  -0.00001  -0.00001   2.86953
    R9        2.86981   0.00000   0.00000   0.00000   0.00000   2.86982
   R10        2.06384   0.00000   0.00000  -0.00001  -0.00001   2.06383
   R11        2.06684  -0.00000   0.00000   0.00001   0.00001   2.06684
   R12        2.06252  -0.00000   0.00000  -0.00000  -0.00000   2.06251
   R13        2.06188   0.00000   0.00000   0.00000   0.00000   2.06189
   R14        2.06032  -0.00000   0.00000  -0.00000  -0.00000   2.06032
   R15        2.15002   0.00000   0.00000   0.00001   0.00001   2.15003
   R16        3.42729  -0.00000   0.00000  -0.00000  -0.00000   3.42729
   R17        3.42927  -0.00000   0.00000  -0.00001  -0.00001   3.42927
   R18        3.43551   0.00000   0.00000   0.00001   0.00001   3.43552
   R19        2.06143   0.00000   0.00000   0.00000   0.00000   2.06143
   R20        2.05932   0.00000   0.00000   0.00001   0.00001   2.05933
   R21        2.06337  -0.00000   0.00000  -0.00000  -0.00000   2.06337
   R22        2.05894  -0.00000   0.00000  -0.00000  -0.00000   2.05893
   R23        2.06197  -0.00000   0.00000  -0.00000  -0.00000   2.06197
   R24        2.06320   0.00000   0.00000   0.00000   0.00000   2.06320
   R25        2.06190  -0.00000   0.00000  -0.00001  -0.00001   2.06190
   R26        2.06332   0.00000   0.00000   0.00000   0.00000   2.06332
   R27        2.06168   0.00000   0.00000   0.00000   0.00000   2.06169
   R28        2.14706   0.00000   0.00000  -0.00000  -0.00000   2.14705
    A1        1.50399  -0.00000   0.00000  -0.00014  -0.00014   1.50385
    A2        1.52513   0.00000   0.00000   0.00007   0.00007   1.52520
    A3        1.50698   0.00000   0.00000   0.00001   0.00001   1.50699
    A4        1.48054  -0.00000   0.00000   0.00003   0.00003   1.48057
    A5        0.73170  -0.00000   0.00000   0.00003   0.00003   0.73173
    A6        2.46318  -0.00000   0.00000   0.00011   0.00011   2.46328
    A7        1.59799   0.00000   0.00000   0.00015   0.00015   1.59814
    A8        1.84918  -0.00001   0.00000  -0.00039  -0.00039   1.84880
    A9        1.73929   0.00000   0.00000   0.00012   0.00012   1.73940
   A10        1.59199  -0.00000   0.00000  -0.00004  -0.00004   1.59195
   A11        2.57397  -0.00001   0.00000  -0.00032  -0.00032   2.57366
   A12        1.67035  -0.00000   0.00000   0.00000   0.00000   1.67036
   A13        1.94189   0.00001   0.00000   0.00024   0.00024   1.94213
   A14        1.66500   0.00000   0.00000  -0.00007  -0.00007   1.66493
   A15        2.12245  -0.00001   0.00000  -0.00002  -0.00002   2.12243
   A16        2.01759   0.00001   0.00000   0.00002   0.00002   2.01762
   A17        2.11732  -0.00000   0.00000   0.00001   0.00001   2.11733
   A18        1.99098  -0.00000   0.00000  -0.00001  -0.00001   1.99097
   A19        1.87446   0.00000   0.00000   0.00002   0.00002   1.87448
   A20        1.85952   0.00000   0.00000  -0.00004  -0.00004   1.85948
   A21        1.95004  -0.00000   0.00000   0.00000   0.00000   1.95005
   A22        1.94138   0.00000   0.00000   0.00002   0.00002   1.94139
   A23        1.83853  -0.00000   0.00000   0.00001   0.00001   1.83854
   A24        1.92077   0.00000   0.00000   0.00001   0.00001   1.92078
   A25        1.94235  -0.00000   0.00000  -0.00001  -0.00001   1.94233
   A26        1.94388   0.00000   0.00000   0.00000   0.00000   1.94388
   A27        1.88739  -0.00000   0.00000  -0.00001  -0.00001   1.88739
   A28        1.88846   0.00000   0.00000   0.00001   0.00001   1.88847
   A29        1.87902  -0.00000   0.00000  -0.00000  -0.00000   1.87902
   A30        2.00606  -0.00001   0.00000  -0.00012  -0.00012   2.00593
   A31        2.01016   0.00001   0.00000   0.00012   0.00012   2.01028
   A32        1.99956   0.00000   0.00000   0.00001   0.00001   1.99957
   A33        1.81591   0.00000   0.00000   0.00001   0.00001   1.81592
   A34        1.80515   0.00000   0.00000   0.00004   0.00004   1.80519
   A35        1.80051  -0.00001   0.00000  -0.00006  -0.00006   1.80045
   A36        1.90606   0.00000   0.00000  -0.00000  -0.00000   1.90605
   A37        1.89660  -0.00000   0.00000  -0.00005  -0.00005   1.89655
   A38        1.94191   0.00000   0.00000   0.00004   0.00004   1.94195
   A39        1.89837   0.00000   0.00000  -0.00000  -0.00000   1.89837
   A40        1.90809  -0.00000   0.00000  -0.00000  -0.00000   1.90809
   A41        1.91228   0.00000   0.00000   0.00002   0.00002   1.91230
   A42        1.90097   0.00000   0.00000   0.00003   0.00003   1.90100
   A43        1.90901  -0.00000   0.00000  -0.00001  -0.00001   1.90900
   A44        1.94132  -0.00000   0.00000  -0.00003  -0.00003   1.94128
   A45        1.89839   0.00000   0.00000   0.00001   0.00001   1.89839
   A46        1.91046   0.00000   0.00000   0.00000   0.00000   1.91046
   A47        1.90322   0.00000   0.00000   0.00000   0.00000   1.90323
   A48        1.91302   0.00000   0.00000   0.00003   0.00003   1.91305
   A49        1.94252  -0.00000   0.00000  -0.00001  -0.00001   1.94251
   A50        1.91052  -0.00000   0.00000  -0.00002  -0.00002   1.91050
   A51        1.90183  -0.00000   0.00000  -0.00000  -0.00000   1.90183
   A52        1.88911   0.00000   0.00000   0.00001   0.00001   1.88911
   A53        1.90603   0.00000   0.00000  -0.00000  -0.00000   1.90603
   A54        3.10199   0.00000   0.00000   0.00001   0.00001   3.10200
   A55        3.10378  -0.00000   0.00000  -0.00007  -0.00007   3.10371
   A56        3.19901   0.00000   0.00000   0.00003   0.00003   3.19904
   A57        3.13412  -0.00000   0.00000  -0.00002  -0.00002   3.13410
   A58        3.16748   0.00000   0.00000   0.00001   0.00001   3.16749
   A59        3.16959   0.00001   0.00000  -0.00013  -0.00013   3.16946
    D1       -3.08288  -0.00000   0.00000  -0.00037  -0.00037  -3.08325
    D2       -0.18055  -0.00000   0.00000  -0.00030  -0.00030  -0.18085
    D3        1.67866   0.00000   0.00000  -0.00008  -0.00008   1.67858
    D4       -1.70219   0.00001   0.00000  -0.00001  -0.00001  -1.70221
    D5       -1.58468  -0.00000   0.00000  -0.00036  -0.00036  -1.58503
    D6        1.31766   0.00000   0.00000  -0.00029  -0.00029   1.31737
    D7        0.09076  -0.00000   0.00000  -0.00036  -0.00036   0.09040
    D8        2.99309   0.00000   0.00000  -0.00029  -0.00029   2.99280
    D9        1.87134  -0.00001   0.00000  -0.00068  -0.00068   1.87066
   D10       -1.50951  -0.00000   0.00000  -0.00061  -0.00061  -1.51012
   D11        0.28508  -0.00000   0.00000   0.00027   0.00027   0.28535
   D12       -1.82586  -0.00000   0.00000   0.00026   0.00026  -1.82560
   D13        2.37274   0.00000   0.00000   0.00023   0.00023   2.37297
   D14        1.01698  -0.00000   0.00000   0.00030   0.00030   1.01728
   D15       -1.09396  -0.00000   0.00000   0.00028   0.00028  -1.09368
   D16        3.10464  -0.00000   0.00000   0.00026   0.00026   3.10490
   D17        2.75930  -0.00000   0.00000   0.00041   0.00041   2.75971
   D18        0.64836  -0.00000   0.00000   0.00040   0.00040   0.64876
   D19       -1.43623   0.00000   0.00000   0.00037   0.00037  -1.43586
   D20       -1.56816   0.00001   0.00000   0.00065   0.00065  -1.56751
   D21        2.60409   0.00001   0.00000   0.00063   0.00063   2.60472
   D22        0.51950   0.00001   0.00000   0.00061   0.00061   0.52011
   D23       -3.03416  -0.00000   0.00000  -0.00040  -0.00040  -3.03455
   D24        1.07787  -0.00000   0.00000  -0.00041  -0.00041   1.07746
   D25       -0.88519  -0.00000   0.00000  -0.00041  -0.00041  -0.88560
   D26       -0.13106  -0.00000   0.00000  -0.00034  -0.00034  -0.13140
   D27       -2.30222  -0.00000   0.00000  -0.00035  -0.00035  -2.30257
   D28        2.01791  -0.00000   0.00000  -0.00035  -0.00035   2.01756
   D29       -3.14019   0.00000   0.00000  -0.00009  -0.00009  -3.14028
   D30       -1.04820  -0.00000   0.00000  -0.00010  -0.00010  -1.04830
   D31        1.04867  -0.00000   0.00000  -0.00011  -0.00011   1.04856
   D32       -1.01006  -0.00000   0.00000  -0.00007  -0.00007  -1.01012
   D33        1.08194  -0.00000   0.00000  -0.00008  -0.00008   1.08186
   D34       -3.10438  -0.00000   0.00000  -0.00009  -0.00009  -3.10446
   D35        1.03915   0.00000   0.00000  -0.00005  -0.00005   1.03910
   D36        3.13114   0.00000   0.00000  -0.00006  -0.00006   3.13108
   D37       -1.05517  -0.00000   0.00000  -0.00007  -0.00007  -1.05524
   D38        1.02912  -0.00000   0.00000  -0.00011  -0.00011   1.02901
   D39       -1.03930  -0.00000   0.00000  -0.00008  -0.00008  -1.03938
   D40        3.13700  -0.00000   0.00000  -0.00009  -0.00009   3.13691
   D41       -3.03992   0.00000   0.00000  -0.00003  -0.00003  -3.03995
   D42        1.17484   0.00000   0.00000   0.00001   0.00001   1.17484
   D43       -0.93204   0.00000   0.00000  -0.00001  -0.00001  -0.93205
   D44       -1.16335  -0.00000   0.00000  -0.00007  -0.00007  -1.16343
   D45        3.05140  -0.00000   0.00000  -0.00004  -0.00004   3.05136
   D46        0.94453  -0.00000   0.00000  -0.00005  -0.00005   0.94447
   D47        0.98638  -0.00000   0.00000   0.00006   0.00006   0.98644
   D48       -1.08633  -0.00000   0.00000   0.00004   0.00004  -1.08629
   D49        3.09348  -0.00000   0.00000   0.00007   0.00007   3.09355
   D50       -1.22519   0.00000   0.00000   0.00013   0.00013  -1.22506
   D51        2.98528   0.00000   0.00000   0.00011   0.00011   2.98539
   D52        0.88191   0.00000   0.00000   0.00013   0.00013   0.88204
   D53       -3.10522   0.00000   0.00000   0.00011   0.00011  -3.10511
   D54        1.10525  -0.00000   0.00000   0.00009   0.00009   1.10534
   D55       -0.99812   0.00000   0.00000   0.00011   0.00011  -0.99801
   D56       -1.08734   0.00000   0.00000   0.00008   0.00008  -1.08725
   D57        3.09080   0.00000   0.00000   0.00007   0.00007   3.09087
   D58        0.98215   0.00000   0.00000   0.00010   0.00010   0.98224
   D59        1.10930  -0.00000   0.00000  -0.00004  -0.00004   1.10926
   D60       -0.99575  -0.00000   0.00000  -0.00005  -0.00005  -0.99580
   D61       -3.10440  -0.00000   0.00000  -0.00003  -0.00003  -3.10443
   D62        2.99745  -0.00000   0.00000  -0.00004  -0.00004   2.99741
   D63        0.89239  -0.00000   0.00000  -0.00005  -0.00005   0.89235
   D64       -1.21626  -0.00000   0.00000  -0.00002  -0.00002  -1.21628
         Item               Value     Threshold  Converged?
 Maximum Force            0.000008     0.000450     YES
 RMS     Force            0.000003     0.000300     YES
 Maximum Displacement     0.002629     0.001800     NO 
 RMS     Displacement     0.000468     0.001200     YES
 Predicted change in Energy=-1.770235D-08
 Lowest energy point so far.  Saving SCF results.
 GradGradGradGradGradGradGradGradGradGradGradGradGradGradGradGradGradGrad

 Leave Link  103 at Tue Oct  4 23:32:08 2022, MaxMem=  2952790016 cpu:               0.6 elap:               0.1
 (Enter /mnt/data/applications/G16/g16/l202.exe)
                          Input orientation:                          
 ---------------------------------------------------------------------
 Center     Atomic      Atomic             Coordinates (Angstroms)
 Number     Number       Type             X           Y           Z
 ---------------------------------------------------------------------
      1          1           0        0.950164   -2.045183   -0.284421
      2          1           0        0.891973   -0.110520   -1.384182
      3         45           0        0.013626   -0.768658   -0.129090
      4          6           0        1.801128    0.451090   -0.393297
      5          8           0        1.762503    1.655406   -0.316059
      6          6           0        3.120034   -0.300390   -0.353599
      7          6           0        4.345227    0.596039   -0.393465
      8          1           0        3.114222   -1.014190   -1.180166
      9          1           0        3.104190   -0.909399    0.554747
     10          1           0        5.252944   -0.009245   -0.363247
     11          1           0        4.367386    1.196319   -1.304333
     12          1           0        4.364244    1.280985    0.454585
     13          6           0        0.112178   -1.079013    1.762274
     14          8           0        0.213196   -1.290644    2.875591
     15         15           0       -1.358716    1.184702    0.021693
     16          6           0       -1.286646    2.282808   -1.419926
     17          6           0       -0.996479    2.276326    1.425345
     18          6           0       -3.135526    0.847645    0.207324
     19          1           0       -3.500593    0.313214   -0.671101
     20          1           0       -3.704716    1.772311    0.322108
     21          1           0       -3.296284    0.216237    1.082400
     22          1           0       -1.595423    1.729829   -2.308100
     23          1           0       -0.257529    2.615212   -1.554016
     24          1           0       -1.937084    3.150141   -1.289999
     25          1           0        0.051865    2.570070    1.383076
     26          1           0       -1.172867    1.737751    2.357772
     27          1           0       -1.625362    3.168575    1.404800
     28          6           0       -1.344206   -1.882194   -0.955671
     29          8           0       -2.096249   -2.590850   -1.428031
 ---------------------------------------------------------------------
                    Distance matrix (angstroms):
                    1          2          3          4          5
     1  H    0.000000
     2  H    2.226159   0.000000
     3  Rh   1.590833   1.667302   0.000000
     4  C    2.639578   1.457335   2.180081   0.000000
     5  O    3.788833   2.239912   2.994932   1.207408   0.000000
     6  C    2.785215   2.462196   3.149516   1.518490   2.381058
     7  C    4.302836   3.661381   4.549182   2.548225   2.792617
     8  H    2.558994   2.407620   3.283100   2.119062   3.114573
     9  H    2.575662   3.048207   3.168443   2.108955   3.022690
    10  H    4.760795   4.480027   5.299245   3.482506   3.867359
    11  H    4.819228   3.713852   4.919101   2.823301   2.823625
    12  H    4.823428   4.168215   4.844542   2.824392   2.739185
    13  C    2.413435   3.383231   1.919190   3.136918   3.810524
    14  O    3.331385   4.472035   3.056207   4.029987   4.611528
    15  P    3.982059   2.952911   2.392002   3.270324   3.174531
    16  C    5.002420   3.236615   3.559271   3.734101   3.302949
    17  C    5.038667   4.142068   3.564899   3.803360   3.321146
    18  C    5.030222   4.435281   3.555667   4.988843   4.991703
    19  H    5.051812   4.470198   3.716714   5.310785   5.443135
    20  H    6.050542   5.252241   4.526166   5.707167   5.505581
    21  H    5.001455   4.871580   3.659676   5.311916   5.442263
    22  H    4.982571   3.229187   3.685046   4.103438   3.905053
    23  H    4.978923   2.963075   3.681646   3.204491   2.556227
    24  H    6.028166   4.317909   4.528793   4.697146   4.107279
    25  H    4.988792   3.943230   3.665407   3.271926   2.578751
    26  H    5.079276   4.656382   3.724827   4.250709   3.971467
    27  H    6.055582   4.986769   4.532207   4.728500   4.090070
    28  C    2.396096   2.884951   1.940852   3.956464   4.751353
    29  O    3.299429   3.883739   3.075582   5.051101   5.844411
                    6          7          8          9         10
     6  C    0.000000
     7  C    1.518642   0.000000
     8  H    1.092134   2.174192   0.000000
     9  H    1.093726   2.169245   1.738104   0.000000
    10  H    2.152711   1.091436   2.500281   2.504024   0.000000
    11  H    2.167930   1.091104   2.544049   3.079918   1.767269
    12  H    2.168402   1.090276   3.082660   2.528942   1.767294
    13  C    3.759038   5.037034   4.204096   3.230948   5.664779
    14  O    4.456229   5.596426   4.994151   3.726863   6.126265
    15  P    4.733449   5.749247   5.127062   4.958522   6.729616
    16  C    5.218122   5.967982   5.504119   5.776588   7.009731
    17  C    5.172019   5.887721   5.874866   5.265195   6.890442
    18  C    6.384720   7.509056   6.667152   6.491685   8.451405
    19  H    6.656577   7.855824   6.765865   6.827932   8.764883
    20  H    7.164488   8.166839   7.517934   7.321674   9.158785
    21  H    6.595311   7.791991   6.908527   6.520088   8.673525
    22  H    5.493396   6.343708   5.566205   6.103097   7.328504
    23  H    4.620570   5.158421   4.968000   5.307629   6.218603
    24  H    6.193339   6.840661   6.547473   6.730334   7.908039
    25  H    4.546344   5.048352   5.366112   4.702077   6.062486
    26  H    5.471248   6.270740   6.202364   5.343363   7.193538
    27  H    6.135509   6.745342   6.829439   6.302470   7.780465
    28  C    4.774309   6.231161   4.547682   4.797491   6.883407
    29  O    5.797432   7.260799   5.449431   5.814057   7.861876
                   11         12         13         14         15
    11  H    0.000000
    12  H    1.760958   0.000000
    13  C    5.717343   5.035842   0.000000
    14  O    6.396409   5.450297   1.137746   0.000000
    15  P    5.877646   5.740116   3.212096   4.091818   0.000000
    16  C    5.758637   6.037384   4.835799   5.785374   1.813642
    17  C    6.114622   5.538089   3.549781   4.036063   1.814689
    18  C    7.661617   7.516347   4.083806   4.786007   1.817999
    19  H    7.942666   8.003712   4.572935   5.379927   2.413938
    20  H    8.254448   8.084991   4.977230   5.590349   2.437058
    21  H    8.086340   7.759609   3.709113   4.219321   2.411886
    22  H    6.070195   6.584187   5.231964   6.266180   2.404398
    23  H    4.844113   5.213006   4.978129   5.924416   2.396212
    24  H    6.600300   6.800298   5.603713   6.457276   2.432693
    25  H    5.266221   4.595699   3.669228   4.142310   2.400488
    26  H    6.663225   5.872849   3.152796   3.370532   2.407835
    27  H    6.866020   6.351479   4.603134   5.042634   2.433071
    28  C    6.497775   6.676895   3.186438   4.177799   3.218898
    29  O    7.492431   7.763589   4.164235   5.054229   4.111016
                   16         17         18         19         20
    16  C    0.000000
    17  C    2.860036   0.000000
    18  C    2.850613   2.846090   0.000000
    19  H    3.056403   3.810444   1.091109   0.000000
    20  H    3.023632   2.967442   1.091861   1.776821   0.000000
    21  H    3.817197   3.106555   1.090998   1.768025   1.779390
    22  H    1.090863   3.820472   3.078559   2.883789   3.371782
    23  H    1.089750   3.088282   3.809131   4.073843   4.014153
    24  H    1.091886   3.003562   2.996620   3.297841   2.760766
    25  H    3.119448   1.089539   3.809016   4.683268   3.984216
    26  H    3.818513   1.091145   3.044462   4.076970   3.248905
    27  H    2.979662   1.091798   3.016829   3.997366   2.728642
    28  C    4.191192   4.804523   3.466036   3.090437   4.534329
    29  O    4.940452   5.748100   3.946863   3.313414   4.968635
                   21         22         23         24         25
    21  H    0.000000
    22  H    4.084040   0.000000
    23  H    4.683994   1.772711   0.000000
    24  H    4.010423   1.780603   1.782346   0.000000
    25  H    4.103783   4.128480   2.953688   3.381972   0.000000
    26  H    2.906971   4.684974   4.112162   3.985613   1.772782
    27  H    3.407670   3.982023   3.306323   2.712831   1.780947
    28  C    3.516782   3.865085   4.665355   5.078157   5.219330
    29  O    3.952479   4.437749   5.522667   5.744856   6.257141
                   26         27         28         29
    26  H    0.000000
    27  H    1.777685   0.000000
    28  C    4.910425   5.582216   0.000000
    29  O    5.824236   6.435654   1.136172   0.000000
 Stoichiometry    C8H16O3PRh
 Framework group  C1[X(C8H16O3PRh)]
 Deg. of freedom    81
 Full point group                 C1      NOp   1
 RotChk:  IX=0 Diff= 2.45D-04
 Largest Abelian subgroup         C1      NOp   1
 Largest concise Abelian subgroup C1      NOp   1
                         Standard orientation:                         
 ---------------------------------------------------------------------
 Center     Atomic      Atomic             Coordinates (Angstroms)
 Number     Number       Type             X           Y           Z
 ---------------------------------------------------------------------
      1          1           0        0.951903   -2.046135   -0.282007
      2          1           0        0.891071   -0.113496   -1.385178
      3         45           0        0.014390   -0.770148   -0.128144
      4          6           0        1.800600    0.450677   -0.396092
      5          8           0        1.760995    1.655095   -0.320976
      6          6           0        3.120192   -0.299586   -0.356199
      7          6           0        4.344570    0.597834   -0.398737
      8          1           0        3.114282   -1.014869   -1.181482
      9          1           0        3.105669   -0.906981    0.553250
     10          1           0        5.252839   -0.006606   -0.368227
     11          1           0        4.365414    1.196501   -1.310697
     12          1           0        4.363729    1.284313    0.448069
     13          6           0        0.114858   -1.077030    1.763686
     14          8           0        0.217028   -1.286580    2.877291
     15         15           0       -1.359519    1.182287    0.020339
     16          6           0       -1.289659    2.277872   -1.423306
     17          6           0       -0.997010    2.276737    1.421718
     18          6           0       -3.135873    0.844020    0.208121
     19          1           0       -3.501240    0.307700   -0.669027
     20          1           0       -3.705768    1.768396    0.321746
     21          1           0       -3.295321    0.214041    1.084466
     22          1           0       -1.598728    1.723036   -2.310219
     23          1           0       -0.260948    2.610929   -1.558888
     24          1           0       -1.940737    3.144871   -1.294364
     25          1           0        0.051040    2.571314    1.378010
     26          1           0       -1.172119    1.739679    2.355262
     27          1           0       -1.626688    3.168400    1.400125
     28          6           0       -1.343192   -1.886340   -0.951547
     29          8           0       -2.095029   -2.596494   -1.421982
 ---------------------------------------------------------------------
 Rotational constants (GHZ):           0.6118714           0.4337739           0.3617856
 Leave Link  202 at Tue Oct  4 23:32:08 2022, MaxMem=  2952790016 cpu:               0.1 elap:               0.0
 (Enter /mnt/data/applications/G16/g16/l301.exe)
 Basis read from rwf:  (5D, 7F)
 Pseudo-potential data read from rwf file.
 There are   573 symmetry adapted cartesian basis functions of A   symmetry.
 There are   510 symmetry adapted basis functions of A   symmetry.
   510 basis functions,   823 primitive gaussians,   573 cartesian basis functions
    60 alpha electrons       60 beta electrons
       nuclear repulsion energy      1111.2961888534 Hartrees.
 IExCor= 4639 DFT=T Ex+Corr=wB97XD ExCW=0 ScaHFX=  1.000000
 ScaDFX=  1.000000  1.000000  1.000000  1.000000 ScalE2=  1.000000  1.000000
 IRadAn=      5 IRanWt=     -1 IRanGd=            0 ICorTp=0 IEmpDi=121
 HFx  wShort=  0.000000 wLong=  0.200000 cFull=  0.222036 cShort=  0.000000 cLong=  0.777964
 DFx  wShort=  0.000000 wLong=  0.200000 cFull=  0.000000 cShort=  0.000000 cLong=  1.000000
 NAtoms=   29 NActive=   29 NUniq=   29 SFac= 1.00D+00 NAtFMM=   60 NAOKFM=F Big=F
 Integral buffers will be    131072 words long.
 Raffenetti 2 integral format.
 Two-electron integral symmetry is turned on.
 R6Disp:  Grimme-D2 Dispersion energy=       -0.0242882022 Hartrees.
 Nuclear repulsion after empirical dispersion term =     1111.2719006512 Hartrees.
 No density basis found on file   724.
 ------------------------------------------------------------------------------
 Polarizable Continuum Model (PCM)
 =================================
 Model                : PCM.
 Atomic radii         : SMD-Coulomb.
 Polarization charges : Total charges.
 Charge compensation  : None.
 Solution method      : Matrix inversion.
 Cavity type          : VdW (van der Waals Surface) (Alpha=1.000).
 Cavity algorithm     : GePol (No added spheres)
                        Default sphere list used, NSphG=   29.
                        Lebedev-Laikov grids with approx.  5.0 points / Ang**2.
                        Smoothing algorithm: York/Karplus (Gamma=1.0000).
                        Polarization charges: spherical gaussians, with
                                              point-specific exponents (IZeta= 3).
                        Self-potential: point-specific (ISelfS= 7).
                        Self-field    : sphere-specific E.n sum rule (ISelfD= 2).
 1st derivatives      : Analytical E(r).r(x)/FMM algorithm (CHGder, D1EAlg=3).
                        Cavity 1st derivative terms included.
 Solvent              : Toluene, Eps=   2.374100 Eps(inf)=   2.238315
 ------------------------------------------------------------------------------
 GePol: Number of generator spheres                  =      29
 GePol: Total number of spheres                      =      29
 GePol: Number of exposed spheres                    =      29 (100.00%)
 GePol: Number of points                             =    2605
 GePol: Average weight of points                     =       0.12
 GePol: Minimum weight of points                     =   0.15D-11
 GePol: Maximum weight of points                     =    0.20337
 GePol: Number of points with low weight             =     135
 GePol: Fraction of low-weight points (<1% of avg)   =       5.18%
 GePol: Cavity surface area                          =    309.949 Ang**2
 GePol: Cavity volume                                =    292.188 Ang**3
 ------------------------------------------------------------------------------
 Atomic radii for non-electrostatic terms: SMD-CDS.
 ------------------------------------------------------------------------------
 PCM non-electrostatic energy =        -0.0002745082 Hartrees.
 Nuclear repulsion after PCM non-electrostatic terms =     1111.2716261429 Hartrees.
 Leave Link  301 at Tue Oct  4 23:32:09 2022, MaxMem=  2952790016 cpu:               2.5 elap:               0.2
 (Enter /mnt/data/applications/G16/g16/l302.exe)
 NPDir=0 NMtPBC=     1 NCelOv=     1 NCel=       1 NClECP=     1 NCelD=      1
         NCelK=      1 NCelE2=     1 NClLst=     1 CellRange=     0.0.
 One-electron integrals computed using PRISM.
 One-electron integral symmetry used in STVInt
   1 Symmetry operations used in ECPInt.
 ECPInt:  NShTT=   22578 NPrTT=   66767 LenC2=   20894 LenP2D=   46066.
 LDataN:  DoStor=T MaxTD1= 7 Len=  274
 NBasis=   510 RedAO= T EigKep=  1.43D-04  NBF=   510
 NBsUse=   510 1.00D-06 EigRej= -1.00D+00 NBFU=   510
 Precomputing XC quadrature grid using
 IXCGrd= 4 IRadAn=           5 IRanWt=          -1 IRanGd=           0 AccXCQ= 0.00D+00.
 Defaulting to unpruned grid for atomic number  45.
 Generated NRdTot=       0 NPtTot=           0 NUsed=           0 NTot=          32
 NSgBfM=   568   568   568   568   568 MxSgAt=    29 MxSgA2=    29.
 Leave Link  302 at Tue Oct  4 23:32:11 2022, MaxMem=  2952790016 cpu:              22.4 elap:               1.9
 (Enter /mnt/data/applications/G16/g16/l303.exe)
 DipDrv:  MaxL=1.
 Leave Link  303 at Tue Oct  4 23:32:11 2022, MaxMem=  2952790016 cpu:               1.2 elap:               0.1
 (Enter /mnt/data/applications/G16/g16/l401.exe)
 Initial guess from the checkpoint file:  "TS4t.chk"
 B after Tr=    -0.000000   -0.000000   -0.000000
         Rot=    1.000000    0.000019   -0.000005    0.000002 Ang=   0.00 deg.
 Guess basis will be translated and rotated to current coordinates.
 JPrj=2 DoOrth=T DoCkMO=T.
 Leave Link  401 at Tue Oct  4 23:32:12 2022, MaxMem=  2952790016 cpu:              12.9 elap:               1.1
 (Enter /mnt/data/applications/G16/g16/l502.exe)
 Integral symmetry usage will be decided dynamically.
 Closed shell SCF:
 Using DIIS extrapolation, IDIIS=  1040.
 NGot=  2952790016 LenX=  2952121135 LenY=  2951792233
 Requested convergence on RMS density matrix=1.00D-08 within 128 cycles.
 Requested convergence on MAX density matrix=1.00D-06.
 Requested convergence on             energy=1.00D-06.
 No special actions if energy rises.
 Fock matrices will be formed incrementally for  20 cycles.

 Cycle   1  Pass 1  IDiag  1:
 FoFJK:  IHMeth= 1 ICntrl=       0 DoSepK=T KAlg= 0 I1Cent=           0 FoldK=F
 IRaf=         1 NMat=       1 IRICut=       1 DoRegI=T DoRafI=F ISym2E= 0 IDoP0=0 IntGTp=1.
 FoFCou: FMM=F IPFlag=           0 FMFlag=      100000 FMFlg1=           0
         NFxFlg=           0 DoJE=T BraDBF=F KetDBF=F FulRan=T
         wScrn=  0.000000 ICntrl=       500 IOpCl=  0 I1Cent=           0 NGrid=           0
         NMat0=    1 NMatS0=      1 NMatT0=    0 NMatD0=    1 NMtDS0=    0 NMtDT0=    0
 Symmetry not used in FoFCou.
 Defaulting to unpruned grid for atomic number  45.
 Defaulting to unpruned grid for atomic number  45.
 Defaulting to unpruned grid for atomic number  45.
 Defaulting to unpruned grid for atomic number  45.
 Defaulting to unpruned grid for atomic number  45.
 Defaulting to unpruned grid for atomic number  45.
 Defaulting to unpruned grid for atomic number  45.
 Defaulting to unpruned grid for atomic number  45.
 Defaulting to unpruned grid for atomic number  45.
 Defaulting to unpruned grid for atomic number  45.
 Defaulting to unpruned grid for atomic number  45.
 Defaulting to unpruned grid for atomic number  45.
 Inv3:  Mode=1 IEnd=    20358075.
 Iteration    1 A*A^-1 deviation from unit magnitude is 2.89D-15 for    348.
 Iteration    1 A*A^-1 deviation from orthogonality  is 1.50D-15 for    744    470.
 Iteration    1 A^-1*A deviation from unit magnitude is 2.89D-15 for    348.
 Iteration    1 A^-1*A deviation from orthogonality  is 2.09D-15 for   2034    985.
 E= -992.208858214111    
 DIIS: error= 2.19D-05 at cycle   1 NSaved=   1.
 NSaved= 1 IEnMin= 1 EnMin= -992.208858214111     IErMin= 1 ErrMin= 2.19D-05
 ErrMax= 2.19D-05  0.00D+00 EMaxC= 1.00D-01 BMatC= 4.45D-07 BMatP= 4.45D-07
 IDIUse=1 WtCom= 1.00D+00 WtEn= 0.00D+00
 Coeff-Com:  0.100D+01
 Coeff:      0.100D+01
 Gap=     1.429 Goal=   None    Shift=    0.000
 RMSDP=1.37D-06 MaxDP=5.19D-05              OVMax= 1.27D-04

 Cycle   2  Pass 1  IDiag  1:
 RMSU=  1.37D-06    CP:  1.00D+00
 E= -992.208858774861     Delta-E=       -0.000000560750 Rises=F Damp=F
 DIIS: error= 3.63D-06 at cycle   2 NSaved=   2.
 NSaved= 2 IEnMin= 2 EnMin= -992.208858774861     IErMin= 2 ErrMin= 3.63D-06
 ErrMax= 3.63D-06  0.00D+00 EMaxC= 1.00D-01 BMatC= 1.49D-08 BMatP= 4.45D-07
 IDIUse=1 WtCom= 1.00D+00 WtEn= 0.00D+00
 Coeff-Com: -0.136D+00 0.114D+01
 Coeff:     -0.136D+00 0.114D+01
 Gap=     0.322 Goal=   None    Shift=    0.000
 RMSDP=4.57D-07 MaxDP=2.63D-05 DE=-5.61D-07 OVMax= 4.03D-05

 Cycle   3  Pass 1  IDiag  1:
 RMSU=  3.51D-07    CP:  1.00D+00  1.21D+00
 E= -992.208858804625     Delta-E=       -0.000000029765 Rises=F Damp=F
 DIIS: error= 3.60D-06 at cycle   3 NSaved=   3.
 NSaved= 3 IEnMin= 3 EnMin= -992.208858804625     IErMin= 3 ErrMin= 3.60D-06
 ErrMax= 3.60D-06  0.00D+00 EMaxC= 1.00D-01 BMatC= 9.21D-09 BMatP= 1.49D-08
 IDIUse=1 WtCom= 1.00D+00 WtEn= 0.00D+00
 Coeff-Com: -0.821D-01 0.590D+00 0.492D+00
 Coeff:     -0.821D-01 0.590D+00 0.492D+00
 Gap=     0.322 Goal=   None    Shift=    0.000
 RMSDP=2.19D-07 MaxDP=3.19D-05 DE=-2.98D-08 OVMax= 2.94D-05

 Cycle   4  Pass 1  IDiag  1:
 RMSU=  1.96D-07    CP:  1.00D+00  1.24D+00  7.56D-01
 E= -992.208858808784     Delta-E=       -0.000000004159 Rises=F Damp=F
 DIIS: error= 2.73D-06 at cycle   4 NSaved=   4.
 NSaved= 4 IEnMin= 4 EnMin= -992.208858808784     IErMin= 4 ErrMin= 2.73D-06
 ErrMax= 2.73D-06  0.00D+00 EMaxC= 1.00D-01 BMatC= 4.78D-09 BMatP= 9.21D-09
 IDIUse=1 WtCom= 1.00D+00 WtEn= 0.00D+00
 Coeff-Com:  0.164D-02-0.949D-01 0.437D+00 0.657D+00
 Coeff:      0.164D-02-0.949D-01 0.437D+00 0.657D+00
 Gap=     0.322 Goal=   None    Shift=    0.000
 RMSDP=1.23D-07 MaxDP=1.59D-05 DE=-4.16D-09 OVMax= 1.35D-05

 Cycle   5  Pass 1  IDiag  1:
 RMSU=  9.02D-08    CP:  1.00D+00  1.26D+00  9.25D-01  7.45D-01
 E= -992.208858812666     Delta-E=       -0.000000003882 Rises=F Damp=F
 DIIS: error= 2.99D-07 at cycle   5 NSaved=   5.
 NSaved= 5 IEnMin= 5 EnMin= -992.208858812666     IErMin= 5 ErrMin= 2.99D-07
 ErrMax= 2.99D-07  0.00D+00 EMaxC= 1.00D-01 BMatC= 1.33D-10 BMatP= 4.78D-09
 IDIUse=1 WtCom= 1.00D+00 WtEn= 0.00D+00
 Coeff-Com:  0.701D-02-0.876D-01 0.140D+00 0.270D+00 0.671D+00
 Coeff:      0.701D-02-0.876D-01 0.140D+00 0.270D+00 0.671D+00
 Gap=     0.322 Goal=   None    Shift=    0.000
 RMSDP=3.94D-08 MaxDP=2.74D-06 DE=-3.88D-09 OVMax= 3.06D-06

 Cycle   6  Pass 1  IDiag  1:
 RMSU=  1.95D-08    CP:  1.00D+00  1.26D+00  1.00D+00  8.31D-01  8.79D-01
 E= -992.208858812763     Delta-E=       -0.000000000097 Rises=F Damp=F
 DIIS: error= 1.41D-07 at cycle   6 NSaved=   6.
 NSaved= 6 IEnMin= 6 EnMin= -992.208858812763     IErMin= 6 ErrMin= 1.41D-07
 ErrMax= 1.41D-07  0.00D+00 EMaxC= 1.00D-01 BMatC= 1.40D-11 BMatP= 1.33D-10
 IDIUse=1 WtCom= 1.00D+00 WtEn= 0.00D+00
 Coeff-Com:  0.233D-02-0.200D-01-0.640D-02 0.109D-01 0.229D+00 0.784D+00
 Coeff:      0.233D-02-0.200D-01-0.640D-02 0.109D-01 0.229D+00 0.784D+00
 Gap=     0.322 Goal=   None    Shift=    0.000
 RMSDP=1.25D-08 MaxDP=7.95D-07 DE=-9.73D-11 OVMax= 1.53D-06

 Cycle   7  Pass 1  IDiag  1:
 RMSU=  6.49D-09    CP:  1.00D+00  1.26D+00  1.02D+00  8.52D-01  9.60D-01
                    CP:  1.15D+00
 E= -992.208858812906     Delta-E=       -0.000000000142 Rises=F Damp=F
 DIIS: error= 8.04D-08 at cycle   7 NSaved=   7.
 NSaved= 7 IEnMin= 7 EnMin= -992.208858812906     IErMin= 7 ErrMin= 8.04D-08
 ErrMax= 8.04D-08  0.00D+00 EMaxC= 1.00D-01 BMatC= 4.87D-12 BMatP= 1.40D-11
 IDIUse=1 WtCom= 1.00D+00 WtEn= 0.00D+00
 Coeff-Com:  0.107D-03 0.420D-02-0.282D-01-0.406D-01 0.132D-01 0.425D+00
 Coeff-Com:  0.626D+00
 Coeff:      0.107D-03 0.420D-02-0.282D-01-0.406D-01 0.132D-01 0.425D+00
 Coeff:      0.626D+00
 Gap=     0.322 Goal=   None    Shift=    0.000
 RMSDP=5.45D-09 MaxDP=3.43D-07 DE=-1.42D-10 OVMax= 7.67D-07

 Error on total polarization charges =  0.03067
 SCF Done:  E(RwB97XD) =  -992.208858813     A.U. after    7 cycles
            NFock=  7  Conv=0.55D-08     -V/T= 2.0799
 KE= 9.188018309054D+02 PE=-4.529310753217D+03 EE= 1.507028437356D+03
 SMD-CDS (non-electrostatic) energy       (kcal/mol) =      -0.17
 (included in total energy above)
 Leave Link  502 at Tue Oct  4 23:39:55 2022, MaxMem=  2952790016 cpu:            5502.2 elap:             463.3
 (Enter /mnt/data/applications/G16/g16/l701.exe)
 ... and contract with generalized density number  0.
 Compute integral first derivatives.
 R6Disp: Adding Grimme-D2 dispersion energy 1st derivatives to the gradient.
   1 Symmetry operations used in ECPInt.
 ECPInt:  NShTT=   22578 NPrTT=   66767 LenC2=   20894 LenP2D=   46066.
 LDataN:  DoStor=T MaxTD1= 8 Len=  415
 D1PCM: PCM CHGder 1st derivatives, ID1Alg=3 FixD1E=F DoIter=F DoCFld=F I1PDM=0.
 GePol: Maximum number of non-zero 1st derivatives   =     435
 Leave Link  701 at Tue Oct  4 23:40:07 2022, MaxMem=  2952790016 cpu:             140.1 elap:              11.7
 (Enter /mnt/data/applications/G16/g16/l702.exe)
 L702 exits ... SP integral derivatives will be done elsewhere.
 Leave Link  702 at Tue Oct  4 23:40:07 2022, MaxMem=  2952790016 cpu:               0.2 elap:               0.0
 (Enter /mnt/data/applications/G16/g16/l703.exe)
 Integral derivatives from FoFJK, PRISM(SPDF).
 Compute integral first derivatives, UseDBF=F ICtDFT=           0.
 Calling FoFJK, ICntrl=      2127 FMM=F ISym2X=0 I1Cent= 0 IOpClX= 0 NMat=1 NMatS=1 NMatT=0.
 FoFJK:  IHMeth= 1 ICntrl=    2127 DoSepK=T KAlg= 0 I1Cent=           0 FoldK=F
 IRaf=         1 NMat=       1 IRICut=       1 DoRegI=T DoRafI=F ISym2E= 0 IDoP0=0 IntGTp=1.
 FoFCou: FMM=F IPFlag=           0 FMFlag=      100000 FMFlg1=         800
         NFxFlg=           0 DoJE=F BraDBF=F KetDBF=F FulRan=T
         wScrn=  0.000000 ICntrl=      2527 IOpCl=  0 I1Cent=           0 NGrid=           0
         NMat0=    1 NMatS0=      1 NMatT0=    0 NMatD0=    1 NMtDS0=    0 NMtDT0=    0
 Symmetry not used in FoFCou.
 Defaulting to unpruned grid for atomic number  45.
 Defaulting to unpruned grid for atomic number  45.
 Defaulting to unpruned grid for atomic number  45.
 Defaulting to unpruned grid for atomic number  45.
 Defaulting to unpruned grid for atomic number  45.
 Defaulting to unpruned grid for atomic number  45.
 Defaulting to unpruned grid for atomic number  45.
 Defaulting to unpruned grid for atomic number  45.
 Defaulting to unpruned grid for atomic number  45.
 Defaulting to unpruned grid for atomic number  45.
 Defaulting to unpruned grid for atomic number  45.
 Defaulting to unpruned grid for atomic number  45.
 Leave Link  703 at Tue Oct  4 23:44:34 2022, MaxMem=  2952790016 cpu:            3196.5 elap:             267.1
 (Enter /mnt/data/applications/G16/g16/l716.exe)
 Dipole        =-1.06128724D+00 1.01731900D+00-7.94613251D-04
 ***** Axes restored to original set *****
 -------------------------------------------------------------------
 Center     Atomic                   Forces (Hartrees/Bohr)
 Number     Number              X              Y              Z
 -------------------------------------------------------------------
      1        1          -0.000008177   -0.000002123    0.000001897
      2        1          -0.000000530   -0.000003138    0.000001152
      3       45          -0.000003363   -0.000000138    0.000001165
      4        6          -0.000000359   -0.000005244    0.000001173
      5        8           0.000003300   -0.000004645    0.000001753
      6        6          -0.000002469   -0.000009178    0.000003519
      7        6           0.000000415   -0.000013072    0.000004238
      8        1          -0.000003896   -0.000009886    0.000004280
      9        1          -0.000005220   -0.000008340    0.000004181
     10        1          -0.000001549   -0.000015778    0.000005794
     11        1           0.000003243   -0.000013618    0.000004142
     12        1           0.000001574   -0.000012517    0.000004096
     13        6          -0.000007732    0.000001583    0.000000466
     14        8          -0.000008846    0.000001907    0.000001250
     15       15           0.000001490    0.000004224   -0.000001601
     16        6           0.000006423    0.000003905   -0.000002581
     17        6           0.000003674    0.000004641   -0.000002285
     18        6           0.000000260    0.000010703   -0.000003647
     19        1          -0.000000198    0.000011154   -0.000003574
     20        1           0.000003251    0.000012377   -0.000004911
     21        1          -0.000002349    0.000011544   -0.000003468
     22        1           0.000006032    0.000004215   -0.000002682
     23        1           0.000008186    0.000000561   -0.000001616
     24        1           0.000009203    0.000005860   -0.000003962
     25        1           0.000004862    0.000001342   -0.000001226
     26        1           0.000000915    0.000005419   -0.000002072
     27        1           0.000006388    0.000006628   -0.000003643
     28        6          -0.000005825    0.000005628   -0.000001339
     29        8          -0.000008704    0.000005985   -0.000000499
 -------------------------------------------------------------------
 Cartesian Forces:  Max     0.000015778 RMS     0.000005729
 Leave Link  716 at Tue Oct  4 23:44:34 2022, MaxMem=  2952790016 cpu:               0.3 elap:               0.0
 (Enter /mnt/data/applications/G16/g16/l103.exe)

 GradGradGradGradGradGradGradGradGradGradGradGradGradGradGradGradGradGrad
 Berny optimization.
 FormGI is forming the generalized inverse of G from B-inverse, IUseBI=4.
 Internal  Forces:  Max     0.000000834 RMS     0.000000261
 Search for a saddle point.
 Step number   3 out of a maximum of  161
 All quantities printed in internal units (Hartrees-Bohrs-Radians)
 Swapping is turned off.
 Update second derivatives using D2CorX and points    1    2    3
 ITU=  0  0  0
     Eigenvalues ---   -0.03809   0.00143   0.00162   0.00224   0.00226
     Eigenvalues ---    0.00257   0.00319   0.00711   0.01664   0.01987
     Eigenvalues ---    0.02179   0.02384   0.02797   0.03007   0.03471
     Eigenvalues ---    0.03620   0.03824   0.03980   0.04010   0.04023
     Eigenvalues ---    0.04052   0.04107   0.04163   0.04216   0.04437
     Eigenvalues ---    0.04555   0.04865   0.04958   0.06309   0.07072
     Eigenvalues ---    0.07685   0.07831   0.07933   0.08842   0.09714
     Eigenvalues ---    0.09799   0.10158   0.10878   0.11077   0.11145
     Eigenvalues ---    0.11194   0.11326   0.11425   0.12027   0.12265
     Eigenvalues ---    0.12284   0.12967   0.13535   0.14427   0.14612
     Eigenvalues ---    0.14709   0.14959   0.16009   0.16282   0.16901
     Eigenvalues ---    0.19262   0.19972   0.21823   0.22498   0.22634
     Eigenvalues ---    0.23722   0.25522   0.29699   0.31655   0.33580
     Eigenvalues ---    0.34142   0.34168   0.34175   0.34216   0.34263
     Eigenvalues ---    0.34449   0.34484   0.34638   0.34671   0.34867
     Eigenvalues ---    0.34959   0.35076   0.35281   0.81933   1.16757
     Eigenvalues ---    1.19577
 Eigenvectors required to have negative eigenvalues:
                          A5        A6        R3        D12       D11
   1                   -0.42193  -0.31875   0.27064   0.25507   0.24825
                          D13       R2        A11       A8        D16
   1                    0.24794   0.22382  -0.22049   0.20068  -0.17376
 RFO step:  Lambda0=1.351696532D-12 Lambda= 0.00000000D+00.
 Linear search not attempted -- option 19 set.
 Iteration  1 RMS(Cart)=  0.00011422 RMS(Int)=  0.00000001
 Iteration  2 RMS(Cart)=  0.00000001 RMS(Int)=  0.00000000
 ITry= 1 IFail=0 DXMaxC= 5.39D-04 DCOld= 1.00D+10 DXMaxT= 2.00D-02 DXLimC= 3.00D+00 Rises=F
 Variable       Old X    -DE/DX   Delta X   Delta X   Delta X     New X
                                 (Linear)    (Quad)   (Total)
    R1        3.00624  -0.00000   0.00000  -0.00000  -0.00000   3.00624
    R2        3.15074  -0.00000   0.00000  -0.00000  -0.00000   3.15074
    R3        4.11976  -0.00000   0.00000  -0.00001  -0.00001   4.11975
    R4        3.62674  -0.00000   0.00000  -0.00001  -0.00001   3.62674
    R5        4.52023  -0.00000   0.00000  -0.00000  -0.00000   4.52023
    R6        3.66768  -0.00000   0.00000   0.00000   0.00000   3.66768
    R7        2.28167   0.00000   0.00000   0.00000   0.00000   2.28167
    R8        2.86953   0.00000   0.00000  -0.00000  -0.00000   2.86953
    R9        2.86982  -0.00000   0.00000   0.00000   0.00000   2.86982
   R10        2.06383  -0.00000   0.00000  -0.00000  -0.00000   2.06383
   R11        2.06684   0.00000   0.00000   0.00000   0.00000   2.06685
   R12        2.06251  -0.00000   0.00000  -0.00000  -0.00000   2.06251
   R13        2.06189  -0.00000   0.00000   0.00000   0.00000   2.06189
   R14        2.06032   0.00000   0.00000  -0.00000  -0.00000   2.06032
   R15        2.15003   0.00000   0.00000   0.00000   0.00000   2.15003
   R16        3.42729   0.00000   0.00000  -0.00000  -0.00000   3.42729
   R17        3.42927  -0.00000   0.00000   0.00000   0.00000   3.42927
   R18        3.43552   0.00000   0.00000  -0.00000  -0.00000   3.43552
   R19        2.06143   0.00000   0.00000   0.00000   0.00000   2.06143
   R20        2.05933   0.00000   0.00000   0.00000   0.00000   2.05933
   R21        2.06337  -0.00000   0.00000  -0.00000  -0.00000   2.06337
   R22        2.05893   0.00000   0.00000   0.00000   0.00000   2.05893
   R23        2.06197   0.00000   0.00000   0.00000   0.00000   2.06197
   R24        2.06320   0.00000   0.00000   0.00000   0.00000   2.06320
   R25        2.06190  -0.00000   0.00000  -0.00000  -0.00000   2.06190
   R26        2.06332   0.00000   0.00000  -0.00000  -0.00000   2.06332
   R27        2.06169   0.00000   0.00000   0.00000   0.00000   2.06169
   R28        2.14705   0.00000   0.00000  -0.00000  -0.00000   2.14705
    A1        1.50385  -0.00000   0.00000  -0.00001  -0.00001   1.50384
    A2        1.52520   0.00000   0.00000   0.00000   0.00000   1.52520
    A3        1.50699   0.00000   0.00000   0.00001   0.00001   1.50700
    A4        1.48057  -0.00000   0.00000   0.00001   0.00001   1.48058
    A5        0.73173  -0.00000   0.00000   0.00000   0.00000   0.73173
    A6        2.46328   0.00000   0.00000   0.00001   0.00001   2.46330
    A7        1.59814   0.00000   0.00000   0.00001   0.00001   1.59816
    A8        1.84880  -0.00000   0.00000  -0.00002  -0.00002   1.84878
    A9        1.73940   0.00000   0.00000   0.00001   0.00001   1.73941
   A10        1.59195   0.00000   0.00000  -0.00000  -0.00000   1.59195
   A11        2.57366  -0.00000   0.00000  -0.00001  -0.00001   2.57364
   A12        1.67036  -0.00000   0.00000  -0.00002  -0.00002   1.67033
   A13        1.94213   0.00000   0.00000   0.00001   0.00001   1.94214
   A14        1.66493  -0.00000   0.00000  -0.00000  -0.00000   1.66492
   A15        2.12243  -0.00000   0.00000   0.00000   0.00000   2.12244
   A16        2.01762  -0.00000   0.00000  -0.00001  -0.00001   2.01761
   A17        2.11733   0.00000   0.00000  -0.00000  -0.00000   2.11733
   A18        1.99097   0.00000   0.00000   0.00000   0.00000   1.99097
   A19        1.87448  -0.00000   0.00000   0.00002   0.00002   1.87450
   A20        1.85948  -0.00000   0.00000  -0.00002  -0.00002   1.85946
   A21        1.95005  -0.00000   0.00000   0.00001   0.00001   1.95005
   A22        1.94139  -0.00000   0.00000  -0.00001  -0.00001   1.94138
   A23        1.83854   0.00000   0.00000   0.00000   0.00000   1.83854
   A24        1.92078  -0.00000   0.00000   0.00000   0.00000   1.92078
   A25        1.94233  -0.00000   0.00000  -0.00000  -0.00000   1.94233
   A26        1.94388   0.00000   0.00000   0.00000   0.00000   1.94388
   A27        1.88739   0.00000   0.00000  -0.00000  -0.00000   1.88738
   A28        1.88847   0.00000   0.00000   0.00000   0.00000   1.88847
   A29        1.87902   0.00000   0.00000   0.00000   0.00000   1.87902
   A30        2.00593  -0.00000   0.00000  -0.00001  -0.00001   2.00592
   A31        2.01028  -0.00000   0.00000  -0.00000  -0.00000   2.01028
   A32        1.99957   0.00000   0.00000   0.00001   0.00001   1.99958
   A33        1.81592   0.00000   0.00000   0.00001   0.00001   1.81593
   A34        1.80519   0.00000   0.00000   0.00001   0.00001   1.80520
   A35        1.80045  -0.00000   0.00000  -0.00000  -0.00000   1.80044
   A36        1.90605  -0.00000   0.00000  -0.00000  -0.00000   1.90605
   A37        1.89655  -0.00000   0.00000  -0.00001  -0.00001   1.89654
   A38        1.94195   0.00000   0.00000   0.00001   0.00001   1.94196
   A39        1.89837   0.00000   0.00000  -0.00000  -0.00000   1.89837
   A40        1.90809  -0.00000   0.00000   0.00000   0.00000   1.90809
   A41        1.91230   0.00000   0.00000   0.00000   0.00000   1.91230
   A42        1.90100   0.00000   0.00000   0.00000   0.00000   1.90101
   A43        1.90900  -0.00000   0.00000  -0.00000  -0.00000   1.90900
   A44        1.94128  -0.00000   0.00000  -0.00000  -0.00000   1.94128
   A45        1.89839   0.00000   0.00000   0.00000   0.00000   1.89839
   A46        1.91046   0.00000   0.00000   0.00000   0.00000   1.91046
   A47        1.90323   0.00000   0.00000   0.00000   0.00000   1.90323
   A48        1.91305   0.00000   0.00000   0.00000   0.00000   1.91305
   A49        1.94251  -0.00000   0.00000  -0.00000  -0.00000   1.94251
   A50        1.91050  -0.00000   0.00000  -0.00000  -0.00000   1.91050
   A51        1.90183  -0.00000   0.00000   0.00000   0.00000   1.90183
   A52        1.88911  -0.00000   0.00000   0.00000   0.00000   1.88911
   A53        1.90603   0.00000   0.00000  -0.00000  -0.00000   1.90603
   A54        3.10200   0.00000   0.00000   0.00000   0.00000   3.10200
   A55        3.10371  -0.00000   0.00000   0.00000   0.00000   3.10371
   A56        3.19904  -0.00000   0.00000  -0.00001  -0.00001   3.19903
   A57        3.13410  -0.00000   0.00000   0.00001   0.00001   3.13410
   A58        3.16749  -0.00000   0.00000  -0.00002  -0.00002   3.16747
   A59        3.16946   0.00000   0.00000   0.00000   0.00000   3.16946
    D1       -3.08325  -0.00000   0.00000  -0.00003  -0.00003  -3.08328
    D2       -0.18085  -0.00000   0.00000  -0.00004  -0.00004  -0.18089
    D3        1.67858   0.00000   0.00000  -0.00001  -0.00001   1.67857
    D4       -1.70221   0.00000   0.00000  -0.00003  -0.00003  -1.70224
    D5       -1.58503   0.00000   0.00000  -0.00001  -0.00001  -1.58504
    D6        1.31737   0.00000   0.00000  -0.00003  -0.00003   1.31734
    D7        0.09040  -0.00000   0.00000  -0.00003  -0.00003   0.09037
    D8        2.99280  -0.00000   0.00000  -0.00005  -0.00005   2.99275
    D9        1.87066  -0.00000   0.00000  -0.00005  -0.00005   1.87061
   D10       -1.51012  -0.00000   0.00000  -0.00007  -0.00007  -1.51019
   D11        0.28535   0.00000   0.00000   0.00005   0.00005   0.28540
   D12       -1.82560   0.00000   0.00000   0.00005   0.00005  -1.82555
   D13        2.37297   0.00000   0.00000   0.00006   0.00006   2.37303
   D14        1.01728   0.00000   0.00000   0.00005   0.00005   1.01733
   D15       -1.09368   0.00000   0.00000   0.00006   0.00006  -1.09362
   D16        3.10490   0.00000   0.00000   0.00006   0.00006   3.10495
   D17        2.75971   0.00000   0.00000   0.00006   0.00006   2.75977
   D18        0.64876   0.00000   0.00000   0.00006   0.00006   0.64882
   D19       -1.43586   0.00000   0.00000   0.00007   0.00007  -1.43579
   D20       -1.56751   0.00000   0.00000   0.00007   0.00007  -1.56744
   D21        2.60472   0.00000   0.00000   0.00007   0.00007   2.60479
   D22        0.52011   0.00000   0.00000   0.00008   0.00008   0.52018
   D23       -3.03455  -0.00000   0.00000  -0.00021  -0.00021  -3.03476
   D24        1.07746  -0.00000   0.00000  -0.00023  -0.00023   1.07723
   D25       -0.88560  -0.00000   0.00000  -0.00023  -0.00023  -0.88583
   D26       -0.13140  -0.00000   0.00000  -0.00022  -0.00022  -0.13162
   D27       -2.30257  -0.00000   0.00000  -0.00025  -0.00025  -2.30282
   D28        2.01756  -0.00000   0.00000  -0.00025  -0.00025   2.01731
   D29       -3.14028  -0.00000   0.00000  -0.00002  -0.00002  -3.14031
   D30       -1.04830  -0.00000   0.00000  -0.00002  -0.00002  -1.04833
   D31        1.04856  -0.00000   0.00000  -0.00002  -0.00002   1.04854
   D32       -1.01012   0.00000   0.00000   0.00001   0.00001  -1.01011
   D33        1.08186   0.00000   0.00000   0.00001   0.00001   1.08187
   D34       -3.10446   0.00000   0.00000   0.00001   0.00001  -3.10446
   D35        1.03910   0.00000   0.00000   0.00002   0.00002   1.03912
   D36        3.13108  -0.00000   0.00000   0.00001   0.00001   3.13109
   D37       -1.05524  -0.00000   0.00000   0.00001   0.00001  -1.05523
   D38        1.02901   0.00000   0.00000  -0.00002  -0.00002   1.02899
   D39       -1.03938   0.00000   0.00000  -0.00001  -0.00001  -1.03940
   D40        3.13691   0.00000   0.00000  -0.00002  -0.00002   3.13689
   D41       -3.03995  -0.00000   0.00000  -0.00003  -0.00003  -3.03998
   D42        1.17484   0.00000   0.00000  -0.00002  -0.00002   1.17482
   D43       -0.93205  -0.00000   0.00000  -0.00002  -0.00002  -0.93207
   D44       -1.16343  -0.00000   0.00000  -0.00003  -0.00003  -1.16346
   D45        3.05136  -0.00000   0.00000  -0.00002  -0.00002   3.05134
   D46        0.94447  -0.00000   0.00000  -0.00002  -0.00002   0.94445
   D47        0.98644  -0.00000   0.00000  -0.00003  -0.00003   0.98642
   D48       -1.08629  -0.00000   0.00000  -0.00003  -0.00003  -1.08631
   D49        3.09355  -0.00000   0.00000  -0.00002  -0.00002   3.09353
   D50       -1.22506   0.00000   0.00000  -0.00001  -0.00001  -1.22508
   D51        2.98539   0.00000   0.00000  -0.00001  -0.00001   2.98538
   D52        0.88204   0.00000   0.00000  -0.00001  -0.00001   0.88203
   D53       -3.10511   0.00000   0.00000  -0.00002  -0.00002  -3.10513
   D54        1.10534   0.00000   0.00000  -0.00002  -0.00002   1.10532
   D55       -0.99801   0.00000   0.00000  -0.00002  -0.00002  -0.99803
   D56       -1.08725   0.00000   0.00000   0.00002   0.00002  -1.08724
   D57        3.09087   0.00000   0.00000   0.00001   0.00001   3.09088
   D58        0.98224   0.00000   0.00000   0.00002   0.00002   0.98226
   D59        1.10926  -0.00000   0.00000   0.00001   0.00001   1.10927
   D60       -0.99580  -0.00000   0.00000   0.00001   0.00001  -0.99579
   D61       -3.10443  -0.00000   0.00000   0.00001   0.00001  -3.10442
   D62        2.99741   0.00000   0.00000   0.00002   0.00002   2.99743
   D63        0.89235   0.00000   0.00000   0.00002   0.00002   0.89236
   D64       -1.21628   0.00000   0.00000   0.00002   0.00002  -1.21626
         Item               Value     Threshold  Converged?
 Maximum Force            0.000001     0.000450     YES
 RMS     Force            0.000000     0.000300     YES
 Maximum Displacement     0.000539     0.001800     YES
 RMS     Displacement     0.000114     0.001200     YES
 Predicted change in Energy=-4.511581D-10
 Optimization completed.
    -- Stationary point found.
                           ----------------------------
                           !   Optimized Parameters   !
                           ! (Angstroms and Degrees)  !
 --------------------------                            --------------------------
 ! Name  Definition              Value          Derivative Info.                !
 --------------------------------------------------------------------------------
 ! R1    R(1,3)                  1.5908         -DE/DX =    0.0                 !
 ! R2    R(2,3)                  1.6673         -DE/DX =    0.0                 !
 ! R3    R(3,4)                  2.1801         -DE/DX =    0.0                 !
 ! R4    R(3,13)                 1.9192         -DE/DX =    0.0                 !
 ! R5    R(3,15)                 2.392          -DE/DX =    0.0                 !
 ! R6    R(3,28)                 1.9409         -DE/DX =    0.0                 !
 ! R7    R(4,5)                  1.2074         -DE/DX =    0.0                 !
 ! R8    R(4,6)                  1.5185         -DE/DX =    0.0                 !
 ! R9    R(6,7)                  1.5186         -DE/DX =    0.0                 !
 ! R10   R(6,8)                  1.0921         -DE/DX =    0.0                 !
 ! R11   R(6,9)                  1.0937         -DE/DX =    0.0                 !
 ! R12   R(7,10)                 1.0914         -DE/DX =    0.0                 !
 ! R13   R(7,11)                 1.0911         -DE/DX =    0.0                 !
 ! R14   R(7,12)                 1.0903         -DE/DX =    0.0                 !
 ! R15   R(13,14)                1.1377         -DE/DX =    0.0                 !
 ! R16   R(15,16)                1.8136         -DE/DX =    0.0                 !
 ! R17   R(15,17)                1.8147         -DE/DX =    0.0                 !
 ! R18   R(15,18)                1.818          -DE/DX =    0.0                 !
 ! R19   R(16,22)                1.0909         -DE/DX =    0.0                 !
 ! R20   R(16,23)                1.0898         -DE/DX =    0.0                 !
 ! R21   R(16,24)                1.0919         -DE/DX =    0.0                 !
 ! R22   R(17,25)                1.0895         -DE/DX =    0.0                 !
 ! R23   R(17,26)                1.0911         -DE/DX =    0.0                 !
 ! R24   R(17,27)                1.0918         -DE/DX =    0.0                 !
 ! R25   R(18,19)                1.0911         -DE/DX =    0.0                 !
 ! R26   R(18,20)                1.0919         -DE/DX =    0.0                 !
 ! R27   R(18,21)                1.091          -DE/DX =    0.0                 !
 ! R28   R(28,29)                1.1362         -DE/DX =    0.0                 !
 ! A1    A(1,3,2)               86.1643         -DE/DX =    0.0                 !
 ! A2    A(1,3,4)               87.3878         -DE/DX =    0.0                 !
 ! A3    A(1,3,13)              86.344          -DE/DX =    0.0                 !
 ! A4    A(1,3,28)              84.8307         -DE/DX =    0.0                 !
 ! A5    A(2,3,4)               41.9248         -DE/DX =    0.0                 !
 ! A6    A(2,3,13)             141.1358         -DE/DX =    0.0                 !
 ! A7    A(2,3,15)              91.567          -DE/DX =    0.0                 !
 ! A8    A(2,3,28)             105.9284         -DE/DX =    0.0                 !
 ! A9    A(4,3,13)              99.6604         -DE/DX =    0.0                 !
 ! A10   A(4,3,15)              91.2119         -DE/DX =    0.0                 !
 ! A11   A(4,3,28)             147.4597         -DE/DX =    0.0                 !
 ! A12   A(13,3,15)             95.7044         -DE/DX =    0.0                 !
 ! A13   A(13,3,28)            111.2758         -DE/DX =    0.0                 !
 ! A14   A(15,3,28)             95.3933         -DE/DX =    0.0                 !
 ! A15   A(3,4,5)              121.6065         -DE/DX =    0.0                 !
 ! A16   A(3,4,6)              115.601          -DE/DX =    0.0                 !
 ! A17   A(5,4,6)              121.3143         -DE/DX =    0.0                 !
 ! A18   A(4,6,7)              114.0743         -DE/DX =    0.0                 !
 ! A19   A(4,6,8)              107.4            -DE/DX =    0.0                 !
 ! A20   A(4,6,9)              106.5405         -DE/DX =    0.0                 !
 ! A21   A(7,6,8)              111.7294         -DE/DX =    0.0                 !
 ! A22   A(7,6,9)              111.2336         -DE/DX =    0.0                 !
 ! A23   A(8,6,9)              105.3403         -DE/DX =    0.0                 !
 ! A24   A(6,7,10)             110.0527         -DE/DX =    0.0                 !
 ! A25   A(6,7,11)             111.2875         -DE/DX =    0.0                 !
 ! A26   A(6,7,12)             111.376          -DE/DX =    0.0                 !
 ! A27   A(10,7,11)            108.1393         -DE/DX =    0.0                 !
 ! A28   A(10,7,12)            108.2015         -DE/DX =    0.0                 !
 ! A29   A(11,7,12)            107.6597         -DE/DX =    0.0                 !
 ! A30   A(3,15,16)            114.9316         -DE/DX =    0.0                 !
 ! A31   A(3,15,17)            115.1806         -DE/DX =    0.0                 !
 ! A32   A(3,15,18)            114.567          -DE/DX =    0.0                 !
 ! A33   A(16,15,17)           104.0447         -DE/DX =    0.0                 !
 ! A34   A(16,15,18)           103.4298         -DE/DX =    0.0                 !
 ! A35   A(17,15,18)           103.1581         -DE/DX =    0.0                 !
 ! A36   A(15,16,22)           109.2087         -DE/DX =    0.0                 !
 ! A37   A(15,16,23)           108.664          -DE/DX =    0.0                 !
 ! A38   A(15,16,24)           111.2658         -DE/DX =    0.0                 !
 ! A39   A(22,16,23)           108.7687         -DE/DX =    0.0                 !
 ! A40   A(22,16,24)           109.3255         -DE/DX =    0.0                 !
 ! A41   A(23,16,24)           109.5665         -DE/DX =    0.0                 !
 ! A42   A(15,17,25)           108.9194         -DE/DX =    0.0                 !
 ! A43   A(15,17,26)           109.3779         -DE/DX =    0.0                 !
 ! A44   A(15,17,27)           111.2273         -DE/DX =    0.0                 !
 ! A45   A(25,17,26)           108.7698         -DE/DX =    0.0                 !
 ! A46   A(25,17,27)           109.4614         -DE/DX =    0.0                 !
 ! A47   A(26,17,27)           109.0468         -DE/DX =    0.0                 !
 ! A48   A(15,18,19)           109.6096         -DE/DX =    0.0                 !
 ! A49   A(15,18,20)           111.2978         -DE/DX =    0.0                 !
 ! A50   A(15,18,21)           109.4637         -DE/DX =    0.0                 !
 ! A51   A(19,18,20)           108.9667         -DE/DX =    0.0                 !
 ! A52   A(19,18,21)           108.2382         -DE/DX =    0.0                 !
 ! A53   A(20,18,21)           109.2073         -DE/DX =    0.0                 !
 ! A54   L(1,3,15,2,-1)        177.7313         -DE/DX =    0.0                 !
 ! A55   L(3,13,14,9,-1)       177.8295         -DE/DX =    0.0                 !
 ! A56   L(3,28,29,18,-1)      183.2916         -DE/DX =    0.0                 !
 ! A57   L(1,3,15,2,-2)        179.5704         -DE/DX =    0.0                 !
 ! A58   L(3,13,14,9,-2)       181.4839         -DE/DX =    0.0                 !
 ! A59   L(3,28,29,18,-2)      181.5967         -DE/DX =    0.0                 !
 ! D1    D(1,3,4,5)           -176.6571         -DE/DX =    0.0                 !
 ! D2    D(1,3,4,6)            -10.3619         -DE/DX =    0.0                 !
 ! D3    D(2,3,4,5)             96.1755         -DE/DX =    0.0                 !
 ! D4    D(2,3,4,6)            -97.5292         -DE/DX =    0.0                 !
 ! D5    D(13,3,4,5)           -90.8157         -DE/DX =    0.0                 !
 ! D6    D(13,3,4,6)            75.4796         -DE/DX =    0.0                 !
 ! D7    D(15,3,4,5)             5.1797         -DE/DX =    0.0                 !
 ! D8    D(15,3,4,6)           171.475          -DE/DX =    0.0                 !
 ! D9    D(28,3,4,5)           107.1812         -DE/DX =    0.0                 !
 ! D10   D(28,3,4,6)           -86.5236         -DE/DX =    0.0                 !
 ! D11   D(2,3,15,16)           16.3496         -DE/DX =    0.0                 !
 ! D12   D(2,3,15,17)         -104.5993         -DE/DX =    0.0                 !
 ! D13   D(2,3,15,18)          135.9612         -DE/DX =    0.0                 !
 ! D14   D(4,3,15,16)           58.2858         -DE/DX =    0.0                 !
 ! D15   D(4,3,15,17)          -62.663          -DE/DX =    0.0                 !
 ! D16   D(4,3,15,18)          177.8974         -DE/DX =    0.0                 !
 ! D17   D(13,3,15,16)         158.1198         -DE/DX =    0.0                 !
 ! D18   D(13,3,15,17)          37.171          -DE/DX =    0.0                 !
 ! D19   D(13,3,15,18)         -82.2686         -DE/DX =    0.0                 !
 ! D20   D(28,3,15,16)         -89.8117         -DE/DX =    0.0                 !
 ! D21   D(28,3,15,17)         149.2395         -DE/DX =    0.0                 !
 ! D22   D(28,3,15,18)          29.7999         -DE/DX =    0.0                 !
 ! D23   D(3,4,6,7)           -173.8672         -DE/DX =    0.0                 !
 ! D24   D(3,4,6,8)             61.7337         -DE/DX =    0.0                 !
 ! D25   D(3,4,6,9)            -50.741          -DE/DX =    0.0                 !
 ! D26   D(5,4,6,7)             -7.5284         -DE/DX =    0.0                 !
 ! D27   D(5,4,6,8)           -131.9275         -DE/DX =    0.0                 !
 ! D28   D(5,4,6,9)            115.5978         -DE/DX =    0.0                 !
 ! D29   D(4,6,7,10)          -179.925          -DE/DX =    0.0                 !
 ! D30   D(4,6,7,11)           -60.0633         -DE/DX =    0.0                 !
 ! D31   D(4,6,7,12)            60.0781         -DE/DX =    0.0                 !
 ! D32   D(8,6,7,10)           -57.8758         -DE/DX =    0.0                 !
 ! D33   D(8,6,7,11)            61.9859         -DE/DX =    0.0                 !
 ! D34   D(8,6,7,12)          -177.8727         -DE/DX =    0.0                 !
 ! D35   D(9,6,7,10)            59.5361         -DE/DX =    0.0                 !
 ! D36   D(9,6,7,11)           179.3978         -DE/DX =    0.0                 !
 ! D37   D(9,6,7,12)           -60.4608         -DE/DX =    0.0                 !
 ! D38   D(3,15,16,22)          58.958          -DE/DX =    0.0                 !
 ! D39   D(3,15,16,23)         -59.5522         -DE/DX =    0.0                 !
 ! D40   D(3,15,16,24)         179.7318         -DE/DX =    0.0                 !
 ! D41   D(17,15,16,22)       -174.1762         -DE/DX =    0.0                 !
 ! D42   D(17,15,16,23)         67.3135         -DE/DX =    0.0                 !
 ! D43   D(17,15,16,24)        -53.4025         -DE/DX =    0.0                 !
 ! D44   D(18,15,16,22)        -66.6595         -DE/DX =    0.0                 !
 ! D45   D(18,15,16,23)        174.8303         -DE/DX =    0.0                 !
 ! D46   D(18,15,16,24)         54.1143         -DE/DX =    0.0                 !
 ! D47   D(3,15,17,25)          56.5191         -DE/DX =    0.0                 !
 ! D48   D(3,15,17,26)         -62.2397         -DE/DX =    0.0                 !
 ! D49   D(3,15,17,27)         177.2474         -DE/DX =    0.0                 !
 ! D50   D(16,15,17,25)        -70.191          -DE/DX =    0.0                 !
 ! D51   D(16,15,17,26)        171.0502         -DE/DX =    0.0                 !
 ! D52   D(16,15,17,27)         50.5373         -DE/DX =    0.0                 !
 ! D53   D(18,15,17,25)       -177.9099         -DE/DX =    0.0                 !
 ! D54   D(18,15,17,26)         63.3314         -DE/DX =    0.0                 !
 ! D55   D(18,15,17,27)        -57.1816         -DE/DX =    0.0                 !
 ! D56   D(3,15,18,19)         -62.295          -DE/DX =    0.0                 !
 ! D57   D(3,15,18,20)         177.0938         -DE/DX =    0.0                 !
 ! D58   D(3,15,18,21)          56.2783         -DE/DX =    0.0                 !
 ! D59   D(16,15,18,19)         63.5561         -DE/DX =    0.0                 !
 ! D60   D(16,15,18,20)        -57.0551         -DE/DX =    0.0                 !
 ! D61   D(16,15,18,21)       -177.8706         -DE/DX =    0.0                 !
 ! D62   D(17,15,18,19)        171.739          -DE/DX =    0.0                 !
 ! D63   D(17,15,18,20)         51.1278         -DE/DX =    0.0                 !
 ! D64   D(17,15,18,21)        -69.6877         -DE/DX =    0.0                 !
 --------------------------------------------------------------------------------
 Lowest energy point so far.  Saving SCF results.
 Largest change from initial coordinates is atom   14       0.005 Angstoms.
 GradGradGradGradGradGradGradGradGradGradGradGradGradGradGradGradGradGrad

 Leave Link  103 at Tue Oct  4 23:44:34 2022, MaxMem=  2952790016 cpu:               0.6 elap:               0.1
 (Enter /mnt/data/applications/G16/g16/l202.exe)
                          Input orientation:                          
 ---------------------------------------------------------------------
 Center     Atomic      Atomic             Coordinates (Angstroms)
 Number     Number       Type             X           Y           Z
 ---------------------------------------------------------------------
      1          1           0        0.950164   -2.045183   -0.284421
      2          1           0        0.891973   -0.110520   -1.384182
      3         45           0        0.013626   -0.768658   -0.129090
      4          6           0        1.801128    0.451090   -0.393297
      5          8           0        1.762503    1.655406   -0.316059
      6          6           0        3.120034   -0.300390   -0.353599
      7          6           0        4.345227    0.596039   -0.393465
      8          1           0        3.114222   -1.014190   -1.180166
      9          1           0        3.104190   -0.909399    0.554747
     10          1           0        5.252944   -0.009245   -0.363247
     11          1           0        4.367386    1.196319   -1.304333
     12          1           0        4.364244    1.280985    0.454585
     13          6           0        0.112178   -1.079013    1.762274
     14          8           0        0.213196   -1.290644    2.875591
     15         15           0       -1.358716    1.184702    0.021693
     16          6           0       -1.286646    2.282808   -1.419926
     17          6           0       -0.996479    2.276326    1.425345
     18          6           0       -3.135526    0.847645    0.207324
     19          1           0       -3.500593    0.313214   -0.671101
     20          1           0       -3.704716    1.772311    0.322108
     21          1           0       -3.296284    0.216237    1.082400
     22          1           0       -1.595423    1.729829   -2.308100
     23          1           0       -0.257529    2.615212   -1.554016
     24          1           0       -1.937084    3.150141   -1.289999
     25          1           0        0.051865    2.570070    1.383076
     26          1           0       -1.172867    1.737751    2.357772
     27          1           0       -1.625362    3.168575    1.404800
     28          6           0       -1.344206   -1.882194   -0.955671
     29          8           0       -2.096249   -2.590850   -1.428031
 ---------------------------------------------------------------------
                    Distance matrix (angstroms):
                    1          2          3          4          5
     1  H    0.000000
     2  H    2.226159   0.000000
     3  Rh   1.590833   1.667302   0.000000
     4  C    2.639578   1.457335   2.180081   0.000000
     5  O    3.788833   2.239912   2.994932   1.207408   0.000000
     6  C    2.785215   2.462196   3.149516   1.518490   2.381058
     7  C    4.302836   3.661381   4.549182   2.548225   2.792617
     8  H    2.558994   2.407620   3.283100   2.119062   3.114573
     9  H    2.575662   3.048207   3.168443   2.108955   3.022690
    10  H    4.760795   4.480027   5.299245   3.482506   3.867359
    11  H    4.819228   3.713852   4.919101   2.823301   2.823625
    12  H    4.823428   4.168215   4.844542   2.824392   2.739185
    13  C    2.413435   3.383231   1.919190   3.136918   3.810524
    14  O    3.331385   4.472035   3.056207   4.029987   4.611528
    15  P    3.982059   2.952911   2.392002   3.270324   3.174531
    16  C    5.002420   3.236615   3.559271   3.734101   3.302949
    17  C    5.038667   4.142068   3.564899   3.803360   3.321146
    18  C    5.030222   4.435281   3.555667   4.988843   4.991703
    19  H    5.051812   4.470198   3.716714   5.310785   5.443135
    20  H    6.050542   5.252241   4.526166   5.707167   5.505581
    21  H    5.001455   4.871580   3.659676   5.311916   5.442263
    22  H    4.982571   3.229187   3.685046   4.103438   3.905053
    23  H    4.978923   2.963075   3.681646   3.204491   2.556227
    24  H    6.028166   4.317909   4.528793   4.697146   4.107279
    25  H    4.988792   3.943230   3.665407   3.271926   2.578751
    26  H    5.079276   4.656382   3.724827   4.250709   3.971467
    27  H    6.055582   4.986769   4.532207   4.728500   4.090070
    28  C    2.396096   2.884951   1.940852   3.956464   4.751353
    29  O    3.299429   3.883739   3.075582   5.051101   5.844411
                    6          7          8          9         10
     6  C    0.000000
     7  C    1.518642   0.000000
     8  H    1.092134   2.174192   0.000000
     9  H    1.093726   2.169245   1.738104   0.000000
    10  H    2.152711   1.091436   2.500281   2.504024   0.000000
    11  H    2.167930   1.091104   2.544049   3.079918   1.767269
    12  H    2.168402   1.090276   3.082660   2.528942   1.767294
    13  C    3.759038   5.037034   4.204096   3.230948   5.664779
    14  O    4.456229   5.596426   4.994151   3.726863   6.126265
    15  P    4.733449   5.749247   5.127062   4.958522   6.729616
    16  C    5.218122   5.967982   5.504119   5.776588   7.009731
    17  C    5.172019   5.887721   5.874866   5.265195   6.890442
    18  C    6.384720   7.509056   6.667152   6.491685   8.451405
    19  H    6.656577   7.855824   6.765865   6.827932   8.764883
    20  H    7.164488   8.166839   7.517934   7.321674   9.158785
    21  H    6.595311   7.791991   6.908527   6.520088   8.673525
    22  H    5.493396   6.343708   5.566205   6.103097   7.328504
    23  H    4.620570   5.158421   4.968000   5.307629   6.218603
    24  H    6.193339   6.840661   6.547473   6.730334   7.908039
    25  H    4.546344   5.048352   5.366112   4.702077   6.062486
    26  H    5.471248   6.270740   6.202364   5.343363   7.193538
    27  H    6.135509   6.745342   6.829439   6.302470   7.780465
    28  C    4.774309   6.231161   4.547682   4.797491   6.883407
    29  O    5.797432   7.260799   5.449431   5.814057   7.861876
                   11         12         13         14         15
    11  H    0.000000
    12  H    1.760958   0.000000
    13  C    5.717343   5.035842   0.000000
    14  O    6.396409   5.450297   1.137746   0.000000
    15  P    5.877646   5.740116   3.212096   4.091818   0.000000
    16  C    5.758637   6.037384   4.835799   5.785374   1.813642
    17  C    6.114622   5.538089   3.549781   4.036063   1.814689
    18  C    7.661617   7.516347   4.083806   4.786007   1.817999
    19  H    7.942666   8.003712   4.572935   5.379927   2.413938
    20  H    8.254448   8.084991   4.977230   5.590349   2.437058
    21  H    8.086340   7.759609   3.709113   4.219321   2.411886
    22  H    6.070195   6.584187   5.231964   6.266180   2.404398
    23  H    4.844113   5.213006   4.978129   5.924416   2.396212
    24  H    6.600300   6.800298   5.603713   6.457276   2.432693
    25  H    5.266221   4.595699   3.669228   4.142310   2.400488
    26  H    6.663225   5.872849   3.152796   3.370532   2.407835
    27  H    6.866020   6.351479   4.603134   5.042634   2.433071
    28  C    6.497775   6.676895   3.186438   4.177799   3.218898
    29  O    7.492431   7.763589   4.164235   5.054229   4.111016
                   16         17         18         19         20
    16  C    0.000000
    17  C    2.860036   0.000000
    18  C    2.850613   2.846090   0.000000
    19  H    3.056403   3.810444   1.091109   0.000000
    20  H    3.023632   2.967442   1.091861   1.776821   0.000000
    21  H    3.817197   3.106555   1.090998   1.768025   1.779390
    22  H    1.090863   3.820472   3.078559   2.883789   3.371782
    23  H    1.089750   3.088282   3.809131   4.073843   4.014153
    24  H    1.091886   3.003562   2.996620   3.297841   2.760766
    25  H    3.119448   1.089539   3.809016   4.683268   3.984216
    26  H    3.818513   1.091145   3.044462   4.076970   3.248905
    27  H    2.979662   1.091798   3.016829   3.997366   2.728642
    28  C    4.191192   4.804523   3.466036   3.090437   4.534329
    29  O    4.940452   5.748100   3.946863   3.313414   4.968635
                   21         22         23         24         25
    21  H    0.000000
    22  H    4.084040   0.000000
    23  H    4.683994   1.772711   0.000000
    24  H    4.010423   1.780603   1.782346   0.000000
    25  H    4.103783   4.128480   2.953688   3.381972   0.000000
    26  H    2.906971   4.684974   4.112162   3.985613   1.772782
    27  H    3.407670   3.982023   3.306323   2.712831   1.780947
    28  C    3.516782   3.865085   4.665355   5.078157   5.219330
    29  O    3.952479   4.437749   5.522667   5.744856   6.257141
                   26         27         28         29
    26  H    0.000000
    27  H    1.777685   0.000000
    28  C    4.910425   5.582216   0.000000
    29  O    5.824236   6.435654   1.136172   0.000000
 Stoichiometry    C8H16O3PRh
 Framework group  C1[X(C8H16O3PRh)]
 Deg. of freedom    81
 Full point group                 C1      NOp   1
 RotChk:  IX=0 Diff= 5.99D-16
 Largest Abelian subgroup         C1      NOp   1
 Largest concise Abelian subgroup C1      NOp   1
                         Standard orientation:                         
 ---------------------------------------------------------------------
 Center     Atomic      Atomic             Coordinates (Angstroms)
 Number     Number       Type             X           Y           Z
 ---------------------------------------------------------------------
      1          1           0        0.951903   -2.046135   -0.282007
      2          1           0        0.891071   -0.113496   -1.385178
      3         45           0        0.014390   -0.770148   -0.128144
      4          6           0        1.800600    0.450677   -0.396092
      5          8           0        1.760995    1.655095   -0.320976
      6          6           0        3.120192   -0.299586   -0.356199
      7          6           0        4.344570    0.597834   -0.398737
      8          1           0        3.114282   -1.014869   -1.181482
      9          1           0        3.105669   -0.906981    0.553250
     10          1           0        5.252839   -0.006606   -0.368227
     11          1           0        4.365414    1.196501   -1.310697
     12          1           0        4.363729    1.284313    0.448069
     13          6           0        0.114858   -1.077030    1.763686
     14          8           0        0.217028   -1.286580    2.877291
     15         15           0       -1.359519    1.182287    0.020339
     16          6           0       -1.289659    2.277872   -1.423306
     17          6           0       -0.997010    2.276737    1.421718
     18          6           0       -3.135873    0.844020    0.208121
     19          1           0       -3.501240    0.307700   -0.669027
     20          1           0       -3.705768    1.768396    0.321746
     21          1           0       -3.295321    0.214041    1.084466
     22          1           0       -1.598728    1.723036   -2.310219
     23          1           0       -0.260948    2.610929   -1.558888
     24          1           0       -1.940737    3.144871   -1.294364
     25          1           0        0.051040    2.571314    1.378010
     26          1           0       -1.172119    1.739679    2.355262
     27          1           0       -1.626688    3.168400    1.400125
     28          6           0       -1.343192   -1.886340   -0.951547
     29          8           0       -2.095029   -2.596494   -1.421982
 ---------------------------------------------------------------------
 Rotational constants (GHZ):           0.6118714           0.4337739           0.3617856
 Leave Link  202 at Tue Oct  4 23:44:35 2022, MaxMem=  2952790016 cpu:               0.1 elap:               0.0
 (Enter /mnt/data/applications/G16/g16/l601.exe)
 Copying SCF densities to generalized density rwf, IOpCl= 0 IROHF=0.

 **********************************************************************

            Population analysis using the SCF density.

 **********************************************************************

 Orbital symmetries:
       Occupied  (A) (A) (A) (A) (A) (A) (A) (A) (A) (A) (A) (A)
                 (A) (A) (A) (A) (A) (A) (A) (A) (A) (A) (A) (A)
                 (A) (A) (A) (A) (A) (A) (A) (A) (A) (A) (A) (A)
                 (A) (A) (A) (A) (A) (A) (A) (A) (A) (A) (A) (A)
                 (A) (A) (A) (A) (A) (A) (A) (A) (A) (A) (A) (A)
       Virtual   (A) (A) (A) (A) (A) (A) (A) (A) (A) (A) (A) (A)
                 (A) (A) (A) (A) (A) (A) (A) (A) (A) (A) (A) (A)
                 (A) (A) (A) (A) (A) (A) (A) (A) (A) (A) (A) (A)
                 (A) (A) (A) (A) (A) (A) (A) (A) (A) (A) (A) (A)
                 (A) (A) (A) (A) (A) (A) (A) (A) (A) (A) (A) (A)
                 (A) (A) (A) (A) (A) (A) (A) (A) (A) (A) (A) (A)
                 (A) (A) (A) (A) (A) (A) (A) (A) (A) (A) (A) (A)
                 (A) (A) (A) (A) (A) (A) (A) (A) (A) (A) (A) (A)
                 (A) (A) (A) (A) (A) (A) (A) (A) (A) (A) (A) (A)
                 (A) (A) (A) (A) (A) (A) (A) (A) (A) (A) (A) (A)
                 (A) (A) (A) (A) (A) (A) (A) (A) (A) (A) (A) (A)
                 (A) (A) (A) (A) (A) (A) (A) (A) (A) (A) (A) (A)
                 (A) (A) (A) (A) (A) (A) (A) (A) (A) (A) (A) (A)
                 (A) (A) (A) (A) (A) (A) (A) (A) (A) (A) (A) (A)
                 (A) (A) (A) (A) (A) (A) (A) (A) (A) (A) (A) (A)
                 (A) (A) (A) (A) (A) (A) (A) (A) (A) (A) (A) (A)
                 (A) (A) (A) (A) (A) (A) (A) (A) (A) (A) (A) (A)
                 (A) (A) (A) (A) (A) (A) (A) (A) (A) (A) (A) (A)
                 (A) (A) (A) (A) (A) (A) (A) (A) (A) (A) (A) (A)
                 (A) (A) (A) (A) (A) (A) (A) (A) (A) (A) (A) (A)
                 (A) (A) (A) (A) (A) (A) (A) (A) (A) (A) (A) (A)
                 (A) (A) (A) (A) (A) (A) (A) (A) (A) (A) (A) (A)
                 (A) (A) (A) (A) (A) (A) (A) (A) (A) (A) (A) (A)
                 (A) (A) (A) (A) (A) (A) (A) (A) (A) (A) (A) (A)
                 (A) (A) (A) (A) (A) (A) (A) (A) (A) (A) (A) (A)
                 (A) (A) (A) (A) (A) (A) (A) (A) (A) (A) (A) (A)
                 (A) (A) (A) (A) (A) (A) (A) (A) (A) (A) (A) (A)
                 (A) (A) (A) (A) (A) (A) (A) (A) (A) (A) (A) (A)
                 (A) (A) (A) (A) (A) (A) (A) (A) (A) (A) (A) (A)
                 (A) (A) (A) (A) (A) (A) (A) (A) (A) (A) (A) (A)
                 (A) (A) (A) (A) (A) (A) (A) (A) (A) (A) (A) (A)
                 (A) (A) (A) (A) (A) (A) (A) (A) (A) (A) (A) (A)
                 (A) (A) (A) (A) (A) (A) (A) (A) (A) (A) (A) (A)
                 (A) (A) (A) (A) (A) (A) (A) (A) (A) (A) (A) (A)
                 (A) (A) (A) (A) (A) (A) (A) (A) (A) (A) (A) (A)
                 (A) (A) (A) (A) (A) (A) (A) (A) (A) (A) (A) (A)
                 (A) (A) (A) (A) (A) (A) (A) (A) (A) (A) (A) (A)
                 (A) (A) (A) (A) (A) (A)
 The electronic state is 1-A.
 Alpha  occ. eigenvalues --  -77.24208 -19.32635 -19.32436 -19.23379 -10.40832
 Alpha  occ. eigenvalues --  -10.40821 -10.38301 -10.28627 -10.28181 -10.28118
 Alpha  occ. eigenvalues --  -10.27814 -10.26300  -6.68630  -4.83322  -4.83299
 Alpha  occ. eigenvalues --   -4.83012  -3.36973  -2.11617  -2.11496  -2.11270
 Alpha  occ. eigenvalues --   -1.24190  -1.23967  -1.14344  -0.88142  -0.86876
 Alpha  occ. eigenvalues --   -0.80037  -0.79826  -0.74701  -0.66838  -0.65812
 Alpha  occ. eigenvalues --   -0.64156  -0.62781  -0.57506  -0.56150  -0.55403
 Alpha  occ. eigenvalues --   -0.55341  -0.55201  -0.54947  -0.54349  -0.53752
 Alpha  occ. eigenvalues --   -0.53488  -0.52649  -0.52356  -0.51307  -0.49547
 Alpha  occ. eigenvalues --   -0.49498  -0.47983  -0.47220  -0.45577  -0.44989
 Alpha  occ. eigenvalues --   -0.43451  -0.42869  -0.42716  -0.41926  -0.37815
 Alpha  occ. eigenvalues --   -0.36693  -0.36419  -0.32946  -0.31776  -0.28731
 Alpha virt. eigenvalues --    0.03427   0.04498   0.05242   0.06353   0.07084
 Alpha virt. eigenvalues --    0.07378   0.07716   0.07971   0.08842   0.09417
 Alpha virt. eigenvalues --    0.12437   0.13462   0.13767   0.14272   0.15794
 Alpha virt. eigenvalues --    0.15982   0.16894   0.17500   0.17953   0.18282
 Alpha virt. eigenvalues --    0.18337   0.19796   0.20071   0.20573   0.21032
 Alpha virt. eigenvalues --    0.21520   0.21607   0.22263   0.22699   0.23270
 Alpha virt. eigenvalues --    0.24224   0.24561   0.25429   0.25925   0.26403
 Alpha virt. eigenvalues --    0.26992   0.27488   0.28483   0.28817   0.29266
 Alpha virt. eigenvalues --    0.30705   0.32116   0.32345   0.32931   0.33825
 Alpha virt. eigenvalues --    0.34516   0.35224   0.35963   0.37174   0.39929
 Alpha virt. eigenvalues --    0.40654   0.41683   0.42301   0.43182   0.43622
 Alpha virt. eigenvalues --    0.43885   0.44453   0.45678   0.46399   0.46663
 Alpha virt. eigenvalues --    0.47769   0.48030   0.48933   0.49755   0.50147
 Alpha virt. eigenvalues --    0.50478   0.50846   0.51230   0.51468   0.52281
 Alpha virt. eigenvalues --    0.52485   0.52624   0.53656   0.53889   0.54200
 Alpha virt. eigenvalues --    0.54943   0.55516   0.55730   0.56612   0.56769
 Alpha virt. eigenvalues --    0.57174   0.57595   0.58669   0.59303   0.60010
 Alpha virt. eigenvalues --    0.60720   0.61990   0.62132   0.62998   0.63520
 Alpha virt. eigenvalues --    0.65085   0.66648   0.67175   0.67873   0.68995
 Alpha virt. eigenvalues --    0.70327   0.70667   0.71207   0.71764   0.72533
 Alpha virt. eigenvalues --    0.73360   0.73708   0.74940   0.75982   0.76809
 Alpha virt. eigenvalues --    0.78503   0.80246   0.81105   0.82045   0.83390
 Alpha virt. eigenvalues --    0.83565   0.84445   0.84655   0.85931   0.86741
 Alpha virt. eigenvalues --    0.88202   0.88615   0.89152   0.89864   0.92043
 Alpha virt. eigenvalues --    0.93188   0.94315   0.96086   0.97199   0.97421
 Alpha virt. eigenvalues --    0.98576   0.99837   1.00643   1.01967   1.03270
 Alpha virt. eigenvalues --    1.03694   1.06125   1.07722   1.08426   1.08538
 Alpha virt. eigenvalues --    1.09803   1.11924   1.12258   1.12738   1.14198
 Alpha virt. eigenvalues --    1.14959   1.16180   1.16854   1.17417   1.17951
 Alpha virt. eigenvalues --    1.18717   1.20485   1.20884   1.23340   1.25830
 Alpha virt. eigenvalues --    1.27288   1.29601   1.30069   1.33594   1.34848
 Alpha virt. eigenvalues --    1.38433   1.40416   1.47233   1.50062   1.52302
 Alpha virt. eigenvalues --    1.52800   1.53947   1.54681   1.55019   1.56009
 Alpha virt. eigenvalues --    1.56692   1.57275   1.57884   1.58792   1.59188
 Alpha virt. eigenvalues --    1.59893   1.60585   1.60978   1.61124   1.61889
 Alpha virt. eigenvalues --    1.62649   1.62901   1.63691   1.63971   1.64427
 Alpha virt. eigenvalues --    1.64705   1.65058   1.65688   1.66890   1.67566
 Alpha virt. eigenvalues --    1.67763   1.68471   1.69367   1.69429   1.70383
 Alpha virt. eigenvalues --    1.71522   1.71730   1.72557   1.73073   1.73757
 Alpha virt. eigenvalues --    1.74433   1.75392   1.75740   1.77250   1.78058
 Alpha virt. eigenvalues --    1.80156   1.81075   1.83949   1.84397   1.89226
 Alpha virt. eigenvalues --    1.89655   1.92770   1.93695   1.94440   1.96611
 Alpha virt. eigenvalues --    1.98448   1.99461   2.00748   2.03670   2.04327
 Alpha virt. eigenvalues --    2.05862   2.07294   2.08598   2.09877   2.11065
 Alpha virt. eigenvalues --    2.11521   2.12778   2.14182   2.14634   2.15610
 Alpha virt. eigenvalues --    2.16278   2.17084   2.17715   2.18435   2.19654
 Alpha virt. eigenvalues --    2.20773   2.22085   2.23965   2.25354   2.27804
 Alpha virt. eigenvalues --    2.28211   2.29296   2.33248   2.35145   2.37300
 Alpha virt. eigenvalues --    2.38519   2.38821   2.39278   2.40756   2.41466
 Alpha virt. eigenvalues --    2.42064   2.43571   2.44791   2.44946   2.46158
 Alpha virt. eigenvalues --    2.47175   2.49313   2.50178   2.51394   2.52972
 Alpha virt. eigenvalues --    2.54889   2.55884   2.58315   2.58583   2.61728
 Alpha virt. eigenvalues --    2.62328   2.63578   2.64313   2.66300   2.66598
 Alpha virt. eigenvalues --    2.67326   2.67948   2.68803   2.70611   2.71835
 Alpha virt. eigenvalues --    2.72612   2.73059   2.74151   2.74971   2.75180
 Alpha virt. eigenvalues --    2.76613   2.78034   2.78252   2.79810   2.82042
 Alpha virt. eigenvalues --    2.83091   2.87044   2.87400   2.88251   2.89733
 Alpha virt. eigenvalues --    2.91124   2.91734   2.92764   2.93254   2.94984
 Alpha virt. eigenvalues --    2.96025   2.97366   2.98733   2.99564   3.01045
 Alpha virt. eigenvalues --    3.01342   3.02901   3.03760   3.04766   3.05536
 Alpha virt. eigenvalues --    3.06592   3.08215   3.09951   3.10487   3.13184
 Alpha virt. eigenvalues --    3.13954   3.15202   3.15555   3.16620   3.17884
 Alpha virt. eigenvalues --    3.18841   3.19427   3.20094   3.21448   3.22509
 Alpha virt. eigenvalues --    3.23282   3.23954   3.24892   3.26080   3.27605
 Alpha virt. eigenvalues --    3.28689   3.30309   3.31346   3.31966   3.32687
 Alpha virt. eigenvalues --    3.33274   3.34218   3.36815   3.37298   3.38808
 Alpha virt. eigenvalues --    3.40483   3.41004   3.41846   3.42526   3.43563
 Alpha virt. eigenvalues --    3.44172   3.45182   3.45803   3.47028   3.49717
 Alpha virt. eigenvalues --    3.52137   3.54166   3.55539   3.56066   3.57817
 Alpha virt. eigenvalues --    3.60461   3.62300   3.63037   3.63601   3.64710
 Alpha virt. eigenvalues --    3.66708   3.68117   3.68473   3.68864   3.70538
 Alpha virt. eigenvalues --    3.71821   3.72212   3.72552   3.73289   3.74443
 Alpha virt. eigenvalues --    3.75856   3.77286   3.79765   3.80435   3.84594
 Alpha virt. eigenvalues --    3.85428   3.91098   3.92336   3.97690   4.00385
 Alpha virt. eigenvalues --    4.01999   4.03048   4.09360   4.15158   4.20216
 Alpha virt. eigenvalues --    4.30056   4.32728   4.34633   4.35112   4.36152
 Alpha virt. eigenvalues --    4.38935   4.40461   4.41007   4.41178   4.43753
 Alpha virt. eigenvalues --    4.49442   4.50059   4.50872   4.54016   4.54842
 Alpha virt. eigenvalues --    4.63274   4.66369   4.69929   4.92657   4.96571
 Alpha virt. eigenvalues --    5.18835   5.18876   5.19016   5.19040   5.28274
 Alpha virt. eigenvalues --    5.30787   5.57566   5.58224   5.58376   5.60415
 Alpha virt. eigenvalues --    5.65301   5.68313   6.22597   6.29171   6.30665
 Alpha virt. eigenvalues --    6.32577   6.34358   6.34551   6.35078   6.35697
 Alpha virt. eigenvalues --    6.36128   6.41940   6.44656   6.51455   6.56560
 Alpha virt. eigenvalues --    6.61539   6.63394   6.81594   6.82376   6.82694
 Alpha virt. eigenvalues --    6.84042   6.93230   7.12013   7.16833   7.17098
 Alpha virt. eigenvalues --    7.19711   7.82535   7.91311   7.93411  15.69630
 Alpha virt. eigenvalues --   22.41752  22.42032  22.42631  22.46558  22.59622
 Alpha virt. eigenvalues --   22.68706  22.74651  23.00646  38.39180  38.45348
 Alpha virt. eigenvalues --   38.56938  43.92455  43.94746  44.06233  49.75614
          Condensed to atoms (all electrons):
               1          2          3          4          5          6
     1  H    0.646292   0.008013   0.327003  -0.007037   0.000335   0.000486
     2  H    0.008013   0.639930   0.252646   0.092690  -0.029628  -0.035058
     3  Rh   0.327003   0.252646  16.042323   0.141905  -0.052249  -0.082190
     4  C   -0.007037   0.092690   0.141905   4.926580   0.513698   0.263530
     5  O    0.000335  -0.029628  -0.052249   0.513698   8.009263  -0.088134
     6  C    0.000486  -0.035058  -0.082190   0.263530  -0.088134   5.180784
     7  C    0.001035   0.002027   0.014351  -0.027811   0.014519   0.254571
     8  H   -0.003476   0.000249  -0.006624  -0.026154   0.002351   0.409770
     9  H   -0.004411   0.001071   0.003764  -0.033824  -0.000261   0.410501
    10  H   -0.000048  -0.000064  -0.000644   0.011052   0.000898  -0.051090
    11  H    0.000004  -0.000229   0.001432  -0.004019   0.000653  -0.034485
    12  H   -0.000036   0.000197   0.001201  -0.010996   0.002997  -0.025288
    13  C    0.001979  -0.015990   0.204343   0.034005  -0.006510  -0.007805
    14  O   -0.001899   0.000335  -0.012520  -0.002391   0.000207   0.000763
    15  P   -0.014538  -0.011795   0.229578  -0.027732   0.021837   0.001825
    16  C    0.000317   0.002493  -0.012738  -0.000506  -0.014544  -0.000232
    17  C    0.000347   0.000304  -0.008948  -0.002291  -0.010607  -0.000672
    18  C    0.000191  -0.000312  -0.023494   0.000787   0.001027   0.000147
    19  H   -0.000005   0.000011  -0.008538  -0.000003  -0.000010  -0.000002
    20  H   -0.000010  -0.000014   0.005164  -0.000056  -0.000006  -0.000001
    21  H   -0.000007  -0.000006   0.002127  -0.000011  -0.000005  -0.000003
    22  H   -0.000025  -0.000488  -0.000775  -0.000149   0.000334   0.000007
    23  H   -0.000025  -0.002730  -0.010694  -0.000925   0.012686   0.000797
    24  H   -0.000009   0.000030   0.005328  -0.000183   0.000234   0.000014
    25  H   -0.000000   0.000341  -0.003425  -0.002811   0.008900   0.000193
    26  H   -0.000010  -0.000015  -0.009112   0.000036   0.000320   0.000096
    27  H   -0.000008  -0.000002   0.005550   0.000057  -0.000040  -0.000006
    28  C    0.010582   0.016056   0.172517  -0.018423   0.000615   0.000274
    29  O   -0.001971  -0.000994  -0.014669   0.000441  -0.000003   0.000003
               7          8          9         10         11         12
     1  H    0.001035  -0.003476  -0.004411  -0.000048   0.000004  -0.000036
     2  H    0.002027   0.000249   0.001071  -0.000064  -0.000229   0.000197
     3  Rh   0.014351  -0.006624   0.003764  -0.000644   0.001432   0.001201
     4  C   -0.027811  -0.026154  -0.033824   0.011052  -0.004019  -0.010996
     5  O    0.014519   0.002351  -0.000261   0.000898   0.000653   0.002997
     6  C    0.254571   0.409770   0.410501  -0.051090  -0.034485  -0.025288
     7  C    4.900992  -0.024988  -0.032261   0.422561   0.414312   0.411687
     8  H   -0.024988   0.535223  -0.027950  -0.003470  -0.004911   0.005723
     9  H   -0.032261  -0.027950   0.535662  -0.003252   0.006187  -0.005813
    10  H    0.422561  -0.003470  -0.003252   0.546922  -0.024857  -0.024556
    11  H    0.414312  -0.004911   0.006187  -0.024857   0.548266  -0.024412
    12  H    0.411687   0.005723  -0.005813  -0.024556  -0.024412   0.545456
    13  C    0.000707  -0.000013  -0.001292   0.000007   0.000005   0.000002
    14  O   -0.000056   0.000003   0.000075   0.000000  -0.000000  -0.000009
    15  P   -0.000440   0.000203   0.000355   0.000005  -0.000030  -0.000003
    16  C    0.000022   0.000001  -0.000013   0.000000   0.000002   0.000006
    17  C    0.000037   0.000001   0.000003  -0.000000   0.000004  -0.000003
    18  C   -0.000003  -0.000004  -0.000005  -0.000000  -0.000000  -0.000000
    19  H   -0.000000   0.000000   0.000000   0.000000   0.000000   0.000000
    20  H   -0.000000   0.000000   0.000000   0.000000   0.000000   0.000000
    21  H   -0.000000   0.000000  -0.000000   0.000000   0.000000   0.000000
    22  H   -0.000000   0.000002  -0.000001  -0.000000  -0.000000  -0.000000
    23  H   -0.000063  -0.000028  -0.000008  -0.000000  -0.000017  -0.000011
    24  H   -0.000002   0.000000   0.000001   0.000000  -0.000000   0.000000
    25  H   -0.000006  -0.000006  -0.000026  -0.000000  -0.000008  -0.000016
    26  H   -0.000007  -0.000001   0.000002  -0.000000  -0.000000  -0.000000
    27  H   -0.000000   0.000000   0.000001   0.000000  -0.000000   0.000000
    28  C   -0.000086  -0.000400   0.000598  -0.000001   0.000007  -0.000004
    29  O    0.000000   0.000001  -0.000003  -0.000000  -0.000000   0.000000
              13         14         15         16         17         18
     1  H    0.001979  -0.001899  -0.014538   0.000317   0.000347   0.000191
     2  H   -0.015990   0.000335  -0.011795   0.002493   0.000304  -0.000312
     3  Rh   0.204343  -0.012520   0.229578  -0.012738  -0.008948  -0.023494
     4  C    0.034005  -0.002391  -0.027732  -0.000506  -0.002291   0.000787
     5  O   -0.006510   0.000207   0.021837  -0.014544  -0.010607   0.001027
     6  C   -0.007805   0.000763   0.001825  -0.000232  -0.000672   0.000147
     7  C    0.000707  -0.000056  -0.000440   0.000022   0.000037  -0.000003
     8  H   -0.000013   0.000003   0.000203   0.000001   0.000001  -0.000004
     9  H   -0.001292   0.000075   0.000355  -0.000013   0.000003  -0.000005
    10  H    0.000007   0.000000   0.000005   0.000000  -0.000000  -0.000000
    11  H    0.000005  -0.000000  -0.000030   0.000002   0.000004  -0.000000
    12  H    0.000002  -0.000009  -0.000003   0.000006  -0.000003  -0.000000
    13  C    5.251143   0.551939   0.001722  -0.000003  -0.003550  -0.001304
    14  O    0.551939   7.576493  -0.001974  -0.000001  -0.000276   0.000045
    15  P    0.001722  -0.001974  13.809017   0.320311   0.324644   0.326637
    16  C   -0.000003  -0.000001   0.320311   5.024821  -0.033935  -0.034389
    17  C   -0.003550  -0.000276   0.324644  -0.033935   5.016597  -0.035465
    18  C   -0.001304   0.000045   0.326637  -0.034389  -0.035465   5.023192
    19  H    0.000061   0.000001  -0.019689  -0.001921   0.004173   0.398645
    20  H    0.000103  -0.000010  -0.028849  -0.004610  -0.004508   0.398095
    21  H   -0.000817   0.000018  -0.021876   0.004141  -0.001919   0.398127
    22  H   -0.000056  -0.000000  -0.021010   0.393146   0.004173  -0.000490
    23  H    0.000209  -0.000003  -0.019303   0.397209  -0.000859   0.004444
    24  H   -0.000014  -0.000000  -0.029095   0.396239  -0.004924  -0.004808
    25  H   -0.001407   0.000061  -0.021673  -0.001425   0.401157   0.004116
    26  H    0.001065   0.000876  -0.021327   0.004425   0.395435  -0.000432
    27  H    0.000279  -0.000024  -0.027873  -0.004707   0.398305  -0.004989
    28  C    0.005562  -0.000244  -0.010904  -0.002417   0.001015  -0.001716
    29  O   -0.000684   0.000040  -0.001781   0.000103   0.000002   0.000087
              19         20         21         22         23         24
     1  H   -0.000005  -0.000010  -0.000007  -0.000025  -0.000025  -0.000009
     2  H    0.000011  -0.000014  -0.000006  -0.000488  -0.002730   0.000030
     3  Rh  -0.008538   0.005164   0.002127  -0.000775  -0.010694   0.005328
     4  C   -0.000003  -0.000056  -0.000011  -0.000149  -0.000925  -0.000183
     5  O   -0.000010  -0.000006  -0.000005   0.000334   0.012686   0.000234
     6  C   -0.000002  -0.000001  -0.000003   0.000007   0.000797   0.000014
     7  C   -0.000000  -0.000000  -0.000000  -0.000000  -0.000063  -0.000002
     8  H    0.000000   0.000000   0.000000   0.000002  -0.000028   0.000000
     9  H    0.000000   0.000000  -0.000000  -0.000001  -0.000008   0.000001
    10  H    0.000000   0.000000   0.000000  -0.000000  -0.000000   0.000000
    11  H    0.000000   0.000000   0.000000  -0.000000  -0.000017  -0.000000
    12  H    0.000000   0.000000   0.000000  -0.000000  -0.000011   0.000000
    13  C    0.000061   0.000103  -0.000817  -0.000056   0.000209  -0.000014
    14  O    0.000001  -0.000010   0.000018  -0.000000  -0.000003  -0.000000
    15  P   -0.019689  -0.028849  -0.021876  -0.021010  -0.019303  -0.029095
    16  C   -0.001921  -0.004610   0.004141   0.393146   0.397209   0.396239
    17  C    0.004173  -0.004508  -0.001919   0.004173  -0.000859  -0.004924
    18  C    0.398645   0.398095   0.398127  -0.000490   0.004444  -0.004808
    19  H    0.496722  -0.019934  -0.015053   0.001083  -0.000091  -0.000217
    20  H   -0.019934   0.515733  -0.019804  -0.000104  -0.000083   0.003658
    21  H   -0.015053  -0.019804   0.489664  -0.000162  -0.000078  -0.000088
    22  H    0.001083  -0.000104  -0.000162   0.499317  -0.012070  -0.020792
    23  H   -0.000091  -0.000083  -0.000078  -0.012070   0.471094  -0.018730
    24  H   -0.000217   0.003658  -0.000088  -0.020792  -0.018730   0.523327
    25  H   -0.000080  -0.000101  -0.000110  -0.000093   0.000767  -0.000055
    26  H   -0.000120  -0.000412   0.001220  -0.000094  -0.000080  -0.000097
    27  H   -0.000141   0.003703  -0.000071  -0.000062  -0.000182   0.003299
    28  C    0.001974   0.000340  -0.000899  -0.000523   0.000007   0.000141
    29  O    0.000679  -0.000027  -0.000132  -0.000042  -0.000000  -0.000007
              25         26         27         28         29
     1  H   -0.000000  -0.000010  -0.000008   0.010582  -0.001971
     2  H    0.000341  -0.000015  -0.000002   0.016056  -0.000994
     3  Rh  -0.003425  -0.009112   0.005550   0.172517  -0.014669
     4  C   -0.002811   0.000036   0.000057  -0.018423   0.000441
     5  O    0.008900   0.000320  -0.000040   0.000615  -0.000003
     6  C    0.000193   0.000096  -0.000006   0.000274   0.000003
     7  C   -0.000006  -0.000007  -0.000000  -0.000086   0.000000
     8  H   -0.000006  -0.000001   0.000000  -0.000400   0.000001
     9  H   -0.000026   0.000002   0.000001   0.000598  -0.000003
    10  H   -0.000000  -0.000000   0.000000  -0.000001  -0.000000
    11  H   -0.000008  -0.000000  -0.000000   0.000007  -0.000000
    12  H   -0.000016  -0.000000   0.000000  -0.000004   0.000000
    13  C   -0.001407   0.001065   0.000279   0.005562  -0.000684
    14  O    0.000061   0.000876  -0.000024  -0.000244   0.000040
    15  P   -0.021673  -0.021327  -0.027873  -0.010904  -0.001781
    16  C   -0.001425   0.004425  -0.004707  -0.002417   0.000103
    17  C    0.401157   0.395435   0.398305   0.001015   0.000002
    18  C    0.004116  -0.000432  -0.004989  -0.001716   0.000087
    19  H   -0.000080  -0.000120  -0.000141   0.001974   0.000679
    20  H   -0.000101  -0.000412   0.003703   0.000340  -0.000027
    21  H   -0.000110   0.001220  -0.000071  -0.000899  -0.000132
    22  H   -0.000093  -0.000094  -0.000062  -0.000523  -0.000042
    23  H    0.000767  -0.000080  -0.000182   0.000007  -0.000000
    24  H   -0.000055  -0.000097   0.003299   0.000141  -0.000007
    25  H    0.467109  -0.013194  -0.018435  -0.000028  -0.000001
    26  H   -0.013194   0.505094  -0.021706   0.000148  -0.000004
    27  H   -0.018435  -0.021706   0.518858  -0.000039  -0.000000
    28  C   -0.000028   0.000148  -0.000039   5.280181   0.556039
    29  O   -0.000001  -0.000004  -0.000000   0.556039   7.568636
 Mulliken charges:
               1
     1  H    0.036931
     2  H    0.080931
     3  Rh  -0.162611
     4  C    0.180540
     5  O   -0.388878
     6  C   -0.198796
     7  C   -0.351097
     8  H    0.144498
     9  H    0.150900
    10  H    0.126539
    11  H    0.122097
    12  H    0.123878
    13  C   -0.013688
    14  O   -0.111451
    15  P    0.243759
    16  C   -0.431796
    17  C   -0.438240
    18  C   -0.448131
    19  H    0.162453
    20  H    0.151733
    21  H    0.165744
    22  H    0.158874
    23  H    0.178768
    24  H    0.146749
    25  H    0.180258
    26  H    0.157897
    27  H    0.148230
    28  C   -0.010375
    29  O   -0.105716
 Sum of Mulliken charges =  -0.00000
 Mulliken charges with hydrogens summed into heavy atoms:
               1
     3  Rh  -0.125680
     4  C    0.261471
     5  O   -0.388878
     6  C    0.096602
     7  C    0.021416
    13  C   -0.013688
    14  O   -0.111451
    15  P    0.243759
    16  C    0.052596
    17  C    0.048144
    18  C    0.031799
    28  C   -0.010375
    29  O   -0.105716
 Electronic spatial extent (au):  <R**2>=           3551.3591
 Charge=             -0.0000 electrons
 Dipole moment (field-independent basis, Debye):
    X=             -2.6975    Y=              2.5858    Z=             -0.0020  Tot=              3.7367
 Quadrupole moment (field-independent basis, Debye-Ang):
   XX=            -95.2457   YY=           -106.4798   ZZ=           -104.3906
   XY=            -10.7142   XZ=             -1.9206   YZ=              0.2987
 Traceless Quadrupole moment (field-independent basis, Debye-Ang):
   XX=              6.7930   YY=             -4.4411   ZZ=             -2.3519
   XY=            -10.7142   XZ=             -1.9206   YZ=              0.2987
 Octapole moment (field-independent basis, Debye-Ang**2):
  XXX=             -8.9059  YYY=            -19.5084  ZZZ=            -14.3587  XYY=            -14.9625
  XXY=             -8.1714  XXZ=              2.7962  XZZ=             -3.2667  YZZ=             -0.0848
  YYZ=              5.7906  XYZ=              5.8807
 Hexadecapole moment (field-independent basis, Debye-Ang**3):
 XXXX=          -2451.2594 YYYY=          -1401.4888 ZZZZ=           -878.2431 XXXY=            -49.5556
 XXXZ=              1.4972 YYYX=            -42.5151 YYYZ=             -7.4651 ZZZX=              1.6962
 ZZZY=             18.9322 XXYY=           -664.7963 XXZZ=           -545.6318 YYZZ=           -383.9183
 XXYZ=             -7.4911 YYXZ=             -8.4026 ZZXY=              1.4091
 N-N= 1.111271626143D+03 E-N=-4.529310750940D+03  KE= 9.188018309054D+02
 No NMR shielding tensors so no spin-rotation constants.
 Leave Link  601 at Tue Oct  4 23:44:36 2022, MaxMem=  2952790016 cpu:              10.3 elap:               1.0
 (Enter /mnt/data/applications/G16/g16/l9999.exe)
 1\1\GINC-KIMIK2161\FTS\RwB97XD\Gen\C8H16O3P1Rh1\DGARAY\04-Oct-2022\0\\
 #p opt=(ts,noeigentest,calcfc,maxstep=2) freq pseudo=read WB97XD gen s
 crf(smd,solvent=toluene)\\Auto-generated job for TS4t\\0,1\H,0.9501644
 898,-2.0451830452,-0.2844210414\H,0.8919727088,-0.1105200936,-1.384182
 4858\Rh,0.0136259383,-0.7686580097,-0.129089576\C,1.8011281326,0.45109
 02072,-0.3932969094\O,1.7625034371,1.6554058074,-0.3160589433\C,3.1200
 336849,-0.3003901429,-0.3535990816\C,4.3452271793,0.5960388098,-0.3934
 653292\H,3.1142218873,-1.0141901737,-1.1801661782\H,3.1041902522,-0.90
 93994243,0.5547472863\H,5.2529441361,-0.0092448583,-0.3632471008\H,4.3
 673856794,1.1963188172,-1.3043334489\H,4.3642439064,1.2809845719,0.454
 5851943\C,0.1121783693,-1.0790131529,1.7622744934\O,0.2131958258,-1.29
 06439204,2.875590695\P,-1.3587157173,1.1847021708,0.0216934028\C,-1.28
 66464515,2.2828082165,-1.4199261165\C,-0.9964788171,2.2763264247,1.425
 3447928\C,-3.1355262898,0.8476447403,0.2073237711\H,-3.5005931775,0.31
 32141266,-0.6711008189\H,-3.704716427,1.7723113726,0.3221077536\H,-3.2
 962841979,0.216237328,1.0824000503\H,-1.5954232659,1.7298294767,-2.308
 0999807\H,-0.2575289168,2.6152118935,-1.5540164162\H,-1.9370835587,3.1
 501412025,-1.2899991833\H,0.0518648605,2.5700695591,1.3830762601\H,-1.
 1728669133,1.7377511941,2.3577724\H,-1.6253624675,3.1685747405,1.40479
 98756\C,-1.3442059631,-1.8821938324,-0.9556714713\O,-2.0962493243,-2.5
 908500059,-1.428030894\\Version=AM64L-G16RevA.03\State=1-A\HF=-992.208
 8588\RMSD=5.451e-09\RMSF=5.729e-06\Dipole=-1.0604024,1.0182415,0.00010
 34\Quadrupole=5.0390575,-3.2887827,-1.7502747,-7.970602,-1.4361117,0.2
 136014\PG=C01 [X(C8H16O3P1Rh1)]\\@


 We find comfort among those who agree with us -- growth among those who don't.
 -- Frank A. Clark
 Leave Link 9999 at Tue Oct  4 23:44:36 2022, MaxMem=  2952790016 cpu:               0.5 elap:               0.1
 Job cpu time:       1 days  5 hours  2 minutes 10.1 seconds.
 Elapsed time:       0 days  2 hours 25 minutes 46.1 seconds.
 File lengths (MBytes):  RWF=    817 Int=      0 D2E=      0 Chk=     29 Scr=      1
 Normal termination of Gaussian 16 at Tue Oct  4 23:44:36 2022.
 (Enter /mnt/data/applications/G16/g16/l1.exe)
 Link1:  Proceeding to internal job step number  2.
 -------------------------------------------------------------------
 #P Geom=AllCheck Guess=TCheck SCRF=Check GenChk RwB97XD/ChkBas Freq
 -------------------------------------------------------------------
 1/5=1,8=2,10=4,11=1,29=7,30=1,38=1,40=1/1,3;
 2/12=2,40=1/2;
 3/5=7,6=2,11=2,14=-4,16=1,17=8,25=1,30=1,67=1,70=2,71=2,74=-58,82=7,116=1,140=1/1,2,3;
 4/5=101/1;
 5/5=2,38=6,98=1/2;
 8/6=4,10=90,11=11/1;
 11/6=1,8=1,9=11,15=111,16=1/1,2,10;
 10/6=1/2;
 6/7=2,8=2,9=2,10=2,28=1/1;
 7/8=1,10=1,25=1/1,2,3,16;
 1/5=1,8=2,10=4,11=1,30=1/3;
 99//99;
 Leave Link    1 at Tue Oct  4 23:44:36 2022, MaxMem=  2952790016 cpu:               0.8 elap:               0.1
 (Enter /mnt/data/applications/G16/g16/l101.exe)
 Structure from the checkpoint file:  "TS4t.chk"
 ---------------------------
 Auto-generated job for TS4t
 ---------------------------
 Charge =  0 Multiplicity = 1
 Redundant internal coordinates found in file.  (old form).
 H,0,0.9501644898,-2.0451830452,-0.2844210414
 H,0,0.8919727088,-0.1105200936,-1.3841824858
 Rh,0,0.0136259383,-0.7686580097,-0.129089576
 C,0,1.8011281326,0.4510902072,-0.3932969094
 O,0,1.7625034371,1.6554058074,-0.3160589433
 C,0,3.1200336849,-0.3003901429,-0.3535990816
 C,0,4.3452271793,0.5960388098,-0.3934653292
 H,0,3.1142218873,-1.0141901737,-1.1801661782
 H,0,3.1041902522,-0.9093994243,0.5547472863
 H,0,5.2529441361,-0.0092448583,-0.3632471008
 H,0,4.3673856794,1.1963188172,-1.3043334489
 H,0,4.3642439064,1.2809845719,0.4545851943
 C,0,0.1121783693,-1.0790131529,1.7622744934
 O,0,0.2131958258,-1.2906439204,2.875590695
 P,0,-1.3587157173,1.1847021708,0.0216934028
 C,0,-1.2866464515,2.2828082165,-1.4199261165
 C,0,-0.9964788171,2.2763264247,1.4253447928
 C,0,-3.1355262898,0.8476447403,0.2073237711
 H,0,-3.5005931775,0.3132141266,-0.6711008189
 H,0,-3.704716427,1.7723113726,0.3221077536
 H,0,-3.2962841979,0.216237328,1.0824000503
 H,0,-1.5954232659,1.7298294767,-2.3080999807
 H,0,-0.2575289168,2.6152118935,-1.5540164162
 H,0,-1.9370835587,3.1501412025,-1.2899991833
 H,0,0.0518648605,2.5700695591,1.3830762601
 H,0,-1.1728669133,1.7377511941,2.3577724
 H,0,-1.6253624675,3.1685747405,1.4047998756
 C,0,-1.3442059631,-1.8821938324,-0.9556714713
 O,0,-2.0962493243,-2.5908500059,-1.428030894
 Recover connectivity data from disk.
 ITRead=  0  0  0  0  0  0  0  0  0  0  0  0  0  0  0  0  0  0  0  0
 ITRead=  0  0  0  0  0  0  0  0  0
 MicOpt= -1 -1 -1 -1 -1 -1 -1 -1 -1 -1 -1 -1 -1 -1 -1 -1 -1 -1 -1 -1
 MicOpt= -1 -1 -1 -1 -1 -1 -1 -1 -1
 NAtoms=     29 NQM=       29 NQMF=       0 NMMI=      0 NMMIF=      0
                NMic=       0 NMicF=      0.
                    Isotopes and Nuclear Properties:
 (Nuclear quadrupole moments (NQMom) in fm**2, nuclear magnetic moments (NMagM)
  in nuclear magnetons)

  Atom         1           2           3           4           5           6           7           8           9          10
 IAtWgt=           1           1         103          12          16          12          12           1           1           1
 AtmWgt=   1.0078250   1.0078250 102.9048000  12.0000000  15.9949146  12.0000000  12.0000000   1.0078250   1.0078250   1.0078250
 NucSpn=           1           1           1           0           0           0           0           1           1           1
 AtZEff=   1.0000000   1.0000000 229.5000000   3.6000000   5.6000000   3.6000000   3.6000000   1.0000000   1.0000000   1.0000000
 NQMom=    0.0000000   0.0000000   0.0000000   0.0000000   0.0000000   0.0000000   0.0000000   0.0000000   0.0000000   0.0000000
 NMagM=    2.7928460   2.7928460  -0.0884000   0.0000000   0.0000000   0.0000000   0.0000000   2.7928460   2.7928460   2.7928460
 AtZNuc=   1.0000000   1.0000000  45.0000000   6.0000000   8.0000000   6.0000000   6.0000000   1.0000000   1.0000000   1.0000000

  Atom        11          12          13          14          15          16          17          18          19          20
 IAtWgt=           1           1          12          16          31          12          12          12           1           1
 AtmWgt=   1.0078250   1.0078250  12.0000000  15.9949146  30.9737634  12.0000000  12.0000000  12.0000000   1.0078250   1.0078250
 NucSpn=           1           1           0           0           1           0           0           0           1           1
 AtZEff=   1.0000000   1.0000000   3.6000000   5.6000000  12.9400000   3.6000000   3.6000000   3.6000000   1.0000000   1.0000000
 NQMom=    0.0000000   0.0000000   0.0000000   0.0000000   0.0000000   0.0000000   0.0000000   0.0000000   0.0000000   0.0000000
 NMagM=    2.7928460   2.7928460   0.0000000   0.0000000   1.1316000   0.0000000   0.0000000   0.0000000   2.7928460   2.7928460
 AtZNuc=   1.0000000   1.0000000   6.0000000   8.0000000  15.0000000   6.0000000   6.0000000   6.0000000   1.0000000   1.0000000

  Atom        21          22          23          24          25          26          27          28          29
 IAtWgt=           1           1           1           1           1           1           1          12          16
 AtmWgt=   1.0078250   1.0078250   1.0078250   1.0078250   1.0078250   1.0078250   1.0078250  12.0000000  15.9949146
 NucSpn=           1           1           1           1           1           1           1           0           0
 AtZEff=   1.0000000   1.0000000   1.0000000   1.0000000   1.0000000   1.0000000   1.0000000   3.6000000   5.6000000
 NQMom=    0.0000000   0.0000000   0.0000000   0.0000000   0.0000000   0.0000000   0.0000000   0.0000000   0.0000000
 NMagM=    2.7928460   2.7928460   2.7928460   2.7928460   2.7928460   2.7928460   2.7928460   0.0000000   0.0000000
 AtZNuc=   1.0000000   1.0000000   1.0000000   1.0000000   1.0000000   1.0000000   1.0000000   6.0000000   8.0000000
 Leave Link  101 at Tue Oct  4 23:44:36 2022, MaxMem=  2952790016 cpu:               5.1 elap:               0.4
 (Enter /mnt/data/applications/G16/g16/l103.exe)

 GradGradGradGradGradGradGradGradGradGradGradGradGradGradGradGradGradGrad
 Berny optimization.
 Initialization pass.
                           ----------------------------
                           !    Initial Parameters    !
                           ! (Angstroms and Degrees)  !
 --------------------------                            --------------------------
 ! Name  Definition              Value          Derivative Info.                !
 --------------------------------------------------------------------------------
 ! R1    R(1,3)                  1.5908         calculate D2E/DX2 analytically  !
 ! R2    R(2,3)                  1.6673         calculate D2E/DX2 analytically  !
 ! R3    R(3,4)                  2.1801         calculate D2E/DX2 analytically  !
 ! R4    R(3,13)                 1.9192         calculate D2E/DX2 analytically  !
 ! R5    R(3,15)                 2.392          calculate D2E/DX2 analytically  !
 ! R6    R(3,28)                 1.9409         calculate D2E/DX2 analytically  !
 ! R7    R(4,5)                  1.2074         calculate D2E/DX2 analytically  !
 ! R8    R(4,6)                  1.5185         calculate D2E/DX2 analytically  !
 ! R9    R(6,7)                  1.5186         calculate D2E/DX2 analytically  !
 ! R10   R(6,8)                  1.0921         calculate D2E/DX2 analytically  !
 ! R11   R(6,9)                  1.0937         calculate D2E/DX2 analytically  !
 ! R12   R(7,10)                 1.0914         calculate D2E/DX2 analytically  !
 ! R13   R(7,11)                 1.0911         calculate D2E/DX2 analytically  !
 ! R14   R(7,12)                 1.0903         calculate D2E/DX2 analytically  !
 ! R15   R(13,14)                1.1377         calculate D2E/DX2 analytically  !
 ! R16   R(15,16)                1.8136         calculate D2E/DX2 analytically  !
 ! R17   R(15,17)                1.8147         calculate D2E/DX2 analytically  !
 ! R18   R(15,18)                1.818          calculate D2E/DX2 analytically  !
 ! R19   R(16,22)                1.0909         calculate D2E/DX2 analytically  !
 ! R20   R(16,23)                1.0898         calculate D2E/DX2 analytically  !
 ! R21   R(16,24)                1.0919         calculate D2E/DX2 analytically  !
 ! R22   R(17,25)                1.0895         calculate D2E/DX2 analytically  !
 ! R23   R(17,26)                1.0911         calculate D2E/DX2 analytically  !
 ! R24   R(17,27)                1.0918         calculate D2E/DX2 analytically  !
 ! R25   R(18,19)                1.0911         calculate D2E/DX2 analytically  !
 ! R26   R(18,20)                1.0919         calculate D2E/DX2 analytically  !
 ! R27   R(18,21)                1.091          calculate D2E/DX2 analytically  !
 ! R28   R(28,29)                1.1362         calculate D2E/DX2 analytically  !
 ! A1    A(1,3,2)               86.1643         calculate D2E/DX2 analytically  !
 ! A2    A(1,3,4)               87.3878         calculate D2E/DX2 analytically  !
 ! A3    A(1,3,13)              86.344          calculate D2E/DX2 analytically  !
 ! A4    A(1,3,28)              84.8307         calculate D2E/DX2 analytically  !
 ! A5    A(2,3,4)               41.9248         calculate D2E/DX2 analytically  !
 ! A6    A(2,3,13)             141.1358         calculate D2E/DX2 analytically  !
 ! A7    A(2,3,15)              91.567          calculate D2E/DX2 analytically  !
 ! A8    A(2,3,28)             105.9284         calculate D2E/DX2 analytically  !
 ! A9    A(4,3,13)              99.6604         calculate D2E/DX2 analytically  !
 ! A10   A(4,3,15)              91.2119         calculate D2E/DX2 analytically  !
 ! A11   A(4,3,28)             147.4597         calculate D2E/DX2 analytically  !
 ! A12   A(13,3,15)             95.7044         calculate D2E/DX2 analytically  !
 ! A13   A(13,3,28)            111.2758         calculate D2E/DX2 analytically  !
 ! A14   A(15,3,28)             95.3933         calculate D2E/DX2 analytically  !
 ! A15   A(3,4,5)              121.6065         calculate D2E/DX2 analytically  !
 ! A16   A(3,4,6)              115.601          calculate D2E/DX2 analytically  !
 ! A17   A(5,4,6)              121.3143         calculate D2E/DX2 analytically  !
 ! A18   A(4,6,7)              114.0743         calculate D2E/DX2 analytically  !
 ! A19   A(4,6,8)              107.4            calculate D2E/DX2 analytically  !
 ! A20   A(4,6,9)              106.5405         calculate D2E/DX2 analytically  !
 ! A21   A(7,6,8)              111.7294         calculate D2E/DX2 analytically  !
 ! A22   A(7,6,9)              111.2336         calculate D2E/DX2 analytically  !
 ! A23   A(8,6,9)              105.3403         calculate D2E/DX2 analytically  !
 ! A24   A(6,7,10)             110.0527         calculate D2E/DX2 analytically  !
 ! A25   A(6,7,11)             111.2875         calculate D2E/DX2 analytically  !
 ! A26   A(6,7,12)             111.376          calculate D2E/DX2 analytically  !
 ! A27   A(10,7,11)            108.1393         calculate D2E/DX2 analytically  !
 ! A28   A(10,7,12)            108.2015         calculate D2E/DX2 analytically  !
 ! A29   A(11,7,12)            107.6597         calculate D2E/DX2 analytically  !
 ! A30   A(3,15,16)            114.9316         calculate D2E/DX2 analytically  !
 ! A31   A(3,15,17)            115.1806         calculate D2E/DX2 analytically  !
 ! A32   A(3,15,18)            114.567          calculate D2E/DX2 analytically  !
 ! A33   A(16,15,17)           104.0447         calculate D2E/DX2 analytically  !
 ! A34   A(16,15,18)           103.4298         calculate D2E/DX2 analytically  !
 ! A35   A(17,15,18)           103.1581         calculate D2E/DX2 analytically  !
 ! A36   A(15,16,22)           109.2087         calculate D2E/DX2 analytically  !
 ! A37   A(15,16,23)           108.664          calculate D2E/DX2 analytically  !
 ! A38   A(15,16,24)           111.2658         calculate D2E/DX2 analytically  !
 ! A39   A(22,16,23)           108.7687         calculate D2E/DX2 analytically  !
 ! A40   A(22,16,24)           109.3255         calculate D2E/DX2 analytically  !
 ! A41   A(23,16,24)           109.5665         calculate D2E/DX2 analytically  !
 ! A42   A(15,17,25)           108.9194         calculate D2E/DX2 analytically  !
 ! A43   A(15,17,26)           109.3779         calculate D2E/DX2 analytically  !
 ! A44   A(15,17,27)           111.2273         calculate D2E/DX2 analytically  !
 ! A45   A(25,17,26)           108.7698         calculate D2E/DX2 analytically  !
 ! A46   A(25,17,27)           109.4614         calculate D2E/DX2 analytically  !
 ! A47   A(26,17,27)           109.0468         calculate D2E/DX2 analytically  !
 ! A48   A(15,18,19)           109.6096         calculate D2E/DX2 analytically  !
 ! A49   A(15,18,20)           111.2978         calculate D2E/DX2 analytically  !
 ! A50   A(15,18,21)           109.4637         calculate D2E/DX2 analytically  !
 ! A51   A(19,18,20)           108.9667         calculate D2E/DX2 analytically  !
 ! A52   A(19,18,21)           108.2382         calculate D2E/DX2 analytically  !
 ! A53   A(20,18,21)           109.2073         calculate D2E/DX2 analytically  !
 ! A54   L(1,3,15,2,-1)        177.7313         calculate D2E/DX2 analytically  !
 ! A55   L(3,13,14,9,-1)       177.8295         calculate D2E/DX2 analytically  !
 ! A56   L(3,28,29,18,-1)      183.2916         calculate D2E/DX2 analytically  !
 ! A57   L(1,3,15,2,-2)        179.5704         calculate D2E/DX2 analytically  !
 ! A58   L(3,13,14,9,-2)       181.4839         calculate D2E/DX2 analytically  !
 ! A59   L(3,28,29,18,-2)      181.5967         calculate D2E/DX2 analytically  !
 ! D1    D(1,3,4,5)           -176.6571         calculate D2E/DX2 analytically  !
 ! D2    D(1,3,4,6)            -10.3619         calculate D2E/DX2 analytically  !
 ! D3    D(2,3,4,5)             96.1755         calculate D2E/DX2 analytically  !
 ! D4    D(2,3,4,6)            -97.5292         calculate D2E/DX2 analytically  !
 ! D5    D(13,3,4,5)           -90.8157         calculate D2E/DX2 analytically  !
 ! D6    D(13,3,4,6)            75.4796         calculate D2E/DX2 analytically  !
 ! D7    D(15,3,4,5)             5.1797         calculate D2E/DX2 analytically  !
 ! D8    D(15,3,4,6)           171.475          calculate D2E/DX2 analytically  !
 ! D9    D(28,3,4,5)           107.1812         calculate D2E/DX2 analytically  !
 ! D10   D(28,3,4,6)           -86.5236         calculate D2E/DX2 analytically  !
 ! D11   D(2,3,15,16)           16.3496         calculate D2E/DX2 analytically  !
 ! D12   D(2,3,15,17)         -104.5993         calculate D2E/DX2 analytically  !
 ! D13   D(2,3,15,18)          135.9612         calculate D2E/DX2 analytically  !
 ! D14   D(4,3,15,16)           58.2858         calculate D2E/DX2 analytically  !
 ! D15   D(4,3,15,17)          -62.663          calculate D2E/DX2 analytically  !
 ! D16   D(4,3,15,18)          177.8974         calculate D2E/DX2 analytically  !
 ! D17   D(13,3,15,16)         158.1198         calculate D2E/DX2 analytically  !
 ! D18   D(13,3,15,17)          37.171          calculate D2E/DX2 analytically  !
 ! D19   D(13,3,15,18)         -82.2686         calculate D2E/DX2 analytically  !
 ! D20   D(28,3,15,16)         -89.8117         calculate D2E/DX2 analytically  !
 ! D21   D(28,3,15,17)         149.2395         calculate D2E/DX2 analytically  !
 ! D22   D(28,3,15,18)          29.7999         calculate D2E/DX2 analytically  !
 ! D23   D(3,4,6,7)           -173.8672         calculate D2E/DX2 analytically  !
 ! D24   D(3,4,6,8)             61.7337         calculate D2E/DX2 analytically  !
 ! D25   D(3,4,6,9)            -50.741          calculate D2E/DX2 analytically  !
 ! D26   D(5,4,6,7)             -7.5284         calculate D2E/DX2 analytically  !
 ! D27   D(5,4,6,8)           -131.9275         calculate D2E/DX2 analytically  !
 ! D28   D(5,4,6,9)            115.5978         calculate D2E/DX2 analytically  !
 ! D29   D(4,6,7,10)          -179.925          calculate D2E/DX2 analytically  !
 ! D30   D(4,6,7,11)           -60.0633         calculate D2E/DX2 analytically  !
 ! D31   D(4,6,7,12)            60.0781         calculate D2E/DX2 analytically  !
 ! D32   D(8,6,7,10)           -57.8758         calculate D2E/DX2 analytically  !
 ! D33   D(8,6,7,11)            61.9859         calculate D2E/DX2 analytically  !
 ! D34   D(8,6,7,12)          -177.8727         calculate D2E/DX2 analytically  !
 ! D35   D(9,6,7,10)            59.5361         calculate D2E/DX2 analytically  !
 ! D36   D(9,6,7,11)           179.3978         calculate D2E/DX2 analytically  !
 ! D37   D(9,6,7,12)           -60.4608         calculate D2E/DX2 analytically  !
 ! D38   D(3,15,16,22)          58.958          calculate D2E/DX2 analytically  !
 ! D39   D(3,15,16,23)         -59.5522         calculate D2E/DX2 analytically  !
 ! D40   D(3,15,16,24)         179.7318         calculate D2E/DX2 analytically  !
 ! D41   D(17,15,16,22)       -174.1762         calculate D2E/DX2 analytically  !
 ! D42   D(17,15,16,23)         67.3135         calculate D2E/DX2 analytically  !
 ! D43   D(17,15,16,24)        -53.4025         calculate D2E/DX2 analytically  !
 ! D44   D(18,15,16,22)        -66.6595         calculate D2E/DX2 analytically  !
 ! D45   D(18,15,16,23)        174.8303         calculate D2E/DX2 analytically  !
 ! D46   D(18,15,16,24)         54.1143         calculate D2E/DX2 analytically  !
 ! D47   D(3,15,17,25)          56.5191         calculate D2E/DX2 analytically  !
 ! D48   D(3,15,17,26)         -62.2397         calculate D2E/DX2 analytically  !
 ! D49   D(3,15,17,27)         177.2474         calculate D2E/DX2 analytically  !
 ! D50   D(16,15,17,25)        -70.191          calculate D2E/DX2 analytically  !
 ! D51   D(16,15,17,26)        171.0502         calculate D2E/DX2 analytically  !
 ! D52   D(16,15,17,27)         50.5373         calculate D2E/DX2 analytically  !
 ! D53   D(18,15,17,25)       -177.9099         calculate D2E/DX2 analytically  !
 ! D54   D(18,15,17,26)         63.3314         calculate D2E/DX2 analytically  !
 ! D55   D(18,15,17,27)        -57.1816         calculate D2E/DX2 analytically  !
 ! D56   D(3,15,18,19)         -62.295          calculate D2E/DX2 analytically  !
 ! D57   D(3,15,18,20)         177.0938         calculate D2E/DX2 analytically  !
 ! D58   D(3,15,18,21)          56.2783         calculate D2E/DX2 analytically  !
 ! D59   D(16,15,18,19)         63.5561         calculate D2E/DX2 analytically  !
 ! D60   D(16,15,18,20)        -57.0551         calculate D2E/DX2 analytically  !
 ! D61   D(16,15,18,21)       -177.8706         calculate D2E/DX2 analytically  !
 ! D62   D(17,15,18,19)        171.739          calculate D2E/DX2 analytically  !
 ! D63   D(17,15,18,20)         51.1278         calculate D2E/DX2 analytically  !
 ! D64   D(17,15,18,21)        -69.6877         calculate D2E/DX2 analytically  !
 --------------------------------------------------------------------------------
 Trust Radius=2.00D-02 FncErr=1.00D-07 GrdErr=1.00D-07 EigMax=2.50D+02 EigMin=1.00D-04
 Number of steps in this run=      2 maximum allowed number of steps=      2.
 Search for a saddle point of order  1.
 GradGradGradGradGradGradGradGradGradGradGradGradGradGradGradGradGradGrad

 Leave Link  103 at Tue Oct  4 23:44:36 2022, MaxMem=  2952790016 cpu:               0.1 elap:               0.0
 (Enter /mnt/data/applications/G16/g16/l202.exe)
                          Input orientation:                          
 ---------------------------------------------------------------------
 Center     Atomic      Atomic             Coordinates (Angstroms)
 Number     Number       Type             X           Y           Z
 ---------------------------------------------------------------------
      1          1           0        0.950164   -2.045183   -0.284421
      2          1           0        0.891973   -0.110520   -1.384182
      3         45           0        0.013626   -0.768658   -0.129090
      4          6           0        1.801128    0.451090   -0.393297
      5          8           0        1.762503    1.655406   -0.316059
      6          6           0        3.120034   -0.300390   -0.353599
      7          6           0        4.345227    0.596039   -0.393465
      8          1           0        3.114222   -1.014190   -1.180166
      9          1           0        3.104190   -0.909399    0.554747
     10          1           0        5.252944   -0.009245   -0.363247
     11          1           0        4.367386    1.196319   -1.304333
     12          1           0        4.364244    1.280985    0.454585
     13          6           0        0.112178   -1.079013    1.762274
     14          8           0        0.213196   -1.290644    2.875591
     15         15           0       -1.358716    1.184702    0.021693
     16          6           0       -1.286646    2.282808   -1.419926
     17          6           0       -0.996479    2.276326    1.425345
     18          6           0       -3.135526    0.847645    0.207324
     19          1           0       -3.500593    0.313214   -0.671101
     20          1           0       -3.704716    1.772311    0.322108
     21          1           0       -3.296284    0.216237    1.082400
     22          1           0       -1.595423    1.729829   -2.308100
     23          1           0       -0.257529    2.615212   -1.554016
     24          1           0       -1.937084    3.150141   -1.289999
     25          1           0        0.051865    2.570070    1.383076
     26          1           0       -1.172867    1.737751    2.357772
     27          1           0       -1.625362    3.168575    1.404800
     28          6           0       -1.344206   -1.882194   -0.955671
     29          8           0       -2.096249   -2.590850   -1.428031
 ---------------------------------------------------------------------
                    Distance matrix (angstroms):
                    1          2          3          4          5
     1  H    0.000000
     2  H    2.226159   0.000000
     3  Rh   1.590833   1.667302   0.000000
     4  C    2.639578   1.457335   2.180081   0.000000
     5  O    3.788833   2.239912   2.994932   1.207408   0.000000
     6  C    2.785215   2.462196   3.149516   1.518490   2.381058
     7  C    4.302836   3.661381   4.549182   2.548225   2.792617
     8  H    2.558994   2.407620   3.283100   2.119062   3.114573
     9  H    2.575662   3.048207   3.168443   2.108955   3.022690
    10  H    4.760795   4.480027   5.299245   3.482506   3.867359
    11  H    4.819228   3.713852   4.919101   2.823301   2.823625
    12  H    4.823428   4.168215   4.844542   2.824392   2.739185
    13  C    2.413435   3.383231   1.919190   3.136918   3.810524
    14  O    3.331385   4.472035   3.056207   4.029987   4.611528
    15  P    3.982059   2.952911   2.392002   3.270324   3.174531
    16  C    5.002420   3.236615   3.559271   3.734101   3.302949
    17  C    5.038667   4.142068   3.564899   3.803360   3.321146
    18  C    5.030222   4.435281   3.555667   4.988843   4.991703
    19  H    5.051812   4.470198   3.716714   5.310785   5.443135
    20  H    6.050542   5.252241   4.526166   5.707167   5.505581
    21  H    5.001455   4.871580   3.659676   5.311916   5.442263
    22  H    4.982571   3.229187   3.685046   4.103438   3.905053
    23  H    4.978923   2.963075   3.681646   3.204491   2.556227
    24  H    6.028166   4.317909   4.528793   4.697146   4.107279
    25  H    4.988792   3.943230   3.665407   3.271926   2.578751
    26  H    5.079276   4.656382   3.724827   4.250709   3.971467
    27  H    6.055582   4.986769   4.532207   4.728500   4.090070
    28  C    2.396096   2.884951   1.940852   3.956464   4.751353
    29  O    3.299429   3.883739   3.075582   5.051101   5.844411
                    6          7          8          9         10
     6  C    0.000000
     7  C    1.518642   0.000000
     8  H    1.092134   2.174192   0.000000
     9  H    1.093726   2.169245   1.738104   0.000000
    10  H    2.152711   1.091436   2.500281   2.504024   0.000000
    11  H    2.167930   1.091104   2.544049   3.079918   1.767269
    12  H    2.168402   1.090276   3.082660   2.528942   1.767294
    13  C    3.759038   5.037034   4.204096   3.230948   5.664779
    14  O    4.456229   5.596426   4.994151   3.726863   6.126265
    15  P    4.733449   5.749247   5.127062   4.958522   6.729616
    16  C    5.218122   5.967982   5.504119   5.776588   7.009731
    17  C    5.172019   5.887721   5.874866   5.265195   6.890442
    18  C    6.384720   7.509056   6.667152   6.491685   8.451405
    19  H    6.656577   7.855824   6.765865   6.827932   8.764883
    20  H    7.164488   8.166839   7.517934   7.321674   9.158785
    21  H    6.595311   7.791991   6.908527   6.520088   8.673525
    22  H    5.493396   6.343708   5.566205   6.103097   7.328504
    23  H    4.620570   5.158421   4.968000   5.307629   6.218603
    24  H    6.193339   6.840661   6.547473   6.730334   7.908039
    25  H    4.546344   5.048352   5.366112   4.702077   6.062486
    26  H    5.471248   6.270740   6.202364   5.343363   7.193538
    27  H    6.135509   6.745342   6.829439   6.302470   7.780465
    28  C    4.774309   6.231161   4.547682   4.797491   6.883407
    29  O    5.797432   7.260799   5.449431   5.814057   7.861876
                   11         12         13         14         15
    11  H    0.000000
    12  H    1.760958   0.000000
    13  C    5.717343   5.035842   0.000000
    14  O    6.396409   5.450297   1.137746   0.000000
    15  P    5.877646   5.740116   3.212096   4.091818   0.000000
    16  C    5.758637   6.037384   4.835799   5.785374   1.813642
    17  C    6.114622   5.538089   3.549781   4.036063   1.814689
    18  C    7.661617   7.516347   4.083806   4.786007   1.817999
    19  H    7.942666   8.003712   4.572935   5.379927   2.413938
    20  H    8.254448   8.084991   4.977230   5.590349   2.437058
    21  H    8.086340   7.759609   3.709113   4.219321   2.411886
    22  H    6.070195   6.584187   5.231964   6.266180   2.404398
    23  H    4.844113   5.213006   4.978129   5.924416   2.396212
    24  H    6.600300   6.800298   5.603713   6.457276   2.432693
    25  H    5.266221   4.595699   3.669228   4.142310   2.400488
    26  H    6.663225   5.872849   3.152796   3.370532   2.407835
    27  H    6.866020   6.351479   4.603134   5.042634   2.433071
    28  C    6.497775   6.676895   3.186438   4.177799   3.218898
    29  O    7.492431   7.763589   4.164235   5.054229   4.111016
                   16         17         18         19         20
    16  C    0.000000
    17  C    2.860036   0.000000
    18  C    2.850613   2.846090   0.000000
    19  H    3.056403   3.810444   1.091109   0.000000
    20  H    3.023632   2.967442   1.091861   1.776821   0.000000
    21  H    3.817197   3.106555   1.090998   1.768025   1.779390
    22  H    1.090863   3.820472   3.078559   2.883789   3.371782
    23  H    1.089750   3.088282   3.809131   4.073843   4.014153
    24  H    1.091886   3.003562   2.996620   3.297841   2.760766
    25  H    3.119448   1.089539   3.809016   4.683268   3.984216
    26  H    3.818513   1.091145   3.044462   4.076970   3.248905
    27  H    2.979662   1.091798   3.016829   3.997366   2.728642
    28  C    4.191192   4.804523   3.466036   3.090437   4.534329
    29  O    4.940452   5.748100   3.946863   3.313414   4.968635
                   21         22         23         24         25
    21  H    0.000000
    22  H    4.084040   0.000000
    23  H    4.683994   1.772711   0.000000
    24  H    4.010423   1.780603   1.782346   0.000000
    25  H    4.103783   4.128480   2.953688   3.381972   0.000000
    26  H    2.906971   4.684974   4.112162   3.985613   1.772782
    27  H    3.407670   3.982023   3.306323   2.712831   1.780947
    28  C    3.516782   3.865085   4.665355   5.078157   5.219330
    29  O    3.952479   4.437749   5.522667   5.744856   6.257141
                   26         27         28         29
    26  H    0.000000
    27  H    1.777685   0.000000
    28  C    4.910425   5.582216   0.000000
    29  O    5.824236   6.435654   1.136172   0.000000
 Stoichiometry    C8H16O3PRh
 Framework group  C1[X(C8H16O3PRh)]
 Deg. of freedom    81
 Full point group                 C1      NOp   1
 RotChk:  IX=0 Diff= 4.36D-16
 Largest Abelian subgroup         C1      NOp   1
 Largest concise Abelian subgroup C1      NOp   1
                         Standard orientation:                         
 ---------------------------------------------------------------------
 Center     Atomic      Atomic             Coordinates (Angstroms)
 Number     Number       Type             X           Y           Z
 ---------------------------------------------------------------------
      1          1           0        0.951903   -2.046135   -0.282007
      2          1           0        0.891071   -0.113496   -1.385178
      3         45           0        0.014390   -0.770148   -0.128144
      4          6           0        1.800600    0.450677   -0.396092
      5          8           0        1.760995    1.655095   -0.320976
      6          6           0        3.120192   -0.299586   -0.356199
      7          6           0        4.344570    0.597834   -0.398737
      8          1           0        3.114282   -1.014869   -1.181482
      9          1           0        3.105669   -0.906981    0.553250
     10          1           0        5.252839   -0.006606   -0.368227
     11          1           0        4.365414    1.196501   -1.310697
     12          1           0        4.363729    1.284313    0.448069
     13          6           0        0.114858   -1.077030    1.763686
     14          8           0        0.217028   -1.286580    2.877291
     15         15           0       -1.359519    1.182287    0.020339
     16          6           0       -1.289659    2.277872   -1.423306
     17          6           0       -0.997010    2.276737    1.421718
     18          6           0       -3.135873    0.844020    0.208121
     19          1           0       -3.501240    0.307700   -0.669027
     20          1           0       -3.705768    1.768396    0.321746
     21          1           0       -3.295321    0.214041    1.084466
     22          1           0       -1.598728    1.723036   -2.310219
     23          1           0       -0.260948    2.610929   -1.558888
     24          1           0       -1.940737    3.144871   -1.294364
     25          1           0        0.051040    2.571314    1.378010
     26          1           0       -1.172119    1.739679    2.355262
     27          1           0       -1.626688    3.168400    1.400125
     28          6           0       -1.343192   -1.886340   -0.951547
     29          8           0       -2.095029   -2.596494   -1.421982
 ---------------------------------------------------------------------
 Rotational constants (GHZ):           0.6118714           0.4337739           0.3617856
 Leave Link  202 at Tue Oct  4 23:44:36 2022, MaxMem=  2952790016 cpu:               0.1 elap:               0.0
 (Enter /mnt/data/applications/G16/g16/l301.exe)
 Basis read from chk: "TS4t.chk" (5D, 7F)
 Pseudo-potential data read from chk file.
 There are   573 symmetry adapted cartesian basis functions of A   symmetry.
 There are   510 symmetry adapted basis functions of A   symmetry.
   510 basis functions,   823 primitive gaussians,   573 cartesian basis functions
    60 alpha electrons       60 beta electrons
       nuclear repulsion energy      1111.2961888534 Hartrees.
 IExCor= 4639 DFT=T Ex+Corr=wB97XD ExCW=0 ScaHFX=  1.000000
 ScaDFX=  1.000000  1.000000  1.000000  1.000000 ScalE2=  1.000000  1.000000
 IRadAn=      5 IRanWt=     -1 IRanGd=            0 ICorTp=0 IEmpDi=121
 HFx  wShort=  0.000000 wLong=  0.200000 cFull=  0.222036 cShort=  0.000000 cLong=  0.777964
 DFx  wShort=  0.000000 wLong=  0.200000 cFull=  0.000000 cShort=  0.000000 cLong=  1.000000
 NAtoms=   29 NActive=   29 NUniq=   29 SFac= 1.00D+00 NAtFMM=   60 NAOKFM=F Big=F
 Integral buffers will be    131072 words long.
 Raffenetti 2 integral format.
 Two-electron integral symmetry is turned on.
 R6Disp:  Grimme-D2 Dispersion energy=       -0.0242882022 Hartrees.
 Nuclear repulsion after empirical dispersion term =     1111.2719006512 Hartrees.
 No density basis found on file 20724.
 Force inversion solution in PCM.
 ------------------------------------------------------------------------------
 Polarizable Continuum Model (PCM)
 =================================
 Model                : PCM.
 Atomic radii         : SMD-Coulomb.
 Polarization charges : Total charges.
 Charge compensation  : None.
 Solution method      : Matrix inversion.
 Cavity type          : VdW (van der Waals Surface) (Alpha=1.000).
 Cavity algorithm     : GePol (No added spheres)
                        Default sphere list used, NSphG=   29.
                        Lebedev-Laikov grids with approx.  5.0 points / Ang**2.
                        Smoothing algorithm: York/Karplus (Gamma=1.0000).
                        Polarization charges: spherical gaussians, with
                                              point-specific exponents (IZeta= 3).
                        Self-potential: point-specific (ISelfS= 7).
                        Self-field    : sphere-specific E.n sum rule (ISelfD= 2).
 1st derivatives      : Analytical E(r).r(x)/FMM algorithm (CHGder, D1EAlg=3).
                        Cavity 1st derivative terms included.
 2nd derivatives      : Analytical E(r).r(xy)/FMM algorithm (CHGder, D2EAlg=3).
                        Cavity 2nd derivative terms included.
 Solvent              : Toluene, Eps=   2.374100 Eps(inf)=   2.238315
 ------------------------------------------------------------------------------
 GePol: Number of generator spheres                  =      29
 GePol: Total number of spheres                      =      29
 GePol: Number of exposed spheres                    =      29 (100.00%)
 GePol: Number of points                             =    2605
 GePol: Average weight of points                     =       0.12
 GePol: Minimum weight of points                     =   0.15D-11
 GePol: Maximum weight of points                     =    0.20337
 GePol: Number of points with low weight             =     135
 GePol: Fraction of low-weight points (<1% of avg)   =       5.18%
 GePol: Cavity surface area                          =    309.949 Ang**2
 GePol: Cavity volume                                =    292.188 Ang**3
 ------------------------------------------------------------------------------
 Atomic radii for non-electrostatic terms: SMD-CDS.
 ------------------------------------------------------------------------------
 PCM non-electrostatic energy =        -0.0002745082 Hartrees.
 Nuclear repulsion after PCM non-electrostatic terms =     1111.2716261429 Hartrees.
 Leave Link  301 at Tue Oct  4 23:44:37 2022, MaxMem=  2952790016 cpu:               2.5 elap:               0.2
 (Enter /mnt/data/applications/G16/g16/l302.exe)
 NPDir=0 NMtPBC=     1 NCelOv=     1 NCel=       1 NClECP=     1 NCelD=      1
         NCelK=      1 NCelE2=     1 NClLst=     1 CellRange=     0.0.
 One-electron integrals computed using PRISM.
 One-electron integral symmetry used in STVInt
   1 Symmetry operations used in ECPInt.
 ECPInt:  NShTT=   22578 NPrTT=   66767 LenC2=   20894 LenP2D=   46066.
 LDataN:  DoStor=T MaxTD1= 7 Len=  274
 NBasis=   510 RedAO= T EigKep=  1.43D-04  NBF=   510
 NBsUse=   510 1.00D-06 EigRej= -1.00D+00 NBFU=   510
 Precomputing XC quadrature grid using
 IXCGrd= 4 IRadAn=           5 IRanWt=          -1 IRanGd=           0 AccXCQ= 0.00D+00.
 Defaulting to unpruned grid for atomic number  45.
 Generated NRdTot=       0 NPtTot=           0 NUsed=           0 NTot=          32
 NSgBfM=   568   568   568   568   568 MxSgAt=    29 MxSgA2=    29.
 Leave Link  302 at Tue Oct  4 23:44:39 2022, MaxMem=  2952790016 cpu:              22.3 elap:               1.9
 (Enter /mnt/data/applications/G16/g16/l303.exe)
 DipDrv:  MaxL=1.
 Leave Link  303 at Tue Oct  4 23:44:39 2022, MaxMem=  2952790016 cpu:               1.2 elap:               0.1
 (Enter /mnt/data/applications/G16/g16/l401.exe)
 Initial guess from the checkpoint file:  "TS4t.chk"
 B after Tr=     0.000000   -0.000000    0.000000
         Rot=    1.000000    0.000000    0.000000    0.000000 Ang=   0.00 deg.
 Guess basis will be translated and rotated to current coordinates.
 JPrj=2 DoOrth=T DoCkMO=T.
 Leave Link  401 at Tue Oct  4 23:44:40 2022, MaxMem=  2952790016 cpu:              17.8 elap:               1.5
 (Enter /mnt/data/applications/G16/g16/l502.exe)
 Integral symmetry usage will be decided dynamically.
 Closed shell SCF:
 Using DIIS extrapolation, IDIIS=  1040.
 NGot=  2952790016 LenX=  2952121135 LenY=  2951792233
 Requested convergence on RMS density matrix=1.00D-08 within 128 cycles.
 Requested convergence on MAX density matrix=1.00D-06.
 Requested convergence on             energy=1.00D-06.
 No special actions if energy rises.
 Fock matrices will be formed incrementally for  20 cycles.

 Cycle   1  Pass 1  IDiag  1:
 FoFJK:  IHMeth= 1 ICntrl=       0 DoSepK=T KAlg= 0 I1Cent=           0 FoldK=F
 IRaf=         1 NMat=       1 IRICut=       1 DoRegI=T DoRafI=F ISym2E= 0 IDoP0=0 IntGTp=1.
 FoFCou: FMM=F IPFlag=           0 FMFlag=      100000 FMFlg1=           0
         NFxFlg=           0 DoJE=T BraDBF=F KetDBF=F FulRan=T
         wScrn=  0.000000 ICntrl=       500 IOpCl=  0 I1Cent=           0 NGrid=           0
         NMat0=    1 NMatS0=      1 NMatT0=    0 NMatD0=    1 NMtDS0=    0 NMtDT0=    0
 Symmetry not used in FoFCou.
 Defaulting to unpruned grid for atomic number  45.
 Defaulting to unpruned grid for atomic number  45.
 Defaulting to unpruned grid for atomic number  45.
 Defaulting to unpruned grid for atomic number  45.
 Defaulting to unpruned grid for atomic number  45.
 Defaulting to unpruned grid for atomic number  45.
 Defaulting to unpruned grid for atomic number  45.
 Defaulting to unpruned grid for atomic number  45.
 Defaulting to unpruned grid for atomic number  45.
 Defaulting to unpruned grid for atomic number  45.
 Defaulting to unpruned grid for atomic number  45.
 Defaulting to unpruned grid for atomic number  45.
 Inv3:  Mode=1 IEnd=    20358075.
 Iteration    1 A*A^-1 deviation from unit magnitude is 2.66D-15 for    348.
 Iteration    1 A*A^-1 deviation from orthogonality  is 1.49D-15 for   1474    127.
 Iteration    1 A^-1*A deviation from unit magnitude is 2.89D-15 for    348.
 Iteration    1 A^-1*A deviation from orthogonality  is 2.18D-15 for   2034    985.
 E= -992.208858812831    
 DIIS: error= 1.46D-08 at cycle   1 NSaved=   1.
 NSaved= 1 IEnMin= 1 EnMin= -992.208858812831     IErMin= 1 ErrMin= 1.46D-08
 ErrMax= 1.46D-08  0.00D+00 EMaxC= 1.00D-01 BMatC= 3.26D-13 BMatP= 3.26D-13
 IDIUse=1 WtCom= 1.00D+00 WtEn= 0.00D+00
 Coeff-Com:  0.100D+01
 Coeff:      0.100D+01
 Gap=     0.322 Goal=   None    Shift=    0.000
 RMSDP=2.35D-09 MaxDP=1.45D-07              OVMax= 4.26D-07

 Error on total polarization charges =  0.03067
 SCF Done:  E(RwB97XD) =  -992.208858813     A.U. after    1 cycles
            NFock=  1  Conv=0.24D-08     -V/T= 2.0799
 KE= 9.188018315741D+02 PE=-4.529310751608D+03 EE= 1.507028435079D+03
 SMD-CDS (non-electrostatic) energy       (kcal/mol) =      -0.17
 (included in total energy above)
 Leave Link  502 at Tue Oct  4 23:46:10 2022, MaxMem=  2952790016 cpu:            1037.2 elap:              90.1
 (Enter /mnt/data/applications/G16/g16/l801.exe)
 DoSCS=F DFT=T ScalE2(SS,OS)=  1.000000  1.000000
 Range of M.O.s used for correlation:     1   510
 NBasis=   510 NAE=    60 NBE=    60 NFC=     0 NFV=     0
 NROrb=    510 NOA=    60 NOB=    60 NVA=   450 NVB=   450

 **** Warning!!: The largest alpha MO coefficient is  0.18228673D+02

 Leave Link  801 at Tue Oct  4 23:46:11 2022, MaxMem=  2952790016 cpu:               0.3 elap:               0.0
 (Enter /mnt/data/applications/G16/g16/l1101.exe)
 Using compressed storage, NAtomX=    29.
 Will process     30 centers per pass.
   1 Symmetry operations used in ECPInt.
 ECPInt:  NShTT=   22578 NPrTT=   66767 LenC2=   20894 LenP2D=   46066.
 LDataN:  DoStor=T MaxTD1= 8 Len=  415
 R6Disp: Adding Grimme-D2 dispersion energy 1st derivatives to the gradient.
 Leave Link 1101 at Tue Oct  4 23:46:14 2022, MaxMem=  2952790016 cpu:              41.3 elap:               3.5
 (Enter /mnt/data/applications/G16/g16/l1102.exe)
 Symmetrizing basis deriv contribution to polar:
 IMax=3 JMax=2 DiffMx= 0.00D+00
 Leave Link 1102 at Tue Oct  4 23:46:14 2022, MaxMem=  2952790016 cpu:               1.0 elap:               0.1
 (Enter /mnt/data/applications/G16/g16/l1110.exe)
 Forming Gx(P) for the SCF density, NAtomX=    29.
 Integral derivatives from FoFJK, PRISM(SPDF).
 Do as many integral derivatives as possible in FoFJK.
 G2DrvN: MDV=    2952787676.
 G2DrvN: will do    30 centers at a time, making    1 passes.
 Calling FoFCou, ICntrl=  3107 FMM=F I1Cent=   0 AccDes= 0.00D+00.
 FoFJK:  IHMeth= 1 ICntrl=    3107 DoSepK=T KAlg= 0 I1Cent=           0 FoldK=F
 IRaf=         1 NMat=       1 IRICut=       1 DoRegI=T DoRafI=F ISym2E= 0 IDoP0=0 IntGTp=1.
 FoFCou: FMM=F IPFlag=           0 FMFlag=      100000 FMFlg1=           0
         NFxFlg=           0 DoJE=F BraDBF=F KetDBF=F FulRan=T
         wScrn=  0.000000 ICntrl=      3507 IOpCl=  0 I1Cent=           0 NGrid=           0
         NMat0=    1 NMatS0=      1 NMatT0=    0 NMatD0=    1 NMtDS0=    0 NMtDT0=    0
 Symmetry not used in FoFCou.
 Defaulting to unpruned grid for atomic number  45.
 Defaulting to unpruned grid for atomic number  45.
 Defaulting to unpruned grid for atomic number  45.
 Defaulting to unpruned grid for atomic number  45.
 Defaulting to unpruned grid for atomic number  45.
 Defaulting to unpruned grid for atomic number  45.
 Defaulting to unpruned grid for atomic number  45.
 Defaulting to unpruned grid for atomic number  45.
 Defaulting to unpruned grid for atomic number  45.
 Defaulting to unpruned grid for atomic number  45.
 Defaulting to unpruned grid for atomic number  45.
 Defaulting to unpruned grid for atomic number  45.
 NEqPCM:  Using equilibrium solvation (IEInf=0, Eps=   2.3741, EpsInf=   2.2383)
 G2PCM: DoFxE=T DoFxN=T DoGrad=T DoDP/DQ/DG/TGxP=FFFF NFrqRd=   0 IEInf=0 SqF1=F DoCFld=F IF1Alg=4.
 GePol: Maximum number of non-zero 1st derivatives   =     435
 End of G2Drv F.D. properties file   721 does not exist.
 End of G2Drv F.D. properties file   722 does not exist.
 End of G2Drv F.D. properties file   788 does not exist.
 Leave Link 1110 at Wed Oct  5 00:04:44 2022, MaxMem=  2952790016 cpu:           13269.2 elap:            1109.9
 (Enter /mnt/data/applications/G16/g16/l1002.exe)
 Minotr:  Closed shell wavefunction.
          IDoAtm=11111111111111111111111111111
 NEqPCM:  Using equilibrium solvation (IEInf=0, Eps=   2.3741, EpsInf=   2.2383)
          Direct CPHF calculation.
          Differentiating once with respect to electric field.
                with respect to dipole field.
          Differentiating once with respect to nuclear coordinates.
          Requested convergence is 1.0D-08 RMS, and 1.0D-07 maximum.
          Secondary convergence is 1.0D-12 RMS, and 1.0D-12 maximum.
          NewPWx=T KeepS1=F KeepF1=F KeepIn=T MapXYZ=F SortEE=F KeepMc=T.
 Defaulting to unpruned grid for atomic number  45.
         8986 words used for storage of precomputed grid.
 Two-electron integrals replicated using symmetry.
          MDV=    2952790016 using IRadAn=       1.
          Solving linear equations simultaneously, MaxMat=     384.
 FoF2E skips out because all densities are zero.
 CalDSu exits because no D1Ps are significant.
 FoFJK:  IHMeth= 1 ICntrl=       0 DoSepK=T KAlg= 0 I1Cent=           0 FoldK=F
 IRaf=         1 NMat=      87 IRICut=       1 DoRegI=T DoRafI=F ISym2E= 2 IDoP0=3 IntGTp=3.
 Defaulting to unpruned grid for atomic number  45.
 Defaulting to unpruned grid for atomic number  45.
 Defaulting to unpruned grid for atomic number  45.
 Defaulting to unpruned grid for atomic number  45.
 Defaulting to unpruned grid for atomic number  45.
 Defaulting to unpruned grid for atomic number  45.
 Defaulting to unpruned grid for atomic number  45.
 Defaulting to unpruned grid for atomic number  45.
 Defaulting to unpruned grid for atomic number  45.
 Defaulting to unpruned grid for atomic number  45.
 Defaulting to unpruned grid for atomic number  45.
 Defaulting to unpruned grid for atomic number  45.
          There are    90 degrees of freedom in the 1st order CPHF.  IDoFFX=6 NUNeed=     3.
     87 vectors produced by pass  0 Test12= 3.00D-14 1.11D-09 XBig12= 8.89D+01 2.78D+00.
 AX will form    87 AO Fock derivatives at one time.
     87 vectors produced by pass  1 Test12= 3.00D-14 1.11D-09 XBig12= 9.65D+00 3.93D-01.
     87 vectors produced by pass  2 Test12= 3.00D-14 1.11D-09 XBig12= 4.41D-01 8.01D-02.
     87 vectors produced by pass  3 Test12= 3.00D-14 1.11D-09 XBig12= 1.08D-02 1.82D-02.
     87 vectors produced by pass  4 Test12= 3.00D-14 1.11D-09 XBig12= 1.57D-04 1.95D-03.
     87 vectors produced by pass  5 Test12= 3.00D-14 1.11D-09 XBig12= 1.53D-06 1.38D-04.
     87 vectors produced by pass  6 Test12= 3.00D-14 1.11D-09 XBig12= 1.14D-08 1.21D-05.
     43 vectors produced by pass  7 Test12= 3.00D-14 1.11D-09 XBig12= 7.65D-11 9.36D-07.
      7 vectors produced by pass  8 Test12= 3.00D-14 1.11D-09 XBig12= 5.46D-13 1.17D-07.
      3 vectors produced by pass  9 Test12= 3.00D-14 1.11D-09 XBig12= 4.29D-15 1.36D-08.
      1 vectors produced by pass 10 Test12= 3.00D-14 1.11D-09 XBig12= 5.91D-17 1.21D-09.
 InvSVY:  IOpt=1 It=  1 EMax= 2.11D-15
 Solved reduced A of dimension   663 with    90 vectors.
 FullF1:  Do perturbations      1 to       3.
 Isotropic polarizability for W=    0.000000      200.22 Bohr**3.
 End of Minotr F.D. properties file   721 does not exist.
 End of Minotr F.D. properties file   722 does not exist.
 End of Minotr F.D. properties file   788 does not exist.
 Leave Link 1002 at Wed Oct  5 01:08:29 2022, MaxMem=  2952790016 cpu:           45773.6 elap:            3824.6
 (Enter /mnt/data/applications/G16/g16/l601.exe)
 Copying SCF densities to generalized density rwf, IOpCl= 0 IROHF=0.

 **********************************************************************

            Population analysis using the SCF density.

 **********************************************************************

 Orbital symmetries:
       Occupied  (A) (A) (A) (A) (A) (A) (A) (A) (A) (A) (A) (A)
                 (A) (A) (A) (A) (A) (A) (A) (A) (A) (A) (A) (A)
                 (A) (A) (A) (A) (A) (A) (A) (A) (A) (A) (A) (A)
                 (A) (A) (A) (A) (A) (A) (A) (A) (A) (A) (A) (A)
                 (A) (A) (A) (A) (A) (A) (A) (A) (A) (A) (A) (A)
       Virtual   (A) (A) (A) (A) (A) (A) (A) (A) (A) (A) (A) (A)
                 (A) (A) (A) (A) (A) (A) (A) (A) (A) (A) (A) (A)
                 (A) (A) (A) (A) (A) (A) (A) (A) (A) (A) (A) (A)
                 (A) (A) (A) (A) (A) (A) (A) (A) (A) (A) (A) (A)
                 (A) (A) (A) (A) (A) (A) (A) (A) (A) (A) (A) (A)
                 (A) (A) (A) (A) (A) (A) (A) (A) (A) (A) (A) (A)
                 (A) (A) (A) (A) (A) (A) (A) (A) (A) (A) (A) (A)
                 (A) (A) (A) (A) (A) (A) (A) (A) (A) (A) (A) (A)
                 (A) (A) (A) (A) (A) (A) (A) (A) (A) (A) (A) (A)
                 (A) (A) (A) (A) (A) (A) (A) (A) (A) (A) (A) (A)
                 (A) (A) (A) (A) (A) (A) (A) (A) (A) (A) (A) (A)
                 (A) (A) (A) (A) (A) (A) (A) (A) (A) (A) (A) (A)
                 (A) (A) (A) (A) (A) (A) (A) (A) (A) (A) (A) (A)
                 (A) (A) (A) (A) (A) (A) (A) (A) (A) (A) (A) (A)
                 (A) (A) (A) (A) (A) (A) (A) (A) (A) (A) (A) (A)
                 (A) (A) (A) (A) (A) (A) (A) (A) (A) (A) (A) (A)
                 (A) (A) (A) (A) (A) (A) (A) (A) (A) (A) (A) (A)
                 (A) (A) (A) (A) (A) (A) (A) (A) (A) (A) (A) (A)
                 (A) (A) (A) (A) (A) (A) (A) (A) (A) (A) (A) (A)
                 (A) (A) (A) (A) (A) (A) (A) (A) (A) (A) (A) (A)
                 (A) (A) (A) (A) (A) (A) (A) (A) (A) (A) (A) (A)
                 (A) (A) (A) (A) (A) (A) (A) (A) (A) (A) (A) (A)
                 (A) (A) (A) (A) (A) (A) (A) (A) (A) (A) (A) (A)
                 (A) (A) (A) (A) (A) (A) (A) (A) (A) (A) (A) (A)
                 (A) (A) (A) (A) (A) (A) (A) (A) (A) (A) (A) (A)
                 (A) (A) (A) (A) (A) (A) (A) (A) (A) (A) (A) (A)
                 (A) (A) (A) (A) (A) (A) (A) (A) (A) (A) (A) (A)
                 (A) (A) (A) (A) (A) (A) (A) (A) (A) (A) (A) (A)
                 (A) (A) (A) (A) (A) (A) (A) (A) (A) (A) (A) (A)
                 (A) (A) (A) (A) (A) (A) (A) (A) (A) (A) (A) (A)
                 (A) (A) (A) (A) (A) (A) (A) (A) (A) (A) (A) (A)
                 (A) (A) (A) (A) (A) (A) (A) (A) (A) (A) (A) (A)
                 (A) (A) (A) (A) (A) (A) (A) (A) (A) (A) (A) (A)
                 (A) (A) (A) (A) (A) (A) (A) (A) (A) (A) (A) (A)
                 (A) (A) (A) (A) (A) (A) (A) (A) (A) (A) (A) (A)
                 (A) (A) (A) (A) (A) (A) (A) (A) (A) (A) (A) (A)
                 (A) (A) (A) (A) (A) (A) (A) (A) (A) (A) (A) (A)
                 (A) (A) (A) (A) (A) (A)
 The electronic state is 1-A.
 Alpha  occ. eigenvalues --  -77.24208 -19.32635 -19.32436 -19.23379 -10.40832
 Alpha  occ. eigenvalues --  -10.40821 -10.38301 -10.28627 -10.28181 -10.28118
 Alpha  occ. eigenvalues --  -10.27814 -10.26300  -6.68630  -4.83322  -4.83299
 Alpha  occ. eigenvalues --   -4.83012  -3.36973  -2.11617  -2.11496  -2.11270
 Alpha  occ. eigenvalues --   -1.24190  -1.23967  -1.14344  -0.88142  -0.86876
 Alpha  occ. eigenvalues --   -0.80037  -0.79826  -0.74701  -0.66838  -0.65812
 Alpha  occ. eigenvalues --   -0.64156  -0.62781  -0.57506  -0.56150  -0.55403
 Alpha  occ. eigenvalues --   -0.55341  -0.55201  -0.54947  -0.54349  -0.53752
 Alpha  occ. eigenvalues --   -0.53488  -0.52649  -0.52356  -0.51307  -0.49547
 Alpha  occ. eigenvalues --   -0.49498  -0.47983  -0.47220  -0.45577  -0.44989
 Alpha  occ. eigenvalues --   -0.43451  -0.42869  -0.42716  -0.41926  -0.37815
 Alpha  occ. eigenvalues --   -0.36693  -0.36419  -0.32946  -0.31776  -0.28731
 Alpha virt. eigenvalues --    0.03427   0.04498   0.05242   0.06353   0.07084
 Alpha virt. eigenvalues --    0.07378   0.07716   0.07971   0.08842   0.09417
 Alpha virt. eigenvalues --    0.12437   0.13462   0.13767   0.14272   0.15794
 Alpha virt. eigenvalues --    0.15982   0.16894   0.17500   0.17953   0.18282
 Alpha virt. eigenvalues --    0.18337   0.19796   0.20071   0.20573   0.21032
 Alpha virt. eigenvalues --    0.21520   0.21607   0.22263   0.22699   0.23270
 Alpha virt. eigenvalues --    0.24224   0.24561   0.25429   0.25925   0.26403
 Alpha virt. eigenvalues --    0.26992   0.27488   0.28483   0.28817   0.29266
 Alpha virt. eigenvalues --    0.30705   0.32116   0.32345   0.32931   0.33825
 Alpha virt. eigenvalues --    0.34516   0.35224   0.35963   0.37174   0.39929
 Alpha virt. eigenvalues --    0.40654   0.41683   0.42301   0.43182   0.43622
 Alpha virt. eigenvalues --    0.43885   0.44453   0.45678   0.46399   0.46663
 Alpha virt. eigenvalues --    0.47769   0.48030   0.48933   0.49755   0.50147
 Alpha virt. eigenvalues --    0.50478   0.50846   0.51230   0.51468   0.52281
 Alpha virt. eigenvalues --    0.52485   0.52624   0.53656   0.53889   0.54200
 Alpha virt. eigenvalues --    0.54943   0.55516   0.55730   0.56612   0.56769
 Alpha virt. eigenvalues --    0.57174   0.57595   0.58669   0.59303   0.60010
 Alpha virt. eigenvalues --    0.60720   0.61990   0.62132   0.62997   0.63520
 Alpha virt. eigenvalues --    0.65085   0.66648   0.67175   0.67873   0.68995
 Alpha virt. eigenvalues --    0.70327   0.70667   0.71207   0.71764   0.72533
 Alpha virt. eigenvalues --    0.73360   0.73708   0.74940   0.75982   0.76809
 Alpha virt. eigenvalues --    0.78503   0.80246   0.81105   0.82045   0.83390
 Alpha virt. eigenvalues --    0.83565   0.84445   0.84655   0.85931   0.86741
 Alpha virt. eigenvalues --    0.88202   0.88615   0.89152   0.89864   0.92043
 Alpha virt. eigenvalues --    0.93188   0.94315   0.96086   0.97199   0.97421
 Alpha virt. eigenvalues --    0.98576   0.99837   1.00643   1.01967   1.03270
 Alpha virt. eigenvalues --    1.03694   1.06125   1.07722   1.08426   1.08538
 Alpha virt. eigenvalues --    1.09803   1.11924   1.12258   1.12738   1.14198
 Alpha virt. eigenvalues --    1.14959   1.16180   1.16854   1.17417   1.17951
 Alpha virt. eigenvalues --    1.18717   1.20485   1.20884   1.23340   1.25830
 Alpha virt. eigenvalues --    1.27288   1.29601   1.30069   1.33594   1.34848
 Alpha virt. eigenvalues --    1.38433   1.40416   1.47233   1.50062   1.52302
 Alpha virt. eigenvalues --    1.52800   1.53947   1.54681   1.55019   1.56009
 Alpha virt. eigenvalues --    1.56692   1.57275   1.57884   1.58792   1.59188
 Alpha virt. eigenvalues --    1.59893   1.60585   1.60978   1.61124   1.61889
 Alpha virt. eigenvalues --    1.62649   1.62901   1.63691   1.63971   1.64427
 Alpha virt. eigenvalues --    1.64705   1.65058   1.65688   1.66890   1.67566
 Alpha virt. eigenvalues --    1.67763   1.68471   1.69367   1.69429   1.70383
 Alpha virt. eigenvalues --    1.71522   1.71730   1.72557   1.73073   1.73757
 Alpha virt. eigenvalues --    1.74433   1.75392   1.75740   1.77250   1.78058
 Alpha virt. eigenvalues --    1.80156   1.81075   1.83949   1.84397   1.89226
 Alpha virt. eigenvalues --    1.89655   1.92770   1.93695   1.94440   1.96611
 Alpha virt. eigenvalues --    1.98448   1.99461   2.00748   2.03670   2.04327
 Alpha virt. eigenvalues --    2.05862   2.07294   2.08598   2.09877   2.11065
 Alpha virt. eigenvalues --    2.11521   2.12778   2.14182   2.14634   2.15610
 Alpha virt. eigenvalues --    2.16278   2.17084   2.17715   2.18435   2.19654
 Alpha virt. eigenvalues --    2.20773   2.22085   2.23965   2.25354   2.27804
 Alpha virt. eigenvalues --    2.28211   2.29296   2.33248   2.35145   2.37300
 Alpha virt. eigenvalues --    2.38519   2.38821   2.39278   2.40756   2.41466
 Alpha virt. eigenvalues --    2.42064   2.43571   2.44791   2.44946   2.46158
 Alpha virt. eigenvalues --    2.47175   2.49313   2.50178   2.51394   2.52972
 Alpha virt. eigenvalues --    2.54889   2.55884   2.58315   2.58583   2.61728
 Alpha virt. eigenvalues --    2.62328   2.63578   2.64313   2.66300   2.66598
 Alpha virt. eigenvalues --    2.67326   2.67948   2.68803   2.70611   2.71835
 Alpha virt. eigenvalues --    2.72612   2.73059   2.74151   2.74971   2.75180
 Alpha virt. eigenvalues --    2.76613   2.78034   2.78252   2.79810   2.82042
 Alpha virt. eigenvalues --    2.83091   2.87044   2.87400   2.88251   2.89733
 Alpha virt. eigenvalues --    2.91124   2.91734   2.92764   2.93254   2.94984
 Alpha virt. eigenvalues --    2.96025   2.97366   2.98733   2.99564   3.01045
 Alpha virt. eigenvalues --    3.01342   3.02901   3.03760   3.04766   3.05536
 Alpha virt. eigenvalues --    3.06592   3.08215   3.09951   3.10487   3.13184
 Alpha virt. eigenvalues --    3.13954   3.15202   3.15555   3.16620   3.17884
 Alpha virt. eigenvalues --    3.18841   3.19427   3.20094   3.21448   3.22509
 Alpha virt. eigenvalues --    3.23282   3.23954   3.24892   3.26080   3.27605
 Alpha virt. eigenvalues --    3.28689   3.30309   3.31346   3.31966   3.32687
 Alpha virt. eigenvalues --    3.33274   3.34218   3.36815   3.37298   3.38808
 Alpha virt. eigenvalues --    3.40483   3.41004   3.41846   3.42526   3.43563
 Alpha virt. eigenvalues --    3.44172   3.45182   3.45803   3.47028   3.49717
 Alpha virt. eigenvalues --    3.52137   3.54166   3.55539   3.56066   3.57817
 Alpha virt. eigenvalues --    3.60461   3.62300   3.63037   3.63601   3.64710
 Alpha virt. eigenvalues --    3.66708   3.68117   3.68473   3.68864   3.70538
 Alpha virt. eigenvalues --    3.71821   3.72212   3.72552   3.73289   3.74443
 Alpha virt. eigenvalues --    3.75856   3.77286   3.79765   3.80435   3.84594
 Alpha virt. eigenvalues --    3.85428   3.91098   3.92336   3.97690   4.00385
 Alpha virt. eigenvalues --    4.01999   4.03048   4.09360   4.15158   4.20216
 Alpha virt. eigenvalues --    4.30056   4.32728   4.34633   4.35112   4.36152
 Alpha virt. eigenvalues --    4.38935   4.40461   4.41007   4.41178   4.43753
 Alpha virt. eigenvalues --    4.49442   4.50059   4.50872   4.54016   4.54842
 Alpha virt. eigenvalues --    4.63274   4.66369   4.69929   4.92657   4.96571
 Alpha virt. eigenvalues --    5.18835   5.18876   5.19016   5.19040   5.28274
 Alpha virt. eigenvalues --    5.30787   5.57566   5.58224   5.58376   5.60415
 Alpha virt. eigenvalues --    5.65301   5.68313   6.22597   6.29171   6.30665
 Alpha virt. eigenvalues --    6.32577   6.34358   6.34551   6.35078   6.35697
 Alpha virt. eigenvalues --    6.36128   6.41940   6.44656   6.51455   6.56560
 Alpha virt. eigenvalues --    6.61539   6.63394   6.81594   6.82376   6.82694
 Alpha virt. eigenvalues --    6.84043   6.93230   7.12013   7.16833   7.17098
 Alpha virt. eigenvalues --    7.19711   7.82535   7.91311   7.93411  15.69630
 Alpha virt. eigenvalues --   22.41752  22.42032  22.42631  22.46558  22.59622
 Alpha virt. eigenvalues --   22.68706  22.74651  23.00646  38.39180  38.45348
 Alpha virt. eigenvalues --   38.56938  43.92455  43.94746  44.06233  49.75614
          Condensed to atoms (all electrons):
               1          2          3          4          5          6
     1  H    0.646292   0.008013   0.327003  -0.007037   0.000335   0.000486
     2  H    0.008013   0.639930   0.252646   0.092690  -0.029628  -0.035058
     3  Rh   0.327003   0.252646  16.042323   0.141905  -0.052249  -0.082190
     4  C   -0.007037   0.092690   0.141905   4.926580   0.513698   0.263530
     5  O    0.000335  -0.029628  -0.052249   0.513698   8.009263  -0.088134
     6  C    0.000486  -0.035058  -0.082190   0.263530  -0.088134   5.180784
     7  C    0.001035   0.002027   0.014351  -0.027811   0.014519   0.254571
     8  H   -0.003476   0.000249  -0.006624  -0.026154   0.002351   0.409770
     9  H   -0.004411   0.001071   0.003764  -0.033824  -0.000261   0.410501
    10  H   -0.000048  -0.000064  -0.000644   0.011052   0.000898  -0.051090
    11  H    0.000004  -0.000229   0.001432  -0.004019   0.000653  -0.034485
    12  H   -0.000036   0.000197   0.001201  -0.010996   0.002997  -0.025288
    13  C    0.001979  -0.015990   0.204343   0.034005  -0.006510  -0.007805
    14  O   -0.001899   0.000335  -0.012520  -0.002391   0.000207   0.000763
    15  P   -0.014538  -0.011795   0.229578  -0.027732   0.021837   0.001825
    16  C    0.000317   0.002493  -0.012738  -0.000506  -0.014544  -0.000232
    17  C    0.000347   0.000304  -0.008948  -0.002291  -0.010607  -0.000672
    18  C    0.000191  -0.000312  -0.023494   0.000787   0.001027   0.000147
    19  H   -0.000005   0.000011  -0.008538  -0.000003  -0.000010  -0.000002
    20  H   -0.000010  -0.000014   0.005164  -0.000056  -0.000006  -0.000001
    21  H   -0.000007  -0.000006   0.002127  -0.000011  -0.000005  -0.000003
    22  H   -0.000025  -0.000488  -0.000775  -0.000149   0.000334   0.000007
    23  H   -0.000025  -0.002730  -0.010694  -0.000925   0.012686   0.000797
    24  H   -0.000009   0.000030   0.005328  -0.000183   0.000234   0.000014
    25  H   -0.000000   0.000341  -0.003425  -0.002811   0.008900   0.000193
    26  H   -0.000010  -0.000015  -0.009112   0.000036   0.000320   0.000096
    27  H   -0.000008  -0.000002   0.005550   0.000057  -0.000040  -0.000006
    28  C    0.010582   0.016056   0.172517  -0.018423   0.000615   0.000274
    29  O   -0.001971  -0.000994  -0.014669   0.000441  -0.000003   0.000003
               7          8          9         10         11         12
     1  H    0.001035  -0.003476  -0.004411  -0.000048   0.000004  -0.000036
     2  H    0.002027   0.000249   0.001071  -0.000064  -0.000229   0.000197
     3  Rh   0.014351  -0.006624   0.003764  -0.000644   0.001432   0.001201
     4  C   -0.027811  -0.026154  -0.033824   0.011052  -0.004019  -0.010996
     5  O    0.014519   0.002351  -0.000261   0.000898   0.000653   0.002997
     6  C    0.254571   0.409770   0.410501  -0.051090  -0.034485  -0.025288
     7  C    4.900992  -0.024988  -0.032261   0.422561   0.414312   0.411687
     8  H   -0.024988   0.535223  -0.027950  -0.003470  -0.004911   0.005723
     9  H   -0.032261  -0.027950   0.535662  -0.003252   0.006187  -0.005813
    10  H    0.422561  -0.003470  -0.003252   0.546922  -0.024857  -0.024556
    11  H    0.414312  -0.004911   0.006187  -0.024857   0.548266  -0.024412
    12  H    0.411687   0.005723  -0.005813  -0.024556  -0.024412   0.545456
    13  C    0.000707  -0.000013  -0.001292   0.000007   0.000005   0.000002
    14  O   -0.000056   0.000003   0.000075   0.000000  -0.000000  -0.000009
    15  P   -0.000440   0.000203   0.000355   0.000005  -0.000030  -0.000003
    16  C    0.000022   0.000001  -0.000013   0.000000   0.000002   0.000006
    17  C    0.000037   0.000001   0.000003  -0.000000   0.000004  -0.000003
    18  C   -0.000003  -0.000004  -0.000005  -0.000000  -0.000000  -0.000000
    19  H   -0.000000   0.000000   0.000000   0.000000   0.000000   0.000000
    20  H   -0.000000   0.000000   0.000000   0.000000   0.000000   0.000000
    21  H   -0.000000   0.000000  -0.000000   0.000000   0.000000   0.000000
    22  H   -0.000000   0.000002  -0.000001  -0.000000  -0.000000  -0.000000
    23  H   -0.000063  -0.000028  -0.000008  -0.000000  -0.000017  -0.000011
    24  H   -0.000002   0.000000   0.000001   0.000000  -0.000000   0.000000
    25  H   -0.000006  -0.000006  -0.000026  -0.000000  -0.000008  -0.000016
    26  H   -0.000007  -0.000001   0.000002  -0.000000  -0.000000  -0.000000
    27  H   -0.000000   0.000000   0.000001   0.000000  -0.000000   0.000000
    28  C   -0.000086  -0.000400   0.000598  -0.000001   0.000007  -0.000004
    29  O    0.000000   0.000001  -0.000003  -0.000000  -0.000000   0.000000
              13         14         15         16         17         18
     1  H    0.001979  -0.001899  -0.014538   0.000317   0.000347   0.000191
     2  H   -0.015990   0.000335  -0.011795   0.002493   0.000304  -0.000312
     3  Rh   0.204343  -0.012520   0.229578  -0.012738  -0.008948  -0.023494
     4  C    0.034005  -0.002391  -0.027732  -0.000506  -0.002291   0.000787
     5  O   -0.006510   0.000207   0.021837  -0.014544  -0.010607   0.001027
     6  C   -0.007805   0.000763   0.001825  -0.000232  -0.000672   0.000147
     7  C    0.000707  -0.000056  -0.000440   0.000022   0.000037  -0.000003
     8  H   -0.000013   0.000003   0.000203   0.000001   0.000001  -0.000004
     9  H   -0.001292   0.000075   0.000355  -0.000013   0.000003  -0.000005
    10  H    0.000007   0.000000   0.000005   0.000000  -0.000000  -0.000000
    11  H    0.000005  -0.000000  -0.000030   0.000002   0.000004  -0.000000
    12  H    0.000002  -0.000009  -0.000003   0.000006  -0.000003  -0.000000
    13  C    5.251144   0.551939   0.001722  -0.000003  -0.003550  -0.001304
    14  O    0.551939   7.576492  -0.001974  -0.000001  -0.000276   0.000045
    15  P    0.001722  -0.001974  13.809017   0.320311   0.324644   0.326637
    16  C   -0.000003  -0.000001   0.320311   5.024821  -0.033935  -0.034389
    17  C   -0.003550  -0.000276   0.324644  -0.033935   5.016596  -0.035465
    18  C   -0.001304   0.000045   0.326637  -0.034389  -0.035465   5.023191
    19  H    0.000061   0.000001  -0.019689  -0.001921   0.004173   0.398645
    20  H    0.000103  -0.000010  -0.028849  -0.004610  -0.004508   0.398095
    21  H   -0.000817   0.000018  -0.021876   0.004141  -0.001919   0.398127
    22  H   -0.000056  -0.000000  -0.021010   0.393146   0.004173  -0.000490
    23  H    0.000209  -0.000003  -0.019303   0.397209  -0.000859   0.004444
    24  H   -0.000014  -0.000000  -0.029095   0.396239  -0.004924  -0.004808
    25  H   -0.001407   0.000061  -0.021673  -0.001425   0.401157   0.004116
    26  H    0.001065   0.000876  -0.021327   0.004425   0.395435  -0.000432
    27  H    0.000279  -0.000024  -0.027873  -0.004707   0.398305  -0.004989
    28  C    0.005562  -0.000244  -0.010904  -0.002417   0.001015  -0.001716
    29  O   -0.000684   0.000040  -0.001781   0.000103   0.000002   0.000087
              19         20         21         22         23         24
     1  H   -0.000005  -0.000010  -0.000007  -0.000025  -0.000025  -0.000009
     2  H    0.000011  -0.000014  -0.000006  -0.000488  -0.002730   0.000030
     3  Rh  -0.008538   0.005164   0.002127  -0.000775  -0.010694   0.005328
     4  C   -0.000003  -0.000056  -0.000011  -0.000149  -0.000925  -0.000183
     5  O   -0.000010  -0.000006  -0.000005   0.000334   0.012686   0.000234
     6  C   -0.000002  -0.000001  -0.000003   0.000007   0.000797   0.000014
     7  C   -0.000000  -0.000000  -0.000000  -0.000000  -0.000063  -0.000002
     8  H    0.000000   0.000000   0.000000   0.000002  -0.000028   0.000000
     9  H    0.000000   0.000000  -0.000000  -0.000001  -0.000008   0.000001
    10  H    0.000000   0.000000   0.000000  -0.000000  -0.000000   0.000000
    11  H    0.000000   0.000000   0.000000  -0.000000  -0.000017  -0.000000
    12  H    0.000000   0.000000   0.000000  -0.000000  -0.000011   0.000000
    13  C    0.000061   0.000103  -0.000817  -0.000056   0.000209  -0.000014
    14  O    0.000001  -0.000010   0.000018  -0.000000  -0.000003  -0.000000
    15  P   -0.019689  -0.028849  -0.021876  -0.021010  -0.019303  -0.029095
    16  C   -0.001921  -0.004610   0.004141   0.393146   0.397209   0.396239
    17  C    0.004173  -0.004508  -0.001919   0.004173  -0.000859  -0.004924
    18  C    0.398645   0.398095   0.398127  -0.000490   0.004444  -0.004808
    19  H    0.496722  -0.019934  -0.015053   0.001083  -0.000091  -0.000217
    20  H   -0.019934   0.515733  -0.019804  -0.000104  -0.000083   0.003658
    21  H   -0.015053  -0.019804   0.489664  -0.000162  -0.000078  -0.000088
    22  H    0.001083  -0.000104  -0.000162   0.499317  -0.012070  -0.020792
    23  H   -0.000091  -0.000083  -0.000078  -0.012070   0.471094  -0.018730
    24  H   -0.000217   0.003658  -0.000088  -0.020792  -0.018730   0.523327
    25  H   -0.000080  -0.000101  -0.000110  -0.000093   0.000767  -0.000055
    26  H   -0.000120  -0.000412   0.001220  -0.000094  -0.000080  -0.000097
    27  H   -0.000141   0.003703  -0.000071  -0.000062  -0.000182   0.003299
    28  C    0.001974   0.000340  -0.000899  -0.000523   0.000007   0.000141
    29  O    0.000679  -0.000027  -0.000132  -0.000042  -0.000000  -0.000007
              25         26         27         28         29
     1  H   -0.000000  -0.000010  -0.000008   0.010582  -0.001971
     2  H    0.000341  -0.000015  -0.000002   0.016056  -0.000994
     3  Rh  -0.003425  -0.009112   0.005550   0.172517  -0.014669
     4  C   -0.002811   0.000036   0.000057  -0.018423   0.000441
     5  O    0.008900   0.000320  -0.000040   0.000615  -0.000003
     6  C    0.000193   0.000096  -0.000006   0.000274   0.000003
     7  C   -0.000006  -0.000007  -0.000000  -0.000086   0.000000
     8  H   -0.000006  -0.000001   0.000000  -0.000400   0.000001
     9  H   -0.000026   0.000002   0.000001   0.000598  -0.000003
    10  H   -0.000000  -0.000000   0.000000  -0.000001  -0.000000
    11  H   -0.000008  -0.000000  -0.000000   0.000007  -0.000000
    12  H   -0.000016  -0.000000   0.000000  -0.000004   0.000000
    13  C   -0.001407   0.001065   0.000279   0.005562  -0.000684
    14  O    0.000061   0.000876  -0.000024  -0.000244   0.000040
    15  P   -0.021673  -0.021327  -0.027873  -0.010904  -0.001781
    16  C   -0.001425   0.004425  -0.004707  -0.002417   0.000103
    17  C    0.401157   0.395435   0.398305   0.001015   0.000002
    18  C    0.004116  -0.000432  -0.004989  -0.001716   0.000087
    19  H   -0.000080  -0.000120  -0.000141   0.001974   0.000679
    20  H   -0.000101  -0.000412   0.003703   0.000340  -0.000027
    21  H   -0.000110   0.001220  -0.000071  -0.000899  -0.000132
    22  H   -0.000093  -0.000094  -0.000062  -0.000523  -0.000042
    23  H    0.000767  -0.000080  -0.000182   0.000007  -0.000000
    24  H   -0.000055  -0.000097   0.003299   0.000141  -0.000007
    25  H    0.467109  -0.013194  -0.018435  -0.000028  -0.000001
    26  H   -0.013194   0.505093  -0.021706   0.000148  -0.000004
    27  H   -0.018435  -0.021706   0.518858  -0.000039  -0.000000
    28  C   -0.000028   0.000148  -0.000039   5.280181   0.556039
    29  O   -0.000001  -0.000004  -0.000000   0.556039   7.568637
 Mulliken charges:
               1
     1  H    0.036931
     2  H    0.080931
     3  Rh  -0.162611
     4  C    0.180540
     5  O   -0.388878
     6  C   -0.198796
     7  C   -0.351097
     8  H    0.144499
     9  H    0.150900
    10  H    0.126539
    11  H    0.122096
    12  H    0.123878
    13  C   -0.013688
    14  O   -0.111450
    15  P    0.243759
    16  C   -0.431796
    17  C   -0.438240
    18  C   -0.448131
    19  H    0.162453
    20  H    0.151733
    21  H    0.165744
    22  H    0.158874
    23  H    0.178768
    24  H    0.146749
    25  H    0.180258
    26  H    0.157897
    27  H    0.148230
    28  C   -0.010375
    29  O   -0.105716
 Sum of Mulliken charges =  -0.00000
 Mulliken charges with hydrogens summed into heavy atoms:
               1
     3  Rh  -0.125680
     4  C    0.261471
     5  O   -0.388878
     6  C    0.096602
     7  C    0.021416
    13  C   -0.013688
    14  O   -0.111450
    15  P    0.243759
    16  C    0.052596
    17  C    0.048144
    18  C    0.031800
    28  C   -0.010375
    29  O   -0.105716
 APT charges:
               1
     1  H   -0.152339
     2  H    0.012771
     3  Rh  -1.670995
     4  C    1.437674
     5  O   -1.013756
     6  C   -0.113067
     7  C    0.056325
     8  H   -0.008041
     9  H    0.001313
    10  H   -0.034278
    11  H   -0.012208
    12  H   -0.002814
    13  C    1.419258
    14  O   -0.922184
    15  P    1.260066
    16  C   -0.343971
    17  C   -0.331131
    18  C   -0.317659
    19  H    0.035866
    20  H   -0.005086
    21  H    0.035623
    22  H    0.035755
    23  H    0.068700
    24  H   -0.006668
    25  H    0.062457
    26  H    0.032350
    27  H   -0.002144
    28  C    1.428825
    29  O   -0.950644
 Sum of APT charges =   0.00000
 APT charges with hydrogens summed into heavy atoms:
               1
     3  Rh  -1.823334
     4  C    1.450445
     5  O   -1.013756
     6  C   -0.119795
     7  C    0.007025
    13  C    1.419258
    14  O   -0.922184
    15  P    1.260066
    16  C   -0.246183
    17  C   -0.238468
    18  C   -0.251256
    28  C    1.428825
    29  O   -0.950644
 Electronic spatial extent (au):  <R**2>=           3551.3591
 Charge=              0.0000 electrons
 Dipole moment (field-independent basis, Debye):
    X=             -2.6975    Y=              2.5858    Z=             -0.0020  Tot=              3.7367
 Quadrupole moment (field-independent basis, Debye-Ang):
   XX=            -95.2457   YY=           -106.4798   ZZ=           -104.3905
   XY=            -10.7142   XZ=             -1.9207   YZ=              0.2987
 Traceless Quadrupole moment (field-independent basis, Debye-Ang):
   XX=              6.7930   YY=             -4.4411   ZZ=             -2.3519
   XY=            -10.7142   XZ=             -1.9207   YZ=              0.2987
 Octapole moment (field-independent basis, Debye-Ang**2):
  XXX=             -8.9059  YYY=            -19.5084  ZZZ=            -14.3586  XYY=            -14.9625
  XXY=             -8.1714  XXZ=              2.7962  XZZ=             -3.2667  YZZ=             -0.0849
  YYZ=              5.7906  XYZ=              5.8807
 Hexadecapole moment (field-independent basis, Debye-Ang**3):
 XXXX=          -2451.2591 YYYY=          -1401.4887 ZZZZ=           -878.2429 XXXY=            -49.5557
 XXXZ=              1.4972 YYYX=            -42.5151 YYYZ=             -7.4652 ZZZX=              1.6962
 ZZZY=             18.9321 XXYY=           -664.7963 XXZZ=           -545.6318 YYZZ=           -383.9183
 XXYZ=             -7.4911 YYXZ=             -8.4026 ZZXY=              1.4091
 N-N= 1.111271626143D+03 E-N=-4.529310757397D+03  KE= 9.188018315741D+02
  Exact polarizability: 217.891   5.148 203.589   3.676   1.505 179.193
 Approx polarizability: 191.101  12.726 200.209   7.819   2.094 189.835
 No NMR shielding tensors so no spin-rotation constants.
 Leave Link  601 at Wed Oct  5 01:08:30 2022, MaxMem=  2952790016 cpu:              13.2 elap:               1.2
 (Enter /mnt/data/applications/G16/g16/l701.exe)
 ... and contract with generalized density number  0.
 Compute integral second derivatives.
 R6Disp: Adding Grimme-D2 dispersion energy 2nd derivatives to the Hessian.
   1 Symmetry operations used in ECPInt.
 ECPInt:  NShTT=   22578 NPrTT=   66767 LenC2=   20894 LenP2D=   46066.
 LDataN:  DoStor=T MaxTD1= 9 Len=  602
 D2PCM: PCM CHGder 2nd derivatives, FixD1E=F FixD2E=F DoIter=F DoCFld=F I1PDM=0
 GePol: Maximum number of non-zero 2nd derivatives   =     435
 Leave Link  701 at Wed Oct  5 01:09:42 2022, MaxMem=  2952790016 cpu:             863.6 elap:              72.2
 (Enter /mnt/data/applications/G16/g16/l702.exe)
 L702 exits ... SP integral derivatives will be done elsewhere.
 Leave Link  702 at Wed Oct  5 01:09:42 2022, MaxMem=  2952790016 cpu:               0.3 elap:               0.0
 (Enter /mnt/data/applications/G16/g16/l703.exe)
 Integral derivatives from FoFJK, PRISM(SPDF).
 Compute integral second derivatives, UseDBF=F ICtDFT=           0.
 Calling FoFJK, ICntrl=    100127 FMM=F ISym2X=0 I1Cent= 0 IOpClX= 0 NMat=1 NMatS=1 NMatT=0.
 FoFJK:  IHMeth= 1 ICntrl=  100127 DoSepK=T KAlg= 0 I1Cent=           0 FoldK=F
 IRaf=         1 NMat=       1 IRICut=       1 DoRegI=T DoRafI=F ISym2E= 0 IDoP0=0 IntGTp=1.
 FoFCou: FMM=F IPFlag=           0 FMFlag=      100000 FMFlg1=         800
         NFxFlg=           0 DoJE=F BraDBF=F KetDBF=F FulRan=T
         wScrn=  0.000000 ICntrl=    100527 IOpCl=  0 I1Cent=           0 NGrid=           0
         NMat0=    1 NMatS0=      1 NMatT0=    0 NMatD0=    1 NMtDS0=    0 NMtDT0=    0
 Symmetry not used in FoFCou.
 Defaulting to unpruned grid for atomic number  45.
 Defaulting to unpruned grid for atomic number  45.
 Defaulting to unpruned grid for atomic number  45.
 Defaulting to unpruned grid for atomic number  45.
 Defaulting to unpruned grid for atomic number  45.
 Defaulting to unpruned grid for atomic number  45.
 Defaulting to unpruned grid for atomic number  45.
 Defaulting to unpruned grid for atomic number  45.
 Defaulting to unpruned grid for atomic number  45.
 Defaulting to unpruned grid for atomic number  45.
 Defaulting to unpruned grid for atomic number  45.
 Defaulting to unpruned grid for atomic number  45.
 Leave Link  703 at Wed Oct  5 01:46:31 2022, MaxMem=  2952790016 cpu:           26437.9 elap:            2209.0
 (Enter /mnt/data/applications/G16/g16/l716.exe)
 Dipole        =-1.06128718D+00 1.01731750D+00-7.91685301D-04
 Polarizability= 2.17891412D+02 5.14840252D+00 2.03589499D+02
                 3.67628687D+00 1.50534131D+00 1.79193407D+02
 Full mass-weighted force constant matrix:
 Low frequencies --- -632.3155  -10.1718    0.0008    0.0011    0.0016   13.5403
 Low frequencies ---   15.7663   43.0218   49.8263
 ******    1 imaginary frequencies (negative Signs) ****** 
 Diagonal vibrational polarizability:
       57.9669589      34.3736068      54.9886709
 Harmonic frequencies (cm**-1), IR intensities (KM/Mole), Raman scattering
 activities (A**4/AMU), depolarization ratios for plane and unpolarized
 incident light, reduced masses (AMU), force constants (mDyne/A),
 and normal coordinates:
                      1                      2                      3
                      A                      A                      A
 Frequencies --   -632.3139                42.9111                49.6503
 Red. masses --      1.5565                 3.2021                 4.2379
 Frc consts  --      0.3667                 0.0035                 0.0062
 IR Inten    --    131.4668                 0.6757                 0.0415
  Atom  AN      X      Y      Z        X      Y      Z        X      Y      Z
     1   1    -0.08  -0.07   0.07    -0.01  -0.02  -0.03    -0.03  -0.00  -0.08
     2   1     0.70   0.47   0.47     0.01  -0.05  -0.03    -0.03   0.03  -0.02
     3  45    -0.02  -0.01   0.01     0.00  -0.01  -0.02    -0.02   0.00  -0.03
     4   6     0.05   0.02  -0.17    -0.01   0.00  -0.04    -0.01  -0.01  -0.00
     5   8     0.01   0.03   0.03    -0.03   0.01  -0.11     0.00  -0.01   0.06
     6   6     0.01  -0.00   0.01    -0.00   0.02   0.05    -0.02  -0.02  -0.06
     7   6     0.01  -0.00   0.01    -0.01   0.05   0.27    -0.01  -0.03   0.20
     8   1     0.05  -0.03   0.03     0.10   0.11  -0.03     0.03   0.15  -0.21
     9   1    -0.01   0.03   0.03    -0.09  -0.08  -0.02    -0.07  -0.22  -0.19
    10   1     0.01   0.00   0.01    -0.01   0.06   0.32    -0.02  -0.04   0.13
    11   1     0.00  -0.01   0.00     0.08   0.14   0.34     0.05   0.16   0.32
    12   1     0.00   0.01   0.00    -0.13  -0.03   0.34    -0.06  -0.20   0.34
    13   6     0.05   0.04  -0.01     0.02  -0.02  -0.03     0.13   0.03  -0.03
    14   8    -0.01  -0.01  -0.01     0.03  -0.02  -0.03     0.27   0.05  -0.04
    15  15    -0.00  -0.00   0.00     0.02  -0.00   0.00    -0.02   0.00  -0.02
    16   6     0.00  -0.00  -0.00    -0.10  -0.07  -0.05     0.08   0.08   0.03
    17   6    -0.00   0.00  -0.00     0.13   0.06  -0.08    -0.10  -0.06   0.05
    18   6    -0.00   0.00   0.00     0.03   0.00   0.18    -0.04   0.02  -0.16
    19   1     0.00  -0.00   0.00    -0.05  -0.04   0.23     0.01   0.07  -0.22
    20   1    -0.00   0.00   0.00     0.04   0.01   0.19    -0.03   0.02  -0.16
    21   1    -0.00   0.00  -0.00     0.12   0.04   0.22    -0.11  -0.02  -0.21
    22   1    -0.00   0.00  -0.00    -0.18  -0.11  -0.00     0.13   0.12  -0.01
    23   1     0.00   0.00  -0.00    -0.11  -0.08  -0.16     0.09   0.08   0.11
    24   1     0.00  -0.00   0.00    -0.09  -0.06  -0.04     0.07   0.07   0.04
    25   1    -0.00   0.00   0.00     0.13   0.06  -0.18    -0.09  -0.08   0.13
    26   1    -0.00   0.00  -0.00     0.22   0.09  -0.04    -0.17  -0.10   0.01
    27   1     0.00   0.00   0.00     0.13   0.05  -0.06    -0.08  -0.05   0.04
    28   6     0.03   0.02  -0.06    -0.03   0.01  -0.01    -0.05  -0.02   0.07
    29   8    -0.01  -0.01   0.02    -0.06   0.04   0.00    -0.08  -0.05   0.15
                      4                      5                      6
                      A                      A                      A
 Frequencies --     64.1264                67.4181                77.9264
 Red. masses --     10.0532                 5.3469                 2.3824
 Frc consts  --      0.0244                 0.0143                 0.0085
 IR Inten    --      0.0777                 0.0924                 3.0512
  Atom  AN      X      Y      Z        X      Y      Z        X      Y      Z
     1   1    -0.04  -0.03   0.05    -0.03  -0.00   0.03     0.00  -0.02  -0.02
     2   1    -0.07  -0.07  -0.01    -0.00  -0.01   0.06     0.07  -0.04  -0.02
     3  45    -0.02  -0.02   0.02    -0.02  -0.00   0.05     0.01  -0.01  -0.04
     4   6    -0.00  -0.07  -0.02    -0.02   0.00   0.08    -0.00  -0.00   0.02
     5   8     0.03  -0.07  -0.03    -0.03   0.01   0.06    -0.02   0.00  -0.06
     6   6    -0.03  -0.12  -0.06    -0.02   0.01   0.15     0.00   0.02   0.23
     7   6     0.00  -0.16   0.05    -0.03   0.00  -0.08    -0.00   0.01  -0.02
     8   1    -0.05  -0.03  -0.13    -0.06  -0.16   0.30     0.02  -0.23   0.44
     9   1    -0.07  -0.21  -0.12     0.02   0.20   0.28    -0.00   0.29   0.41
    10   1    -0.02  -0.20  -0.00    -0.02   0.01   0.00     0.00   0.03   0.19
    11   1     0.04  -0.07   0.11    -0.07  -0.19  -0.21     0.02  -0.27  -0.21
    12   1     0.02  -0.25   0.12     0.01   0.18  -0.23    -0.03   0.28  -0.23
    13   6     0.06   0.20   0.05     0.12  -0.08   0.03     0.01   0.04  -0.03
    14   8     0.17   0.47   0.10     0.32  -0.17  -0.01     0.03   0.10  -0.02
    15  15    -0.04  -0.04   0.05    -0.02   0.00  -0.03     0.01  -0.01  -0.00
    16   6    -0.09  -0.01   0.07     0.01  -0.11  -0.12    -0.01   0.06   0.06
    17   6    -0.03  -0.05   0.06    -0.04   0.11  -0.11     0.03  -0.09   0.05
    18   6    -0.03  -0.09   0.09    -0.03   0.05  -0.04     0.01  -0.02   0.00
    19   1    -0.04  -0.08   0.08    -0.03   0.00  -0.01    -0.00   0.04  -0.03
    20   1    -0.05  -0.11   0.13    -0.01   0.07  -0.11     0.01  -0.03   0.07
    21   1     0.01  -0.12   0.08    -0.06   0.11  -0.00     0.02  -0.08  -0.04
    22   1    -0.09  -0.00   0.06     0.01  -0.19  -0.08    -0.02   0.11   0.03
    23   1    -0.10   0.01   0.06     0.01  -0.13  -0.14    -0.01   0.07   0.06
    24   1    -0.10  -0.03   0.09     0.01  -0.10  -0.21    -0.01   0.05   0.11
    25   1    -0.04  -0.03   0.03    -0.04   0.10  -0.12     0.03  -0.09   0.06
    26   1    -0.00  -0.06   0.06    -0.05   0.17  -0.07     0.02  -0.13   0.03
    27   1    -0.05  -0.06   0.08    -0.04   0.11  -0.19     0.03  -0.08   0.10
    28   6     0.04   0.03  -0.16    -0.03   0.06  -0.04    -0.03  -0.00  -0.00
    29   8     0.14   0.10  -0.42    -0.03   0.14  -0.15    -0.08   0.02   0.05
                      7                      8                      9
                      A                      A                      A
 Frequencies --     84.9204                93.4241                98.1920
 Red. masses --      5.5801                 7.5910                 5.5840
 Frc consts  --      0.0237                 0.0390                 0.0317
 IR Inten    --      1.4338                 0.8364                 2.7168
  Atom  AN      X      Y      Z        X      Y      Z        X      Y      Z
     1   1     0.04  -0.07   0.05     0.03   0.01  -0.16     0.05   0.04   0.04
     2   1    -0.01  -0.09   0.01     0.08   0.19   0.05     0.03  -0.03  -0.02
     3  45     0.02  -0.08   0.03     0.03  -0.00  -0.07     0.06   0.04   0.02
     4   6    -0.03  -0.01  -0.03     0.05   0.01   0.17     0.08   0.00  -0.06
     5   8    -0.11  -0.01  -0.02     0.05  -0.01   0.47     0.12   0.01  -0.17
     6   6     0.04   0.11  -0.11     0.05  -0.01  -0.02     0.05  -0.06  -0.02
     7   6    -0.06   0.25  -0.03     0.05  -0.02  -0.07     0.11  -0.13   0.03
     8   1     0.10   0.20  -0.19    -0.03   0.04  -0.06     0.04  -0.05  -0.02
     9   1     0.11   0.00  -0.18     0.12  -0.07  -0.05    -0.01  -0.06  -0.03
    10   1     0.01   0.34  -0.12     0.05  -0.04  -0.24     0.07  -0.19   0.07
    11   1    -0.14   0.36   0.05    -0.04   0.06  -0.02     0.18  -0.13   0.03
    12   1    -0.12   0.15   0.05     0.16  -0.10  -0.01     0.12  -0.13   0.03
    13   6    -0.00  -0.00   0.05    -0.00   0.03  -0.07     0.01  -0.00   0.02
    14   8    -0.07   0.09   0.07    -0.05   0.17  -0.04    -0.06  -0.09   0.01
    15  15     0.06  -0.05  -0.01    -0.02  -0.04  -0.01    -0.07  -0.05  -0.01
    16   6     0.15  -0.05  -0.01    -0.10  -0.15  -0.09    -0.12  -0.03   0.00
    17   6     0.03  -0.08   0.02    -0.00   0.06  -0.09    -0.21  -0.02   0.00
    18   6     0.03   0.04  -0.11     0.01  -0.10   0.13    -0.04  -0.20  -0.05
    19   1     0.03   0.12  -0.16    -0.05  -0.12   0.16    -0.02  -0.10  -0.13
    20   1     0.09   0.07  -0.07    -0.01  -0.11   0.16    -0.11  -0.26   0.08
    21   1    -0.05  -0.01  -0.15     0.10  -0.09   0.15     0.00  -0.34  -0.14
    22   1     0.17  -0.05  -0.02    -0.10  -0.22  -0.04     0.00  -0.06  -0.02
    23   1     0.16  -0.06   0.03    -0.11  -0.13  -0.14    -0.15   0.09   0.07
    24   1     0.16  -0.04  -0.04    -0.12  -0.15  -0.14    -0.24  -0.11  -0.03
    25   1     0.06  -0.16   0.11    -0.02   0.11  -0.16    -0.23   0.08   0.03
    26   1    -0.09  -0.08   0.00     0.06   0.11  -0.05    -0.17  -0.04  -0.00
    27   1     0.10  -0.04  -0.02    -0.05   0.02  -0.12    -0.29  -0.08  -0.01
    28   6    -0.06   0.05   0.00    -0.04   0.05  -0.02    -0.02   0.12   0.05
    29   8    -0.21   0.24  -0.06    -0.16   0.08   0.12    -0.14   0.24   0.05
                     10                     11                     12
                      A                      A                      A
 Frequencies --    166.3597               174.7032               183.9557
 Red. masses --      2.6486                 3.1888                 1.1844
 Frc consts  --      0.0432                 0.0573                 0.0236
 IR Inten    --      3.1997                 2.7036                 0.2522
  Atom  AN      X      Y      Z        X      Y      Z        X      Y      Z
     1   1     0.09   0.08  -0.05    -0.03  -0.01  -0.17     0.00  -0.01   0.00
     2   1    -0.04   0.06  -0.01    -0.05   0.04  -0.05     0.02  -0.03  -0.00
     3  45     0.02   0.02  -0.01     0.00  -0.00  -0.03     0.01  -0.01  -0.00
     4   6     0.01   0.06  -0.00    -0.03   0.01  -0.04     0.02  -0.03  -0.00
     5   8     0.05   0.06  -0.03    -0.02   0.01  -0.06     0.01  -0.03  -0.00
     6   6    -0.01   0.02   0.01    -0.03   0.00   0.01     0.03  -0.01  -0.00
     7   6     0.04  -0.05   0.01    -0.03  -0.01   0.02     0.01   0.03  -0.00
     8   1    -0.04   0.01   0.01    -0.01  -0.03   0.04     0.05  -0.01  -0.00
     9   1    -0.04   0.02   0.01    -0.06   0.04   0.04     0.05  -0.00   0.00
    10   1    -0.00  -0.10   0.03    -0.03  -0.01   0.15     0.03   0.05  -0.00
    11   1     0.08  -0.07  -0.00     0.05  -0.10  -0.04    -0.01   0.03  -0.00
    12   1     0.07  -0.04  -0.00    -0.10   0.08  -0.05    -0.00   0.03  -0.00
    13   6     0.01   0.00  -0.01     0.02  -0.03  -0.05     0.00  -0.01   0.00
    14   8    -0.02   0.02  -0.01    -0.03   0.05  -0.03    -0.00   0.00   0.00
    15  15    -0.08  -0.07   0.03     0.04   0.01   0.13    -0.01   0.01   0.00
    16   6     0.05  -0.15  -0.02     0.17  -0.15   0.03    -0.02   0.04   0.02
    17   6     0.03  -0.12   0.04    -0.16   0.17   0.06    -0.05   0.03  -0.00
    18   6    -0.13   0.16   0.01     0.04  -0.03   0.03    -0.02   0.04  -0.01
    19   1    -0.17   0.05   0.10     0.13  -0.13   0.06     0.01  -0.16   0.09
    20   1     0.00   0.27  -0.19    -0.00  -0.04  -0.11    -0.02   0.07  -0.25
    21   1    -0.27   0.36   0.13    -0.00   0.05   0.08    -0.07   0.24   0.12
    22   1    -0.13  -0.15   0.04     0.34  -0.28   0.06    -0.30   0.15   0.06
    23   1     0.12  -0.39  -0.12     0.18  -0.12   0.13     0.03  -0.18  -0.15
    24   1     0.25   0.00  -0.04     0.12  -0.16  -0.19     0.20   0.18   0.17
    25   1     0.08  -0.31   0.10    -0.20   0.31   0.11    -0.16   0.37  -0.22
    26   1    -0.11  -0.11   0.03    -0.16   0.25   0.11     0.35  -0.08   0.01
    27   1     0.19  -0.01   0.03    -0.28   0.08  -0.09    -0.35  -0.18   0.19
    28   6     0.04  -0.00   0.00    -0.03   0.01  -0.02    -0.00  -0.00  -0.00
    29   8     0.01   0.02   0.02    -0.00  -0.03   0.00    -0.01   0.01  -0.00
                     13                     14                     15
                      A                      A                      A
 Frequencies --    200.1151               222.0164               226.2915
 Red. masses --      2.4668                 1.2725                 1.3389
 Frc consts  --      0.0582                 0.0370                 0.0404
 IR Inten    --      0.2850                 0.3944                 1.1682
  Atom  AN      X      Y      Z        X      Y      Z        X      Y      Z
     1   1     0.01  -0.02  -0.01     0.04   0.01  -0.01     0.03   0.00  -0.00
     2   1     0.06  -0.10  -0.02    -0.02   0.04   0.01    -0.04   0.03  -0.02
     3  45     0.02  -0.03  -0.01     0.01  -0.01   0.00     0.02  -0.01   0.00
     4   6     0.06  -0.09  -0.00    -0.02   0.05   0.00    -0.03   0.02  -0.03
     5   8     0.03  -0.09  -0.01    -0.02   0.05   0.00    -0.05   0.01   0.06
     6   6     0.11  -0.02   0.00    -0.04   0.02   0.00    -0.04   0.00  -0.08
     7   6     0.04   0.08  -0.00     0.00  -0.04  -0.00    -0.01  -0.04   0.02
     8   1     0.16  -0.03   0.01    -0.07   0.02   0.00    -0.04   0.04  -0.12
     9   1     0.15  -0.01   0.01    -0.06   0.02   0.00    -0.08  -0.05  -0.11
    10   1     0.09   0.15   0.03    -0.03  -0.10  -0.04    -0.04  -0.05   0.59
    11   1     0.00   0.06  -0.01     0.01  -0.02   0.02     0.34  -0.39  -0.20
    12   1    -0.03   0.10  -0.02     0.06  -0.07   0.02    -0.32   0.28  -0.24
    13   6     0.00  -0.01  -0.00     0.01  -0.01   0.00     0.02  -0.00   0.01
    14   8    -0.00   0.00  -0.00    -0.01   0.01   0.01    -0.01  -0.00   0.01
    15  15    -0.06   0.03   0.02    -0.02  -0.02  -0.00     0.01   0.01  -0.01
    16   6    -0.09   0.06   0.03     0.00   0.01   0.02    -0.03   0.03   0.00
    17   6    -0.09   0.09  -0.01     0.04  -0.00  -0.03     0.00   0.01  -0.01
    18   6    -0.09   0.14   0.04    -0.03   0.06  -0.01     0.00   0.02  -0.01
    19   1    -0.14   0.15   0.06    -0.04   0.04   0.00     0.01   0.01  -0.01
    20   1     0.00   0.20   0.01     0.02   0.09  -0.06     0.01   0.02  -0.03
    21   1    -0.14   0.19   0.06    -0.09   0.10   0.01    -0.01   0.03  -0.01
    22   1     0.14   0.02  -0.02     0.44  -0.08  -0.07    -0.10   0.05   0.01
    23   1    -0.14   0.28   0.17    -0.08   0.37   0.31    -0.04   0.01  -0.05
    24   1    -0.29  -0.08  -0.03    -0.33  -0.21  -0.14    -0.01   0.03   0.06
    25   1    -0.01  -0.14   0.18    -0.03   0.21  -0.25     0.01  -0.02   0.02
    26   1    -0.41   0.23   0.01     0.36  -0.07  -0.00    -0.05   0.03  -0.01
    27   1     0.11   0.23  -0.24    -0.15  -0.13   0.14     0.03   0.03  -0.04
    28   6     0.00  -0.02  -0.01     0.02  -0.02  -0.00     0.01  -0.01   0.02
    29   8     0.00  -0.02  -0.01    -0.01   0.01   0.00     0.00   0.02  -0.00
                     16                     17                     18
                      A                      A                      A
 Frequencies --    231.3522               245.3526               264.7787
 Red. masses --      2.2201                 1.1619                 2.6116
 Frc consts  --      0.0700                 0.0412                 0.1079
 IR Inten    --      1.4161                 0.3793                 0.6075
  Atom  AN      X      Y      Z        X      Y      Z        X      Y      Z
     1   1     0.06  -0.01  -0.01     0.02   0.01  -0.03     0.03   0.03  -0.00
     2   1     0.00   0.07   0.01    -0.01   0.01  -0.00    -0.07   0.00   0.01
     3  45     0.04  -0.04  -0.00     0.01  -0.01  -0.00    -0.02  -0.02   0.00
     4   6    -0.06   0.08   0.00     0.00   0.01   0.00     0.03   0.07   0.03
     5   8    -0.09   0.08  -0.01     0.00   0.01  -0.00     0.06   0.07  -0.02
     6   6    -0.10   0.03   0.04    -0.00   0.01   0.00     0.03   0.06  -0.02
     7   6    -0.01  -0.11  -0.00     0.01  -0.00   0.00     0.08   0.01  -0.00
     8   1    -0.16  -0.00   0.07    -0.00   0.00   0.00    -0.00   0.09  -0.05
     9   1    -0.15   0.06   0.06    -0.00   0.01   0.00     0.03   0.01  -0.05
    10   1    -0.08  -0.24  -0.34     0.00  -0.01  -0.01     0.04  -0.05   0.09
    11   1    -0.13   0.10   0.13     0.01   0.00   0.00     0.17  -0.06  -0.04
    12   1     0.27  -0.31   0.16     0.02  -0.01   0.00     0.06   0.06  -0.04
    13   6     0.03  -0.03  -0.00     0.01  -0.01  -0.00    -0.03  -0.02   0.02
    14   8    -0.02   0.01   0.01    -0.00   0.01   0.00     0.02   0.00   0.02
    15  15     0.03   0.02  -0.00    -0.02  -0.00   0.03    -0.06  -0.05  -0.03
    16   6    -0.06   0.07   0.02     0.01  -0.02   0.02     0.15   0.10   0.10
    17   6    -0.05   0.07  -0.01     0.01   0.05  -0.02     0.02   0.06  -0.14
    18   6     0.03   0.02  -0.01    -0.04   0.04  -0.02    -0.05  -0.09   0.08
    19   1     0.04  -0.04   0.02    -0.11   0.51  -0.28    -0.08  -0.20   0.16
    20   1     0.02   0.03  -0.09     0.04   0.03   0.47    -0.10  -0.12   0.05
    21   1     0.01   0.09   0.03    -0.05  -0.40  -0.34     0.08  -0.03   0.15
    22   1    -0.28   0.16   0.04    -0.13   0.02   0.04     0.17   0.32  -0.04
    23   1    -0.05  -0.03  -0.14     0.04  -0.15  -0.06     0.23  -0.05   0.29
    24   1     0.06   0.13   0.19     0.13   0.07   0.06     0.30   0.19   0.19
    25   1    -0.00  -0.07   0.17    -0.02   0.14  -0.14     0.06  -0.07  -0.20
    26   1    -0.31   0.17  -0.00     0.16   0.07   0.02    -0.04   0.25  -0.04
    27   1     0.07   0.15  -0.21    -0.07  -0.00   0.01     0.14   0.14  -0.30
    28   6     0.04  -0.04  -0.01     0.01  -0.01  -0.00    -0.00  -0.04  -0.01
    29   8    -0.02   0.02  -0.00     0.01  -0.01  -0.00    -0.03  -0.00  -0.01
                     19                     20                     21
                      A                      A                      A
 Frequencies --    269.3909               276.7531               333.5865
 Red. masses --      2.2851                 4.0241                 5.1749
 Frc consts  --      0.0977                 0.1816                 0.3393
 IR Inten    --      1.2719                 9.6181                12.2039
  Atom  AN      X      Y      Z        X      Y      Z        X      Y      Z
     1   1     0.02  -0.01   0.08    -0.06  -0.03  -0.05     0.05   0.03  -0.09
     2   1     0.03  -0.02  -0.00    -0.10  -0.06   0.02    -0.13   0.24   0.08
     3  45     0.01  -0.00   0.00    -0.06  -0.04   0.00    -0.01  -0.02   0.00
     4   6    -0.01   0.00  -0.01     0.08   0.12   0.06     0.03   0.10   0.07
     5   8    -0.03  -0.00   0.00     0.03   0.12  -0.03     0.38   0.12  -0.03
     6   6    -0.02  -0.00  -0.01     0.12   0.14  -0.03    -0.11  -0.07  -0.00
     7   6    -0.01  -0.02  -0.00     0.26  -0.02  -0.01    -0.24   0.07  -0.01
     8   1    -0.02   0.00  -0.01     0.04   0.20  -0.08    -0.16   0.01  -0.07
     9   1    -0.02  -0.00  -0.01     0.11   0.06  -0.09    -0.08  -0.13  -0.04
    10   1    -0.02  -0.03   0.00     0.15  -0.19   0.11    -0.13   0.25   0.07
    11   1     0.00  -0.01   0.00     0.45  -0.10  -0.05    -0.34   0.02  -0.04
    12   1    -0.00  -0.02   0.00     0.33   0.04  -0.05    -0.43   0.14  -0.06
    13   6    -0.00   0.03   0.01    -0.08  -0.07   0.03    -0.02  -0.12   0.02
    14   8     0.01  -0.02  -0.00     0.04   0.03   0.04     0.01   0.04   0.04
    15  15     0.01   0.02  -0.09     0.07   0.04   0.01     0.05  -0.02  -0.02
    16   6     0.09   0.03  -0.08    -0.09  -0.04  -0.06    -0.07   0.01  -0.01
    17   6    -0.15  -0.08   0.02    -0.04  -0.02   0.09    -0.06  -0.01  -0.00
    18   6     0.03   0.07   0.19     0.07   0.05  -0.03     0.05   0.05  -0.00
    19   1    -0.26   0.19   0.23     0.08   0.09  -0.06    -0.00   0.09  -0.00
    20   1     0.11   0.08   0.49     0.08   0.05  -0.00     0.12   0.08   0.03
    21   1     0.26  -0.04   0.16     0.03   0.01  -0.06     0.03   0.04  -0.01
    22   1     0.15   0.04  -0.11    -0.13  -0.16   0.03    -0.12   0.02   0.01
    23   1     0.12  -0.01   0.01    -0.14   0.05  -0.21    -0.10   0.09  -0.09
    24   1     0.11   0.05  -0.14    -0.17  -0.09  -0.09    -0.11  -0.03   0.09
    25   1    -0.20   0.10   0.16    -0.06   0.07   0.19    -0.07   0.06   0.10
    26   1    -0.15  -0.24  -0.07    -0.06  -0.13   0.02    -0.11  -0.02  -0.02
    27   1    -0.30  -0.18   0.10    -0.12  -0.07   0.14    -0.11  -0.04  -0.06
    28   6     0.02  -0.02   0.01    -0.06  -0.03  -0.03     0.03  -0.06  -0.05
    29   8     0.01   0.00  -0.00    -0.04  -0.06  -0.02    -0.05  -0.01  -0.00
                     22                     23                     24
                      A                      A                      A
 Frequencies --    358.1369               365.1091               407.9162
 Red. masses --      3.9596                 6.4187                 9.2988
 Frc consts  --      0.2992                 0.5041                 0.9116
 IR Inten    --     15.8617                44.4610                 5.5547
  Atom  AN      X      Y      Z        X      Y      Z        X      Y      Z
     1   1     0.10   0.04   0.14    -0.21  -0.10  -0.58    -0.18  -0.11  -0.32
     2   1     0.03   0.03   0.04    -0.15   0.06  -0.05     0.02   0.05   0.16
     3  45     0.04  -0.03   0.02    -0.04  -0.06  -0.06    -0.01  -0.02   0.02
     4   6    -0.01   0.01   0.02     0.02   0.03  -0.03    -0.01  -0.04   0.11
     5   8     0.03   0.02  -0.02     0.07   0.03   0.02    -0.11  -0.03  -0.08
     6   6    -0.02  -0.01  -0.01    -0.00   0.02   0.03    -0.01  -0.02  -0.01
     7   6    -0.03  -0.00  -0.00     0.00   0.02   0.01    -0.02  -0.02  -0.01
     8   1    -0.04   0.03  -0.04     0.02  -0.05   0.08    -0.08   0.11  -0.12
     9   1    -0.01  -0.04  -0.03    -0.03   0.09   0.08     0.06  -0.17  -0.11
    10   1    -0.02   0.01   0.02     0.00   0.02  -0.04    -0.01  -0.00   0.03
    11   1    -0.02  -0.01  -0.01    -0.03   0.03   0.02    -0.01  -0.06  -0.04
    12   1    -0.05   0.01  -0.01     0.03   0.00   0.02    -0.05   0.02  -0.05
    13   6    -0.08  -0.05  -0.03     0.33  -0.04   0.10    -0.08  -0.42  -0.06
    14   8     0.03   0.03  -0.02    -0.12  -0.02   0.15     0.04   0.15   0.04
    15  15    -0.12   0.19   0.01    -0.06   0.09  -0.02    -0.01  -0.01  -0.03
    16   6     0.05   0.02  -0.13     0.02   0.03  -0.08     0.01   0.03  -0.01
    17   6     0.07   0.02   0.12     0.03  -0.00   0.04    -0.01  -0.04  -0.05
    18   6    -0.09  -0.10   0.00    -0.03  -0.05   0.01    -0.01  -0.00   0.01
    19   1     0.08  -0.22   0.01     0.02  -0.12   0.03    -0.08  -0.00   0.04
    20   1    -0.35  -0.26  -0.02    -0.16  -0.13   0.01     0.02   0.02   0.03
    21   1     0.09  -0.14   0.00     0.08  -0.06   0.02     0.02   0.02   0.03
    22   1     0.13  -0.14  -0.05     0.05  -0.03  -0.05    -0.00   0.10  -0.05
    23   1     0.10  -0.11  -0.07     0.04  -0.02  -0.05     0.01   0.03   0.02
    24   1     0.12   0.11  -0.41     0.04   0.07  -0.18     0.01   0.02   0.06
    25   1     0.11  -0.12   0.03     0.05  -0.07   0.02    -0.00  -0.06  -0.05
    26   1     0.14  -0.14   0.04     0.05  -0.10  -0.01    -0.01  -0.05  -0.06
    27   1     0.19   0.11   0.38     0.09   0.04   0.18     0.01  -0.02  -0.03
    28   6     0.04  -0.07  -0.11    -0.03   0.11   0.33     0.06   0.51  -0.25
    29   8    -0.08  -0.03   0.00     0.19   0.11  -0.02     0.22   0.04   0.24
                     25                     26                     27
                      A                      A                      A
 Frequencies --    419.6336               457.5652               500.4717
 Red. masses --      9.6435                13.7168                 9.4502
 Frc consts  --      1.0005                 1.6920                 1.3946
 IR Inten    --     27.5243                12.4449                55.9796
  Atom  AN      X      Y      Z        X      Y      Z        X      Y      Z
     1   1     0.02  -0.05   0.40     0.11   0.14  -0.17     0.20   0.31  -0.26
     2   1    -0.03  -0.20   0.01     0.14   0.09   0.10    -0.21   0.14  -0.03
     3  45    -0.07  -0.07  -0.04     0.01   0.06  -0.13    -0.07   0.06   0.04
     4   6     0.00   0.01   0.13    -0.00  -0.05  -0.10    -0.03  -0.08   0.04
     5   8     0.01   0.01  -0.04    -0.10  -0.06   0.02    -0.07  -0.10  -0.04
     6   6    -0.01  -0.01  -0.01     0.01  -0.04  -0.01     0.07  -0.03   0.02
     7   6    -0.02  -0.00  -0.01    -0.02  -0.02   0.00     0.07   0.02   0.00
     8   1    -0.11   0.14  -0.14     0.07  -0.13   0.07     0.09   0.00  -0.02
     9   1     0.06  -0.17  -0.12    -0.05   0.06   0.06     0.15  -0.07  -0.00
    10   1    -0.01   0.01   0.04     0.01   0.02  -0.02     0.08   0.03  -0.00
    11   1    -0.01  -0.05  -0.05    -0.05   0.02   0.02     0.06   0.00  -0.01
    12   1    -0.06   0.04  -0.05    -0.04  -0.04   0.02     0.07   0.02  -0.01
    13   6    -0.22   0.34  -0.00    -0.17  -0.07   0.56     0.36  -0.31  -0.15
    14   8     0.08  -0.09  -0.12     0.11  -0.10   0.56    -0.12   0.11  -0.03
    15  15     0.01   0.01   0.04     0.01  -0.01   0.01     0.02   0.00  -0.01
    16   6    -0.01  -0.03   0.03     0.01  -0.02   0.01     0.00   0.02  -0.02
    17   6     0.00   0.05   0.04     0.01   0.01   0.02    -0.00  -0.00  -0.01
    18   6     0.02  -0.00  -0.01     0.00  -0.00  -0.00     0.04   0.00  -0.00
    19   1     0.10  -0.01  -0.04     0.04  -0.01  -0.01     0.04  -0.01   0.00
    20   1    -0.00  -0.01  -0.06    -0.02  -0.02  -0.01    -0.00  -0.02   0.03
    21   1    -0.03  -0.00  -0.03    -0.01  -0.02  -0.01     0.09  -0.02  -0.01
    22   1    -0.01  -0.09   0.07     0.02  -0.05   0.02    -0.01   0.03  -0.02
    23   1    -0.01  -0.02  -0.01     0.02  -0.03   0.00    -0.01   0.05  -0.04
    24   1    -0.02  -0.03  -0.02     0.02  -0.00  -0.04    -0.02  -0.00   0.01
    25   1    -0.01   0.09   0.05     0.01   0.02   0.01    -0.00   0.00   0.03
    26   1    -0.01   0.09   0.07     0.01   0.03   0.03    -0.02  -0.03  -0.03
    27   1    -0.03   0.02  -0.02     0.00   0.01   0.01    -0.01  -0.01   0.01
    28   6     0.50  -0.00   0.04     0.19  -0.12  -0.23     0.41  -0.36  -0.10
    29   8     0.15   0.29   0.19    -0.11  -0.00   0.06    -0.12   0.12   0.04
                     28                     29                     30
                      A                      A                      A
 Frequencies --    514.6362               580.4799               697.5629
 Red. masses --      6.1197                 1.9233                 3.8030
 Frc consts  --      0.9550                 0.3818                 1.0903
 IR Inten    --     24.5799                 9.6730                18.8118
  Atom  AN      X      Y      Z        X      Y      Z        X      Y      Z
     1   1    -0.14  -0.11   0.01    -0.05  -0.02  -0.10    -0.00   0.00  -0.00
     2   1    -0.05  -0.17  -0.04     0.47   0.21   0.34     0.06   0.08   0.06
     3  45    -0.00  -0.01   0.00     0.01   0.01  -0.02     0.01  -0.00  -0.00
     4   6     0.01   0.02   0.25     0.03   0.00   0.15    -0.05  -0.04   0.01
     5   8    -0.01   0.02  -0.08    -0.08   0.03  -0.07     0.03  -0.03  -0.01
     6   6     0.00  -0.01   0.04     0.04  -0.07   0.06    -0.03   0.05   0.01
     7   6    -0.01  -0.01  -0.02    -0.02  -0.02  -0.02     0.01   0.02   0.00
     8   1    -0.19   0.34  -0.26    -0.10   0.30  -0.26     0.00   0.10  -0.03
     9   1     0.17  -0.40  -0.22     0.19  -0.46  -0.21     0.02  -0.02  -0.04
    10   1    -0.00   0.01   0.01     0.05   0.08  -0.03    -0.07  -0.10  -0.01
    11   1    -0.05  -0.11  -0.09    -0.16  -0.12  -0.08     0.07  -0.02  -0.02
    12   1     0.01   0.09  -0.10    -0.03   0.08  -0.10     0.12   0.03  -0.01
    13   6     0.35   0.29   0.07    -0.05  -0.04  -0.00     0.00  -0.00   0.00
    14   8    -0.11  -0.10   0.04     0.01   0.01   0.00     0.00  -0.00   0.01
    15  15    -0.00   0.00   0.00     0.00  -0.00   0.00    -0.09   0.12   0.01
    16   6     0.00   0.00   0.00     0.00  -0.00   0.00    -0.03  -0.12   0.20
    17   6     0.00   0.00   0.00     0.00   0.00   0.00    -0.07  -0.13  -0.19
    18   6    -0.00  -0.00   0.00    -0.00  -0.00   0.00     0.24   0.08  -0.03
    19   1     0.00  -0.00  -0.00    -0.00   0.00  -0.00     0.34   0.03  -0.03
    20   1    -0.01  -0.00   0.00     0.00   0.00  -0.00     0.12  -0.00  -0.01
    21   1    -0.00  -0.01  -0.00    -0.01   0.00   0.00     0.35   0.03  -0.05
    22   1     0.01  -0.01   0.00     0.01  -0.00   0.00     0.02  -0.22   0.24
    23   1     0.00  -0.01  -0.00     0.00  -0.01   0.01     0.01  -0.24   0.25
    24   1     0.00   0.00  -0.01     0.01   0.00  -0.00     0.02  -0.07   0.06
    25   1     0.00   0.01   0.01     0.00   0.00   0.00    -0.05  -0.24  -0.25
    26   1    -0.00   0.01   0.01     0.00   0.00   0.00    -0.03  -0.21  -0.24
    27   1     0.01   0.00   0.00     0.00   0.00   0.00     0.00  -0.07  -0.06
    28   6    -0.04   0.11  -0.32    -0.04  -0.06   0.13    -0.00  -0.00   0.01
    29   8    -0.08  -0.12   0.05     0.00   0.01  -0.05    -0.00  -0.00  -0.00
                     31                     32                     33
                      A                      A                      A
 Frequencies --    709.8872               736.6802               761.0963
 Red. masses --      2.7458                 1.2389                 3.5632
 Frc consts  --      0.8153                 0.3961                 1.2161
 IR Inten    --     47.6440                36.2541                12.3994
  Atom  AN      X      Y      Z        X      Y      Z        X      Y      Z
     1   1    -0.06  -0.07   0.17     0.11  -0.02   0.93     0.17   0.13   0.02
     2   1     0.23   0.14   0.15     0.11  -0.24  -0.08    -0.01   0.04   0.01
     3  45     0.01   0.01  -0.01    -0.01   0.00  -0.02    -0.00  -0.00  -0.00
     4   6    -0.15  -0.14   0.02     0.02   0.02  -0.01    -0.01  -0.00  -0.00
     5   8     0.12  -0.12  -0.02    -0.00   0.02   0.01    -0.00  -0.00  -0.00
     6   6    -0.14   0.20   0.04     0.01  -0.01   0.00     0.00  -0.00   0.00
     7   6     0.01   0.05   0.00    -0.01  -0.01   0.00     0.00   0.00   0.00
     8   1    -0.01   0.38  -0.12    -0.01   0.02  -0.02     0.01   0.01  -0.01
     9   1     0.02  -0.07  -0.14    -0.01  -0.04  -0.02     0.01  -0.01  -0.00
    10   1    -0.28  -0.39  -0.03     0.02   0.03  -0.01     0.00  -0.00  -0.00
    11   1     0.24  -0.09  -0.09    -0.05  -0.02  -0.01    -0.00  -0.01  -0.00
    12   1     0.44   0.11  -0.06    -0.02   0.01  -0.01     0.01   0.01  -0.00
    13   6     0.00  -0.02   0.01     0.06  -0.07  -0.00    -0.00   0.00   0.00
    14   8     0.00   0.00   0.01    -0.01   0.02   0.02     0.00  -0.00   0.00
    15  15     0.02  -0.02  -0.00    -0.00   0.00  -0.02    -0.14  -0.11  -0.01
    16   6     0.00   0.02  -0.04    -0.01  -0.03   0.04    -0.03   0.06  -0.12
    17   6     0.01   0.02   0.04     0.01   0.02   0.03     0.00   0.10   0.17
    18   6    -0.05  -0.02   0.01    -0.00   0.00  -0.00     0.29   0.04  -0.04
    19   1    -0.08   0.00   0.00    -0.00  -0.01   0.00     0.21   0.08  -0.03
    20   1    -0.00   0.01  -0.00    -0.01  -0.01  -0.00     0.46   0.13  -0.03
    21   1    -0.09   0.00   0.01     0.01   0.00  -0.00     0.27   0.09  -0.01
    22   1    -0.01   0.04  -0.05     0.02  -0.06   0.06     0.07   0.22  -0.26
    23   1    -0.00   0.04  -0.03     0.01  -0.07   0.06     0.03  -0.04   0.10
    24   1    -0.00   0.01  -0.01     0.01  -0.01  -0.01     0.08   0.14  -0.12
    25   1     0.01   0.05   0.05     0.00   0.05   0.04     0.03  -0.00  -0.05
    26   1     0.00   0.05   0.05    -0.00   0.04   0.03     0.14   0.25   0.28
    27   1    -0.01   0.01   0.00    -0.01   0.01  -0.00     0.12   0.19   0.17
    28   6    -0.00  -0.00   0.02    -0.02   0.02   0.02    -0.02   0.02   0.00
    29   8     0.01   0.01  -0.00     0.01   0.00  -0.00     0.00  -0.00   0.00
                     34                     35                     36
                      A                      A                      A
 Frequencies --    766.9569               802.7027               805.1952
 Red. masses --      3.1314                 1.3004                 1.1652
 Frc consts  --      1.0853                 0.4937                 0.4451
 IR Inten    --     24.3458                29.5478                 0.0165
  Atom  AN      X      Y      Z        X      Y      Z        X      Y      Z
     1   1     0.09   0.03   0.34    -0.39  -0.32   0.09    -0.00  -0.01   0.01
     2   1     0.02  -0.06  -0.04     0.21   0.02   0.15     0.01   0.00   0.01
     3  45    -0.00  -0.00  -0.01     0.00   0.01  -0.01     0.00   0.00  -0.00
     4   6     0.00   0.01  -0.01    -0.01  -0.02   0.11    -0.00  -0.00   0.00
     5   8    -0.00   0.01   0.00     0.00   0.00  -0.03     0.00  -0.00  -0.00
     6   6     0.00  -0.01   0.01    -0.01   0.02  -0.09    -0.00   0.00  -0.00
     7   6     0.00  -0.00   0.00    -0.01  -0.00  -0.03    -0.00   0.00  -0.00
     8   1     0.01   0.03  -0.02    -0.17  -0.28   0.18    -0.01  -0.01   0.01
     9   1    -0.01  -0.04  -0.02     0.17   0.33   0.13     0.01   0.01   0.00
    10   1     0.01   0.01  -0.02    -0.04  -0.03   0.17    -0.00  -0.00   0.01
    11   1    -0.04  -0.02  -0.01     0.29   0.23   0.13     0.01   0.01   0.00
    12   1     0.01   0.02  -0.02    -0.24  -0.22   0.15    -0.01  -0.01   0.00
    13   6     0.01  -0.01   0.00     0.01  -0.01  -0.00     0.00  -0.00   0.00
    14   8    -0.00   0.00   0.01    -0.00   0.00   0.00    -0.00  -0.00   0.00
    15  15     0.00  -0.01   0.17    -0.00  -0.00   0.00     0.00  -0.00   0.00
    16   6     0.01   0.17  -0.18    -0.01   0.01  -0.00     0.05   0.03   0.03
    17   6    -0.05  -0.16  -0.15    -0.01  -0.00   0.00    -0.05  -0.03   0.04
    18   6     0.04   0.00   0.05     0.01  -0.01   0.00    -0.01   0.00  -0.07
    19   1     0.28   0.06  -0.09    -0.02   0.03  -0.01    -0.35  -0.10   0.14
    20   1     0.01   0.01  -0.10     0.09   0.04  -0.02     0.03  -0.00   0.17
    21   1    -0.22  -0.05  -0.04    -0.08   0.02   0.01     0.37   0.09   0.07
    22   1     0.02   0.03  -0.10     0.03  -0.01  -0.01    -0.12  -0.25   0.25
    23   1     0.02   0.14  -0.28     0.02  -0.05   0.05    -0.05   0.16  -0.36
    24   1     0.02   0.21  -0.38     0.03   0.05  -0.07    -0.13  -0.09  -0.06
    25   1    -0.06  -0.13  -0.27    -0.00  -0.02  -0.04    -0.02  -0.16  -0.35
    26   1    -0.02   0.02  -0.04     0.01   0.02   0.02     0.17   0.26   0.23
    27   1    -0.07  -0.18  -0.35     0.02   0.01   0.00     0.12   0.08  -0.10
    28   6    -0.01   0.01   0.01     0.01  -0.02   0.01    -0.00  -0.00   0.00
    29   8     0.01   0.00  -0.00    -0.01   0.00  -0.01     0.00  -0.00  -0.00
                     37                     38                     39
                      A                      A                      A
 Frequencies --    814.8372               872.3819               875.9714
 Red. masses --      1.1810                 1.5534                 1.2785
 Frc consts  --      0.4620                 0.6965                 0.5780
 IR Inten    --     23.9734                64.2598                15.5041
  Atom  AN      X      Y      Z        X      Y      Z        X      Y      Z
     1   1     0.62   0.48   0.05     0.02   0.05  -0.21    -0.08  -0.08   0.11
     2   1     0.03   0.30   0.14     0.28  -0.46  -0.01     0.07  -0.12  -0.02
     3  45    -0.00  -0.01  -0.00    -0.00   0.00   0.00     0.00   0.00  -0.00
     4   6    -0.05  -0.02   0.07     0.14   0.00   0.01     0.02   0.00   0.01
     5   8     0.00  -0.01  -0.02    -0.01  -0.02   0.01    -0.00  -0.00   0.00
     6   6     0.01  -0.02  -0.04    -0.02   0.08  -0.01    -0.00   0.01  -0.00
     7   6     0.01   0.01  -0.02    -0.08  -0.03  -0.00    -0.01  -0.00  -0.00
     8   1    -0.05  -0.14   0.08    -0.06   0.06   0.01    -0.02   0.01   0.00
     9   1     0.16   0.13   0.07    -0.04   0.09  -0.01    -0.00   0.02  -0.00
    10   1     0.00  -0.01   0.09    -0.18  -0.16   0.02    -0.03  -0.02   0.01
    11   1     0.16   0.12   0.06     0.02  -0.03   0.00     0.01   0.00   0.00
    12   1    -0.10  -0.11   0.08    -0.02  -0.06   0.02    -0.01  -0.02   0.01
    13   6     0.01   0.02   0.01     0.00  -0.01  -0.01     0.00  -0.00   0.00
    14   8    -0.00  -0.01   0.00    -0.00   0.00  -0.00    -0.00   0.00   0.00
    15  15     0.00   0.00  -0.00    -0.03  -0.02  -0.01    -0.01  -0.01   0.04
    16   6     0.02  -0.01  -0.00     0.01   0.01   0.01     0.06  -0.05  -0.06
    17   6     0.02  -0.00  -0.00     0.05  -0.02   0.02    -0.04   0.04  -0.04
    18   6    -0.01   0.02   0.00     0.00   0.08   0.01     0.00   0.03  -0.02
    19   1     0.07  -0.04   0.00     0.28  -0.09  -0.01     0.02  -0.06   0.04
    20   1    -0.15  -0.07   0.01    -0.37  -0.16   0.01    -0.14  -0.07   0.07
    21   1     0.08  -0.04  -0.02     0.22  -0.09  -0.07     0.20  -0.01  -0.01
    22   1    -0.04   0.02   0.00    -0.03  -0.07   0.07    -0.12   0.30  -0.21
    23   1    -0.02   0.08  -0.06    -0.01   0.04  -0.10    -0.06   0.30  -0.11
    24   1    -0.04  -0.06   0.09    -0.04  -0.03  -0.03    -0.09  -0.23   0.48
    25   1    -0.00   0.07   0.08    -0.01   0.22   0.16     0.03  -0.19  -0.03
    26   1    -0.04  -0.01  -0.02    -0.08   0.12   0.08     0.03  -0.26  -0.20
    27   1    -0.05  -0.05  -0.05    -0.14  -0.16  -0.24     0.10   0.15   0.35
    28   6    -0.03   0.03   0.01     0.00  -0.01   0.00     0.00  -0.01   0.00
    29   8     0.01  -0.01  -0.00    -0.00  -0.00  -0.00    -0.00   0.00  -0.00
                     40                     41                     42
                      A                      A                      A
 Frequencies --    881.4018               973.0968               974.4752
 Red. masses --      1.4350                 1.4191                 1.4171
 Frc consts  --      0.6568                 0.7917                 0.7929
 IR Inten    --    162.9030                34.9923                44.6077
  Atom  AN      X      Y      Z        X      Y      Z        X      Y      Z
     1   1     0.35   0.31  -0.13    -0.02  -0.02   0.04     0.02   0.02   0.00
     2   1     0.22  -0.30   0.02    -0.04   0.04   0.00     0.01  -0.01  -0.00
     3  45    -0.01  -0.00   0.00     0.00   0.00  -0.00    -0.00  -0.00  -0.00
     4   6     0.12   0.00   0.01     0.01   0.00   0.00     0.00  -0.00   0.00
     5   8    -0.01  -0.02   0.00    -0.00  -0.00  -0.00    -0.00   0.00  -0.00
     6   6    -0.01   0.06  -0.01     0.00   0.00   0.00     0.00   0.00  -0.00
     7   6    -0.07  -0.02  -0.00    -0.01  -0.00  -0.00    -0.00  -0.00  -0.00
     8   1    -0.04   0.05   0.01    -0.00   0.01   0.00     0.00   0.00   0.00
     9   1    -0.01   0.08  -0.00     0.01   0.00   0.00     0.01   0.00  -0.00
    10   1    -0.15  -0.14   0.02    -0.02  -0.02   0.00    -0.01  -0.00   0.00
    11   1     0.02  -0.02   0.00     0.00  -0.00  -0.00    -0.00  -0.00   0.00
    12   1    -0.03  -0.06   0.02     0.00  -0.00   0.00    -0.00  -0.00   0.00
    13   6     0.01  -0.00  -0.00    -0.00   0.00  -0.00     0.00   0.00   0.00
    14   8    -0.00   0.00  -0.00     0.00  -0.00   0.00    -0.00  -0.00  -0.00
    15  15     0.03   0.02   0.01    -0.03  -0.02   0.05     0.04   0.02   0.03
    16   6    -0.03   0.01   0.01    -0.00   0.04   0.01    -0.10  -0.05  -0.05
    17   6    -0.05   0.02  -0.02     0.09   0.04  -0.07    -0.01  -0.05   0.02
    18   6    -0.00  -0.07  -0.00     0.01  -0.03  -0.10    -0.03   0.04  -0.08
    19   1    -0.25   0.09   0.00    -0.42  -0.08   0.12    -0.23  -0.13   0.12
    20   1     0.36   0.15  -0.02     0.21   0.06   0.16    -0.18  -0.08   0.17
    21   1    -0.24   0.08   0.06     0.30   0.14   0.08     0.39   0.06   0.02
    22   1     0.06  -0.02  -0.01     0.01  -0.10   0.09     0.17   0.29  -0.35
    23   1     0.03  -0.11   0.10     0.01  -0.02  -0.07     0.04  -0.23   0.47
    24   1     0.06   0.08  -0.10     0.00   0.08  -0.19     0.19   0.16   0.03
    25   1     0.01  -0.21  -0.15     0.05   0.22   0.44    -0.02  -0.02  -0.14
    26   1     0.09  -0.12  -0.08    -0.22  -0.28  -0.30     0.05   0.14   0.13
    27   1     0.14   0.16   0.23    -0.18  -0.15   0.05    -0.00  -0.05  -0.19
    28   6    -0.00   0.00   0.00    -0.00  -0.00   0.00     0.00  -0.00   0.00
    29   8     0.00  -0.00  -0.00    -0.00  -0.00  -0.00     0.00   0.00   0.00
                     43                     44                     45
                      A                      A                      A
 Frequencies --    979.7507               984.1272              1035.2700
 Red. masses --      1.4219                 1.5439                 1.6722
 Frc consts  --      0.8042                 0.8810                 1.0560
 IR Inten    --    160.6716               124.6488                77.1886
  Atom  AN      X      Y      Z        X      Y      Z        X      Y      Z
     1   1    -0.06  -0.06   0.15    -0.06  -0.09   0.18    -0.04  -0.02  -0.06
     2   1    -0.35   0.47   0.02    -0.39   0.48   0.01     0.09  -0.19  -0.07
     3  45     0.00  -0.00  -0.00     0.00  -0.00  -0.00    -0.00  -0.00   0.00
     4   6     0.09  -0.00   0.01     0.12  -0.00   0.01    -0.13   0.02  -0.02
     5   8    -0.02  -0.02  -0.01    -0.03  -0.02  -0.01     0.01   0.07   0.01
     6   6     0.02   0.03   0.00     0.05   0.05  -0.00     0.14  -0.05  -0.00
     7   6    -0.05  -0.00   0.01    -0.09  -0.02   0.01    -0.12  -0.00   0.00
     8   1     0.03   0.03   0.00     0.10   0.05   0.00     0.57  -0.04  -0.02
     9   1     0.02   0.03   0.00     0.05   0.06   0.00     0.50  -0.01   0.03
    10   1    -0.13  -0.13  -0.00    -0.21  -0.20  -0.01    -0.34  -0.35   0.01
    11   1     0.01  -0.05  -0.02     0.00  -0.08  -0.03     0.14  -0.10  -0.05
    12   1     0.05  -0.01   0.01     0.06  -0.03   0.01     0.17  -0.07   0.05
    13   6    -0.00   0.01   0.00    -0.00   0.00  -0.00    -0.00   0.00   0.00
    14   8     0.00  -0.00  -0.00     0.00  -0.00   0.00    -0.00  -0.00   0.00
    15  15     0.03  -0.05  -0.01    -0.02   0.04  -0.00     0.00  -0.01  -0.00
    16   6    -0.04   0.05   0.03     0.03  -0.05  -0.03    -0.00   0.01   0.00
    17   6    -0.05   0.05  -0.02     0.03  -0.05   0.02    -0.00   0.01  -0.00
    18   6    -0.02   0.07   0.01     0.01  -0.05   0.00    -0.00   0.01   0.00
    19   1     0.18  -0.07   0.01    -0.10   0.07  -0.02     0.01  -0.01   0.00
    20   1    -0.30  -0.12   0.02     0.23   0.09  -0.03    -0.02  -0.01   0.00
    21   1     0.14  -0.08  -0.06    -0.15   0.05   0.04     0.01  -0.01  -0.00
    22   1     0.08  -0.16   0.11    -0.07   0.15  -0.11     0.00  -0.02   0.02
    23   1     0.03  -0.16   0.02    -0.03   0.14  -0.01     0.00  -0.01  -0.00
    24   1     0.05   0.16  -0.30    -0.04  -0.14   0.28    -0.00   0.01  -0.03
    25   1     0.02  -0.17  -0.05    -0.02   0.13   0.00     0.00  -0.01   0.00
    26   1     0.07  -0.14  -0.10    -0.04   0.16   0.12     0.00  -0.02  -0.01
    27   1     0.12   0.17   0.29    -0.08  -0.13  -0.26     0.01   0.01   0.03
    28   6    -0.01   0.00   0.01    -0.00  -0.00   0.01     0.00   0.00  -0.01
    29   8     0.00   0.00  -0.00    -0.00  -0.00  -0.00     0.00   0.00   0.00
                     46                     47                     48
                      A                      A                      A
 Frequencies --   1084.5812              1109.8450              1285.2588
 Red. masses --      1.5118                 2.3052                 1.1671
 Frc consts  --      1.0478                 1.6729                 1.1359
 IR Inten    --      5.4393                48.9031                 1.1245
  Atom  AN      X      Y      Z        X      Y      Z        X      Y      Z
     1   1    -0.01  -0.01  -0.01    -0.02  -0.01  -0.00    -0.00   0.00  -0.01
     2   1    -0.14  -0.02  -0.16    -0.03   0.06  -0.01    -0.02  -0.01  -0.06
     3  45     0.00  -0.00   0.00    -0.00  -0.00   0.00     0.00  -0.00   0.00
     4   6     0.02   0.02  -0.11    -0.10  -0.02  -0.02     0.00   0.00  -0.04
     5   8    -0.00  -0.01   0.02     0.03  -0.02   0.00     0.00  -0.00   0.00
     6   6    -0.01  -0.02   0.15     0.13   0.21   0.03    -0.01  -0.00  -0.05
     7   6    -0.00   0.02  -0.10    -0.03  -0.21  -0.01     0.00   0.00   0.10
     8   1    -0.39   0.24  -0.08     0.05   0.26  -0.01    -0.57  -0.10   0.04
     9   1     0.41  -0.29  -0.04     0.19   0.13  -0.03     0.66   0.12   0.03
    10   1    -0.06  -0.05   0.23     0.29   0.30   0.03     0.01   0.00  -0.17
    11   1     0.37   0.30   0.10    -0.45  -0.02   0.10    -0.19  -0.22  -0.05
    12   1    -0.22  -0.27   0.15    -0.58  -0.16  -0.04     0.16   0.21  -0.08
    13   6    -0.01  -0.00  -0.00    -0.00   0.00   0.00    -0.00  -0.00  -0.00
    14   8     0.00   0.00   0.00    -0.00  -0.00  -0.00     0.00   0.00   0.00
    15  15    -0.00   0.00  -0.00     0.00  -0.00  -0.00    -0.00   0.00  -0.00
    16   6     0.00  -0.00   0.00    -0.00   0.00   0.00    -0.00  -0.00   0.00
    17   6     0.00  -0.00   0.00    -0.00   0.00   0.00    -0.00  -0.00  -0.00
    18   6     0.00  -0.00   0.00    -0.00   0.00   0.00    -0.00  -0.00   0.00
    19   1    -0.00   0.00  -0.00     0.01  -0.00   0.00     0.00   0.00  -0.00
    20   1     0.00   0.00  -0.00    -0.01  -0.00   0.00     0.00   0.00  -0.00
    21   1    -0.00   0.00   0.00     0.00  -0.00  -0.00    -0.00   0.00   0.00
    22   1    -0.00   0.00  -0.00    -0.00  -0.01   0.01    -0.00   0.00  -0.00
    23   1    -0.00   0.00   0.00     0.00  -0.00  -0.00    -0.00   0.00  -0.00
    24   1    -0.00  -0.00   0.00    -0.00   0.00  -0.01     0.00   0.00  -0.00
    25   1    -0.00   0.00  -0.00     0.00  -0.00   0.00    -0.00   0.00   0.00
    26   1     0.00   0.01   0.01    -0.00  -0.01  -0.00     0.00   0.00   0.00
    27   1     0.00  -0.00  -0.01     0.00   0.00   0.01     0.00   0.00   0.00
    28   6     0.00   0.00  -0.00    -0.00   0.00  -0.00     0.00   0.00  -0.00
    29   8     0.00   0.00   0.00     0.00   0.00   0.00     0.00   0.00   0.00
                     49                     50                     51
                      A                      A                      A
 Frequencies --   1331.7738              1333.9364              1351.5978
 Red. masses --      1.2349                 1.2325                 1.2178
 Frc consts  --      1.2905                 1.2922                 1.3107
 IR Inten    --     27.8597                30.0471                 6.3016
  Atom  AN      X      Y      Z        X      Y      Z        X      Y      Z
     1   1     0.00  -0.00   0.00     0.00   0.00   0.00     0.01  -0.01  -0.00
     2   1     0.00   0.00  -0.00     0.00  -0.00   0.00     0.00  -0.00  -0.00
     3  45    -0.00   0.00  -0.00     0.00  -0.00  -0.00    -0.00   0.00   0.00
     4   6     0.00  -0.00   0.00    -0.00   0.00   0.00    -0.00  -0.00  -0.00
     5   8    -0.00   0.00   0.00     0.00  -0.00  -0.00     0.00   0.00   0.00
     6   6     0.00  -0.00  -0.00    -0.00   0.00  -0.00     0.01  -0.00   0.00
     7   6    -0.00   0.00  -0.00     0.00  -0.00  -0.00    -0.00   0.00   0.00
     8   1    -0.00  -0.00   0.00     0.02   0.00  -0.00    -0.04  -0.00   0.00
     9   1    -0.00   0.00  -0.00     0.01   0.00   0.00    -0.03  -0.00  -0.00
    10   1    -0.00  -0.00   0.00     0.01   0.01   0.00    -0.01  -0.01  -0.00
    11   1     0.00  -0.00  -0.00     0.00   0.00   0.00     0.00  -0.01  -0.01
    12   1    -0.00  -0.00   0.00    -0.00   0.00  -0.00     0.00  -0.01   0.01
    13   6     0.00  -0.00   0.00    -0.00  -0.00  -0.00     0.00   0.00  -0.00
    14   8     0.00  -0.00  -0.00     0.00  -0.00  -0.00     0.00  -0.00   0.00
    15  15    -0.00  -0.00   0.01     0.00   0.00   0.00     0.00  -0.00  -0.00
    16   6     0.00   0.07  -0.09    -0.01  -0.03   0.04     0.00   0.04  -0.05
    17   6    -0.02  -0.05  -0.07    -0.02  -0.05  -0.06     0.01   0.04   0.05
    18   6     0.02   0.00  -0.01    -0.10  -0.02   0.01    -0.09  -0.02   0.01
    19   1    -0.06  -0.01   0.03     0.36   0.02  -0.19     0.36   0.01  -0.18
    20   1    -0.05  -0.04   0.03     0.32   0.23  -0.04     0.31   0.23  -0.04
    21   1    -0.06   0.01  -0.01     0.40  -0.01   0.10     0.40  -0.02   0.09
    22   1    -0.09  -0.38   0.23     0.05   0.17  -0.11    -0.05  -0.24   0.15
    23   1     0.16  -0.23   0.37    -0.08   0.11  -0.16     0.10  -0.15   0.23
    24   1    -0.14  -0.13   0.40     0.08   0.07  -0.16    -0.09  -0.08   0.24
    25   1    -0.06   0.18   0.31    -0.07   0.19   0.30     0.06  -0.16  -0.26
    26   1     0.11   0.28   0.15     0.13   0.28   0.16    -0.10  -0.24  -0.14
    27   1     0.16   0.09   0.27     0.18   0.11   0.26    -0.15  -0.08  -0.23
    28   6     0.00  -0.00  -0.00     0.00   0.00   0.00     0.00   0.00  -0.00
    29   8    -0.00  -0.00  -0.00    -0.00   0.00  -0.00    -0.00  -0.00  -0.00
                     52                     53                     54
                      A                      A                      A
 Frequencies --   1364.3788              1418.3441              1446.8919
 Red. masses --      1.5862                 1.2451                 1.0957
 Frc consts  --      1.7397                 1.4758                 1.3516
 IR Inten    --     19.7578                10.2916                17.7606
  Atom  AN      X      Y      Z        X      Y      Z        X      Y      Z
     1   1     0.00  -0.00  -0.01    -0.00  -0.00   0.00    -0.01   0.00  -0.00
     2   1     0.05  -0.01   0.02     0.00   0.01   0.01     0.01  -0.00   0.00
     3  45     0.00   0.00  -0.00    -0.00   0.00  -0.00     0.00  -0.00  -0.00
     4   6    -0.08  -0.00  -0.01    -0.01   0.01   0.00     0.00   0.01   0.00
     5   8     0.01  -0.01   0.00     0.00  -0.01  -0.00     0.00  -0.02  -0.00
     6   6     0.20  -0.01  -0.00     0.03  -0.00  -0.00    -0.03  -0.08   0.00
     7   6    -0.04   0.05   0.00    -0.12  -0.07   0.00     0.03   0.01  -0.00
     8   1    -0.69   0.03  -0.04    -0.07   0.10  -0.09     0.06   0.51  -0.48
     9   1    -0.57   0.05   0.04    -0.05   0.12   0.07     0.03   0.56   0.41
    10   1    -0.18  -0.16  -0.01     0.28   0.51  -0.01    -0.01  -0.04   0.01
    11   1     0.03  -0.15  -0.12     0.49   0.15   0.15    -0.08  -0.06  -0.05
    12   1     0.05  -0.11   0.13     0.51   0.13  -0.16    -0.08  -0.06   0.06
    13   6     0.00   0.00   0.00     0.00   0.00   0.00    -0.00   0.00  -0.00
    14   8    -0.00   0.00  -0.00    -0.00   0.00  -0.00     0.00  -0.00   0.00
    15  15     0.00  -0.00  -0.00     0.00  -0.00  -0.00    -0.00  -0.00   0.00
    16   6    -0.00  -0.00   0.01    -0.00   0.00  -0.00    -0.00  -0.00  -0.00
    17   6    -0.00  -0.00  -0.01    -0.00   0.00   0.00     0.00  -0.00   0.00
    18   6     0.00   0.00  -0.00    -0.00   0.00   0.00    -0.00   0.00   0.00
    19   1    -0.01  -0.00   0.01     0.00  -0.00   0.00    -0.00  -0.00   0.00
    20   1    -0.01  -0.01   0.00    -0.00   0.00  -0.00     0.00   0.00  -0.01
    21   1    -0.02   0.00  -0.00     0.00  -0.00  -0.00     0.00  -0.01  -0.00
    22   1     0.00   0.02  -0.01     0.00  -0.00   0.00     0.01  -0.02   0.01
    23   1    -0.01   0.01  -0.02    -0.00   0.00   0.00    -0.01   0.01   0.00
    24   1     0.01   0.01  -0.03     0.00   0.00   0.00     0.02   0.01   0.02
    25   1    -0.01   0.02   0.02     0.00  -0.00  -0.00    -0.00   0.01  -0.01
    26   1     0.01   0.02   0.01     0.00  -0.00  -0.00    -0.01  -0.01  -0.01
    27   1     0.01   0.01   0.03     0.00   0.00  -0.00     0.01   0.01  -0.01
    28   6    -0.00   0.00  -0.00    -0.00  -0.00   0.00    -0.00   0.00   0.00
    29   8     0.00   0.00   0.00     0.00   0.00  -0.00     0.00   0.00  -0.00
                     55                     56                     57
                      A                      A                      A
 Frequencies --   1451.9544              1461.2403              1464.0990
 Red. masses --      1.0501                 1.0477                 1.0495
 Frc consts  --      1.3043                 1.3181                 1.3255
 IR Inten    --      0.2338                 3.1537                 0.8209
  Atom  AN      X      Y      Z        X      Y      Z        X      Y      Z
     1   1    -0.00  -0.00   0.00    -0.00  -0.00  -0.00    -0.00  -0.00  -0.00
     2   1     0.00  -0.00   0.00     0.00   0.00   0.00     0.00  -0.00   0.00
     3  45     0.00   0.00   0.00     0.00   0.00   0.00     0.00   0.00  -0.00
     4   6    -0.00   0.00  -0.00    -0.00   0.00  -0.00    -0.00   0.00   0.00
     5   8     0.00  -0.00  -0.00     0.00  -0.00  -0.00    -0.00  -0.00  -0.00
     6   6     0.00   0.00   0.00     0.00  -0.00   0.00     0.00  -0.00  -0.00
     7   6    -0.00  -0.00   0.00     0.00   0.00   0.00     0.00   0.00  -0.00
     8   1    -0.00  -0.01   0.01    -0.00   0.00  -0.00     0.00   0.00  -0.00
     9   1     0.00  -0.01  -0.01    -0.00   0.00   0.00    -0.00   0.01   0.00
    10   1    -0.00   0.00  -0.00    -0.00  -0.00  -0.00    -0.00  -0.00   0.00
    11   1     0.00   0.00   0.00     0.00  -0.00  -0.00    -0.00   0.00   0.00
    12   1     0.00   0.00  -0.00    -0.00   0.00   0.00    -0.00   0.00  -0.00
    13   6    -0.00  -0.00   0.00    -0.00   0.00   0.00     0.00   0.00  -0.00
    14   8    -0.00  -0.00  -0.00     0.00  -0.00   0.00     0.00  -0.00   0.00
    15  15    -0.00  -0.00   0.00    -0.00  -0.00  -0.00    -0.00  -0.00  -0.00
    16   6    -0.04  -0.01  -0.01    -0.03   0.02   0.01     0.00  -0.01  -0.01
    17   6     0.03   0.00  -0.02     0.00   0.00   0.00    -0.03   0.04  -0.02
    18   6     0.00   0.00   0.03     0.01  -0.03  -0.03     0.01  -0.03   0.02
    19   1    -0.14   0.08   0.03     0.20   0.17  -0.23    -0.12   0.37  -0.17
    20   1    -0.01   0.03  -0.28    -0.14  -0.16   0.38    -0.17  -0.10  -0.23
    21   1     0.11  -0.17  -0.08    -0.11   0.47   0.31     0.16   0.13   0.15
    22   1     0.34  -0.27   0.03     0.40  -0.07  -0.09    -0.08  -0.05   0.05
    23   1    -0.12   0.21  -0.14     0.00  -0.19  -0.31    -0.03   0.14   0.09
    24   1     0.34   0.23   0.29    -0.00  -0.01   0.24     0.10   0.07  -0.01
    25   1     0.05  -0.12  -0.15     0.00  -0.00  -0.03     0.11  -0.38   0.37
    26   1    -0.29   0.22   0.06    -0.04   0.01  -0.00     0.47  -0.01   0.06
    27   1    -0.20  -0.15   0.29    -0.01  -0.01   0.02    -0.20  -0.11  -0.20
    28   6     0.00  -0.00  -0.00    -0.00  -0.00  -0.00    -0.00  -0.00  -0.00
    29   8     0.00  -0.00  -0.00     0.00   0.00   0.00     0.00   0.00   0.00
                     58                     59                     60
                      A                      A                      A
 Frequencies --   1466.6418              1472.9892              1483.1685
 Red. masses --      1.0454                 1.0477                 1.0433
 Frc consts  --      1.3249                 1.3393                 1.3522
 IR Inten    --     18.3320                14.4693                 7.8172
  Atom  AN      X      Y      Z        X      Y      Z        X      Y      Z
     1   1     0.00   0.01  -0.00    -0.00   0.00  -0.00    -0.00   0.00   0.00
     2   1     0.00   0.00  -0.01    -0.00  -0.00   0.00    -0.00  -0.00  -0.00
     3  45    -0.00  -0.00   0.00     0.00  -0.00   0.00     0.00  -0.00  -0.00
     4   6     0.00  -0.01  -0.00     0.00  -0.00   0.00     0.00  -0.00   0.00
     5   8    -0.00   0.00   0.00    -0.00   0.00  -0.00     0.00  -0.00  -0.00
     6   6    -0.00  -0.00   0.00    -0.00  -0.00   0.00    -0.00   0.00  -0.00
     7   6     0.00  -0.00  -0.00     0.00  -0.00  -0.00    -0.00   0.00  -0.00
     8   1     0.00   0.02  -0.02     0.00   0.00  -0.00     0.00  -0.01   0.01
     9   1     0.00   0.02   0.02     0.00   0.00   0.00     0.00  -0.01  -0.00
    10   1     0.00   0.00   0.00     0.00   0.00   0.00     0.00   0.00  -0.00
    11   1    -0.00   0.00   0.00    -0.00   0.00   0.00     0.00  -0.01  -0.00
    12   1     0.00   0.00  -0.00     0.00  -0.00   0.00     0.00  -0.00   0.00
    13   6     0.00  -0.00   0.00     0.00  -0.00   0.00    -0.00  -0.00   0.00
    14   8    -0.00  -0.00  -0.00    -0.00   0.00  -0.00    -0.00   0.00  -0.00
    15  15     0.01   0.00  -0.00     0.00   0.00  -0.01     0.00  -0.01   0.00
    16   6     0.03   0.01   0.02     0.01  -0.03  -0.02     0.01  -0.02  -0.02
    17   6     0.03   0.01  -0.03     0.01   0.02  -0.01     0.01  -0.02   0.01
    18   6    -0.00  -0.01   0.00    -0.01   0.01  -0.04     0.01  -0.03   0.00
    19   1    -0.01   0.13  -0.08     0.26  -0.31   0.06    -0.03   0.34  -0.21
    20   1    -0.06  -0.04  -0.04     0.11   0.02   0.48    -0.18  -0.13  -0.06
    21   1     0.05   0.08   0.07    -0.25   0.13   0.01     0.10   0.25   0.22
    22   1    -0.21   0.24  -0.06    -0.21  -0.11   0.12    -0.31  -0.05   0.12
    23   1     0.11  -0.24   0.06    -0.09   0.36   0.23    -0.05   0.30   0.28
    24   1    -0.31  -0.20  -0.22     0.24   0.16  -0.07     0.15   0.11  -0.15
    25   1     0.10  -0.27  -0.12     0.08  -0.24   0.06    -0.09   0.31  -0.25
    26   1    -0.28   0.33   0.11     0.03   0.13   0.06    -0.29  -0.06  -0.07
    27   1    -0.33  -0.23   0.37    -0.20  -0.13   0.08     0.19   0.12   0.09
    28   6    -0.00  -0.00  -0.00     0.00   0.00   0.00    -0.00  -0.00  -0.00
    29   8     0.00   0.00   0.00    -0.00  -0.00  -0.00     0.00   0.00   0.00
                     61                     62                     63
                      A                      A                      A
 Frequencies --   1493.5078              1499.3676              1737.7832
 Red. masses --      1.0375                 1.0508                 7.8384
 Frc consts  --      1.3634                 1.3919                13.9466
 IR Inten    --     10.8889                12.1652               524.4223
  Atom  AN      X      Y      Z        X      Y      Z        X      Y      Z
     1   1    -0.00  -0.00   0.00     0.00  -0.00  -0.00    -0.01  -0.05   0.01
     2   1     0.00  -0.00  -0.00     0.00  -0.00  -0.00    -0.07  -0.15   0.54
     3  45     0.00   0.00   0.00    -0.00  -0.00   0.00     0.01   0.00  -0.00
     4   6    -0.00   0.00  -0.00    -0.01  -0.00  -0.00    -0.09   0.60   0.03
     5   8    -0.00   0.00   0.00    -0.00   0.00   0.00     0.02  -0.42  -0.03
     6   6     0.00  -0.00  -0.02     0.03  -0.02   0.00     0.02  -0.02  -0.00
     7   6     0.00  -0.00  -0.05     0.02  -0.04   0.00     0.00   0.00   0.00
     8   1    -0.04  -0.03   0.00    -0.08   0.03  -0.04     0.16  -0.14   0.10
     9   1     0.04   0.02  -0.00    -0.07   0.04   0.04     0.12  -0.13  -0.08
    10   1    -0.01   0.02   0.71    -0.19  -0.32  -0.01    -0.06  -0.08   0.00
    11   1    -0.49   0.14   0.05    -0.08   0.52   0.36    -0.04   0.03   0.00
    12   1     0.47  -0.10   0.04    -0.10   0.50  -0.42    -0.04   0.03  -0.01
    13   6    -0.00  -0.00  -0.00     0.00   0.00   0.00    -0.01   0.00  -0.01
    14   8     0.00   0.00  -0.00    -0.00   0.00  -0.00     0.00  -0.00   0.00
    15  15    -0.00   0.00   0.00     0.00  -0.00  -0.00     0.00   0.00   0.00
    16   6    -0.00   0.00   0.00    -0.00  -0.00  -0.00     0.00   0.00  -0.00
    17   6     0.00  -0.00   0.00     0.00  -0.00   0.00     0.00   0.00   0.00
    18   6     0.00  -0.00   0.00     0.00  -0.00   0.00     0.00  -0.00  -0.00
    19   1    -0.00   0.00  -0.00    -0.00   0.00  -0.00    -0.01   0.00   0.00
    20   1    -0.00  -0.00  -0.00    -0.00  -0.00  -0.00    -0.00  -0.00  -0.00
    21   1     0.00  -0.00   0.00     0.00   0.00   0.00    -0.01   0.00   0.00
    22   1     0.00   0.00  -0.00    -0.00  -0.00   0.00    -0.03   0.02   0.00
    23   1     0.00  -0.00  -0.00    -0.00   0.00   0.00     0.02  -0.04   0.04
    24   1    -0.00  -0.00   0.00     0.00   0.00  -0.00    -0.03  -0.03   0.00
    25   1    -0.00   0.00  -0.00    -0.00   0.01  -0.00     0.01  -0.04  -0.05
    26   1    -0.00  -0.00  -0.00    -0.00  -0.00  -0.00    -0.03   0.01   0.00
    27   1     0.00   0.00   0.00     0.00   0.00   0.00    -0.03  -0.02   0.00
    28   6     0.00   0.00   0.00    -0.00  -0.00  -0.00     0.01   0.01   0.01
    29   8     0.00   0.00  -0.00     0.00   0.00   0.00    -0.01  -0.01  -0.01
                     64                     65                     66
                      A                      A                      A
 Frequencies --   1838.6764              2021.7941              2110.4449
 Red. masses --      1.0869                 1.0166                10.5279
 Frc consts  --      2.1649                 2.4484                27.6275
 IR Inten    --     89.5672               545.2052              1335.4453
  Atom  AN      X      Y      Z        X      Y      Z        X      Y      Z
     1   1     0.04  -0.03   0.02    -0.62   0.78   0.10     0.02  -0.03  -0.01
     2   1    -0.42  -0.32   0.84    -0.02  -0.01   0.04     0.19   0.14  -0.41
     3  45     0.00   0.00  -0.01     0.01  -0.01  -0.00    -0.00  -0.00   0.00
     4   6    -0.00  -0.04  -0.03    -0.00   0.00  -0.00    -0.00   0.01   0.00
     5   8    -0.00   0.03   0.01     0.00   0.00   0.00    -0.00  -0.01  -0.00
     6   6    -0.00  -0.00   0.01     0.00   0.00   0.00    -0.00  -0.00  -0.00
     7   6     0.00  -0.00   0.00    -0.00   0.00   0.00    -0.00   0.00  -0.00
     8   1    -0.02   0.02  -0.01    -0.00  -0.00  -0.00     0.00  -0.00  -0.00
     9   1     0.03   0.00   0.01    -0.00  -0.01  -0.00    -0.01   0.00   0.01
    10   1     0.00   0.00  -0.00    -0.00  -0.00   0.00    -0.00  -0.00   0.00
    11   1     0.00  -0.00   0.00     0.00   0.00   0.00     0.00   0.00  -0.00
    12   1     0.00  -0.00   0.00     0.00   0.00  -0.00    -0.00  -0.00   0.00
    13   6     0.01  -0.00   0.02    -0.00   0.00   0.00     0.04  -0.10   0.52
    14   8    -0.01   0.00  -0.03     0.00   0.00  -0.00    -0.03   0.07  -0.37
    15  15     0.00   0.00   0.00     0.00  -0.00  -0.00    -0.00   0.00  -0.00
    16   6     0.00  -0.00  -0.00     0.00  -0.00  -0.00    -0.00   0.00   0.00
    17   6    -0.00   0.00  -0.00     0.00  -0.00   0.00    -0.00  -0.00   0.00
    18   6    -0.00   0.00  -0.00     0.00  -0.00  -0.00     0.00  -0.00   0.00
    19   1    -0.00   0.00  -0.00     0.00  -0.00  -0.00    -0.01   0.01  -0.00
    20   1    -0.00  -0.00   0.00     0.01   0.00  -0.00    -0.00  -0.00  -0.00
    21   1     0.00   0.00   0.00     0.00  -0.00   0.00     0.00   0.00   0.00
    22   1     0.00   0.00  -0.00     0.00  -0.00  -0.00     0.00   0.00  -0.00
    23   1     0.00  -0.00   0.00     0.00  -0.00  -0.00    -0.00  -0.00  -0.00
    24   1    -0.00  -0.00   0.00    -0.00  -0.00   0.01     0.00   0.00  -0.00
    25   1    -0.00   0.00   0.00     0.00   0.00   0.00     0.00  -0.00   0.00
    26   1     0.00  -0.00  -0.00     0.00  -0.00   0.00     0.01  -0.01  -0.00
    27   1     0.00   0.00   0.00    -0.00  -0.00  -0.01    -0.00  -0.00  -0.01
    28   6     0.01   0.01   0.01     0.00   0.00   0.00     0.32   0.30   0.19
    29   8    -0.01  -0.01  -0.01    -0.00  -0.00  -0.00    -0.23  -0.22  -0.14
                     67                     68                     69
                      A                      A                      A
 Frequencies --   2150.9081              3056.0585              3058.6625
 Red. masses --     13.0988                 1.0341                 1.0344
 Frc consts  --     35.7047                 5.6904                 5.7017
 IR Inten    --    696.3838                 8.9604                18.9415
  Atom  AN      X      Y      Z        X      Y      Z        X      Y      Z
     1   1    -0.04   0.06   0.00     0.00  -0.00  -0.00     0.00  -0.00  -0.00
     2   1     0.08   0.06  -0.05    -0.00   0.00   0.00    -0.00  -0.00   0.00
     3  45    -0.00  -0.00  -0.00    -0.00   0.00   0.00    -0.00  -0.00   0.00
     4   6     0.01   0.03  -0.00    -0.00   0.00   0.00    -0.00   0.00   0.00
     5   8    -0.00  -0.02  -0.00     0.00  -0.00  -0.00    -0.00  -0.00   0.00
     6   6    -0.00  -0.00  -0.00     0.00   0.00  -0.00    -0.00   0.00  -0.00
     7   6    -0.00   0.00  -0.00     0.00   0.00  -0.00     0.00   0.00  -0.00
     8   1     0.00  -0.00   0.00     0.00  -0.00  -0.00     0.00  -0.00  -0.00
     9   1     0.00  -0.00  -0.00    -0.00  -0.00   0.00     0.00  -0.00   0.01
    10   1    -0.00  -0.01   0.00    -0.00   0.00  -0.00    -0.02   0.01  -0.00
    11   1    -0.00  -0.00  -0.00     0.00  -0.00   0.00    -0.00  -0.01   0.02
    12   1    -0.00  -0.00   0.00     0.00  -0.00  -0.00     0.00  -0.01  -0.01
    13   6     0.06  -0.09   0.53    -0.00   0.00  -0.00    -0.00   0.00  -0.00
    14   8    -0.04   0.07  -0.37     0.00  -0.00   0.00     0.00   0.00   0.00
    15  15    -0.00   0.01   0.00    -0.00  -0.00   0.00     0.00   0.00   0.00
    16   6     0.00  -0.00  -0.00    -0.00  -0.00   0.00     0.01  -0.02   0.02
    17   6     0.00  -0.00   0.00    -0.00  -0.00  -0.00     0.00  -0.03  -0.03
    18   6     0.00  -0.00  -0.00     0.05   0.00  -0.01    -0.00   0.00   0.00
    19   1     0.00  -0.01   0.00    -0.16  -0.26  -0.43     0.00   0.01   0.01
    20   1     0.02   0.01   0.00    -0.33   0.56   0.07     0.01  -0.01  -0.00
    21   1    -0.00  -0.00  -0.00    -0.07  -0.32   0.44     0.00   0.01  -0.01
    22   1    -0.00   0.00  -0.00    -0.00  -0.00  -0.00    -0.09  -0.16  -0.25
    23   1    -0.00   0.01  -0.00     0.01   0.00  -0.00     0.25   0.08  -0.03
    24   1    -0.00  -0.01   0.02    -0.01   0.01   0.00    -0.23   0.31   0.05
    25   1     0.00   0.00   0.01     0.01   0.00   0.00     0.39   0.10  -0.02
    26   1     0.01  -0.01   0.00    -0.00  -0.00   0.00    -0.07  -0.23   0.39
    27   1    -0.01  -0.01  -0.02    -0.01   0.01   0.00    -0.32   0.45  -0.02
    28   6    -0.39  -0.37  -0.26     0.00   0.00   0.00     0.00   0.00   0.00
    29   8     0.28   0.27   0.18    -0.00   0.00  -0.00    -0.00  -0.00  -0.00
                     70                     71                     72
                      A                      A                      A
 Frequencies --   3059.0010              3060.9962              3068.1529
 Red. masses --      1.0345                 1.0361                 1.0634
 Frc consts  --      5.7035                 5.7199                 5.8981
 IR Inten    --      6.8245                40.8246                 9.5522
  Atom  AN      X      Y      Z        X      Y      Z        X      Y      Z
     1   1     0.00  -0.00  -0.00    -0.00   0.00   0.00     0.00  -0.00  -0.00
     2   1    -0.00  -0.00   0.00    -0.00  -0.00   0.00     0.00   0.00  -0.00
     3  45    -0.00  -0.00   0.00    -0.00  -0.00  -0.00     0.00   0.00   0.00
     4   6     0.00   0.00   0.00     0.00  -0.00  -0.00     0.00   0.00  -0.00
     5   8    -0.00   0.00  -0.00     0.00   0.00   0.00    -0.00  -0.00  -0.00
     6   6    -0.00   0.00   0.00     0.00  -0.01   0.00     0.00   0.07  -0.02
     7   6     0.00   0.00  -0.00    -0.04  -0.02   0.00    -0.00  -0.01   0.00
     8   1     0.00  -0.00  -0.00    -0.00   0.05   0.06    -0.00  -0.34  -0.43
     9   1    -0.00   0.00  -0.00    -0.00   0.05  -0.07    -0.01  -0.44   0.69
    10   1    -0.00   0.00  -0.00     0.51  -0.35   0.02     0.00   0.00   0.00
    11   1    -0.00  -0.00   0.00     0.00   0.31  -0.48     0.00   0.07  -0.11
    12   1     0.00  -0.00  -0.00    -0.00   0.32   0.41     0.00   0.05   0.06
    13   6     0.00  -0.00   0.00     0.00   0.00  -0.00     0.00   0.00  -0.00
    14   8    -0.00  -0.00  -0.00     0.00  -0.00   0.00    -0.00  -0.00   0.00
    15  15    -0.00   0.00  -0.00     0.00  -0.00  -0.00    -0.00   0.00   0.00
    16   6     0.01  -0.03   0.03     0.00  -0.00   0.00     0.00   0.00  -0.00
    17   6    -0.00   0.02   0.02    -0.00  -0.00  -0.00    -0.00   0.00   0.00
    18   6    -0.00   0.00  -0.00     0.00   0.00  -0.00    -0.00  -0.00   0.00
    19   1     0.00   0.00   0.01    -0.00  -0.00  -0.00     0.00   0.00   0.00
    20   1     0.00  -0.00  -0.00    -0.00   0.00   0.00     0.00  -0.00  -0.00
    21   1    -0.00  -0.00   0.00    -0.00  -0.00   0.00     0.00   0.00  -0.00
    22   1    -0.13  -0.24  -0.37    -0.00  -0.01  -0.01     0.00   0.00   0.00
    23   1     0.37   0.11  -0.04     0.01   0.00  -0.00    -0.00  -0.00   0.00
    24   1    -0.34   0.45   0.08    -0.01   0.01   0.00     0.00  -0.00  -0.00
    25   1    -0.27  -0.07   0.01     0.01   0.00  -0.00    -0.00  -0.00   0.00
    26   1     0.05   0.16  -0.26    -0.00  -0.01   0.01     0.00   0.00  -0.00
    27   1     0.22  -0.31   0.02    -0.01   0.01  -0.00     0.00  -0.00   0.00
    28   6     0.00   0.00   0.00     0.00   0.00   0.00    -0.00  -0.00  -0.00
    29   8    -0.00  -0.00  -0.00    -0.00  -0.00  -0.00     0.00   0.00   0.00
                     73                     74                     75
                      A                      A                      A
 Frequencies --   3107.1445              3133.8066              3142.0141
 Red. masses --      1.0996                 1.1024                 1.1026
 Frc consts  --      6.2545                 6.3785                 6.4132
 IR Inten    --      1.2648                25.8971                28.2556
  Atom  AN      X      Y      Z        X      Y      Z        X      Y      Z
     1   1    -0.00   0.00  -0.00     0.00  -0.00  -0.00    -0.00   0.00  -0.00
     2   1    -0.00  -0.00   0.00     0.00   0.00   0.00     0.00   0.00   0.00
     3  45     0.00   0.00   0.00    -0.00  -0.00   0.00    -0.00   0.00   0.00
     4   6    -0.00  -0.00  -0.00     0.00   0.00  -0.00    -0.00  -0.00  -0.00
     5   8     0.00   0.00  -0.00    -0.00  -0.00   0.00     0.00   0.00   0.00
     6   6     0.00  -0.02  -0.09    -0.00   0.01  -0.01     0.00  -0.01  -0.02
     7   6     0.00   0.00   0.03    -0.05   0.07  -0.03     0.02  -0.03  -0.08
     8   1    -0.00   0.53   0.60    -0.00   0.01   0.01     0.00   0.15   0.17
     9   1    -0.00  -0.30   0.43    -0.00  -0.07   0.10    -0.00  -0.08   0.12
    10   1    -0.00   0.00   0.01     0.62  -0.41   0.02    -0.20   0.13  -0.02
    11   1    -0.00   0.10  -0.14    -0.02  -0.33   0.53    -0.00  -0.27   0.39
    12   1     0.00  -0.14  -0.17    -0.01  -0.09  -0.14     0.01   0.51   0.62
    13   6    -0.00   0.00  -0.00    -0.00   0.00  -0.00    -0.00   0.00  -0.00
    14   8     0.00  -0.00   0.00     0.00  -0.00   0.00     0.00  -0.00   0.00
    15  15    -0.00   0.00   0.00     0.00   0.00  -0.00    -0.00  -0.00   0.00
    16   6     0.00  -0.00   0.00     0.00  -0.00   0.00     0.00   0.00   0.00
    17   6    -0.00   0.00   0.00     0.00  -0.00   0.00    -0.00  -0.00   0.00
    18   6    -0.00   0.00  -0.00     0.00  -0.00   0.00    -0.00   0.00   0.00
    19   1     0.00   0.00   0.00     0.00   0.00   0.00    -0.00  -0.00  -0.00
    20   1     0.00  -0.00  -0.00    -0.00   0.00   0.00     0.00  -0.00  -0.00
    21   1    -0.00  -0.00   0.00     0.00   0.00  -0.00    -0.00  -0.00   0.00
    22   1    -0.00  -0.00  -0.00    -0.00  -0.00  -0.00    -0.00  -0.00  -0.00
    23   1    -0.00  -0.00   0.00    -0.00  -0.00   0.00    -0.00  -0.00  -0.00
    24   1    -0.00   0.00   0.00    -0.00   0.00   0.00     0.00  -0.00  -0.00
    25   1     0.00   0.00  -0.00     0.00  -0.00  -0.00     0.00   0.00  -0.00
    26   1     0.00   0.00  -0.00     0.00   0.00  -0.00     0.00   0.00  -0.00
    27   1     0.00  -0.00   0.00    -0.00   0.00  -0.00    -0.00   0.00   0.00
    28   6     0.00   0.00  -0.00     0.00   0.00  -0.00     0.00  -0.00  -0.00
    29   8    -0.00  -0.00   0.00    -0.00  -0.00  -0.00    -0.00   0.00   0.00
                     76                     77                     78
                      A                      A                      A
 Frequencies --   3144.4101              3145.9449              3146.6077
 Red. masses --      1.1036                 1.1031                 1.1028
 Frc consts  --      6.4291                 6.4325                 6.4334
 IR Inten    --      4.6368                 3.2597                15.9073
  Atom  AN      X      Y      Z        X      Y      Z        X      Y      Z
     1   1    -0.00  -0.00   0.00     0.00   0.00  -0.00    -0.00  -0.00   0.00
     2   1     0.00  -0.00  -0.00     0.00   0.00   0.00     0.00   0.00   0.00
     3  45     0.00   0.00   0.00     0.00  -0.00   0.00     0.00   0.00   0.00
     4   6    -0.00  -0.00   0.00     0.00   0.00  -0.00    -0.00  -0.00  -0.00
     5   8    -0.00   0.00   0.00    -0.00  -0.00   0.00     0.00   0.00   0.00
     6   6     0.00  -0.00  -0.00    -0.00  -0.00  -0.00     0.00  -0.00   0.00
     7   6     0.00  -0.00  -0.00     0.00  -0.00  -0.00     0.00  -0.00  -0.00
     8   1     0.00   0.00   0.00    -0.00   0.00   0.00    -0.00   0.00   0.00
     9   1    -0.00  -0.00   0.00     0.00  -0.00   0.00    -0.00   0.00  -0.00
    10   1    -0.00   0.00  -0.00    -0.00   0.00  -0.00    -0.00   0.00  -0.00
    11   1     0.00  -0.00   0.00    -0.00  -0.00   0.00     0.00  -0.00   0.00
    12   1     0.00   0.00   0.00     0.00   0.00   0.00     0.00   0.00   0.00
    13   6    -0.00   0.00  -0.00     0.00  -0.00  -0.00    -0.00   0.00  -0.00
    14   8     0.00  -0.00   0.00     0.00   0.00   0.00     0.00  -0.00   0.00
    15  15     0.00  -0.00   0.00    -0.00   0.00  -0.00     0.00  -0.00  -0.00
    16   6    -0.00   0.01   0.01     0.01  -0.03  -0.02     0.03  -0.06  -0.05
    17   6    -0.01   0.01  -0.01    -0.04   0.06  -0.04     0.02  -0.03   0.02
    18   6     0.01  -0.09   0.00    -0.00   0.01   0.01     0.00  -0.02   0.00
    19   1     0.13   0.18   0.32    -0.03  -0.04  -0.07     0.02   0.02   0.04
    20   1    -0.38   0.62   0.08     0.04  -0.06  -0.01    -0.07   0.12   0.02
    21   1     0.08   0.28  -0.42    -0.00  -0.00   0.01     0.02   0.07  -0.10
    22   1    -0.03  -0.05  -0.08     0.09   0.15   0.24     0.19   0.31   0.51
    23   1     0.01   0.01  -0.00    -0.07  -0.03   0.01    -0.15  -0.06   0.01
    24   1     0.05  -0.07  -0.01    -0.17   0.23   0.03    -0.37   0.48   0.07
    25   1     0.03   0.01  -0.00     0.17   0.06  -0.02    -0.07  -0.03   0.01
    26   1    -0.02  -0.06   0.10    -0.11  -0.30   0.52     0.05   0.13  -0.24
    27   1     0.07  -0.09   0.00     0.36  -0.51   0.01    -0.16   0.23  -0.00
    28   6    -0.00   0.00   0.00    -0.00  -0.00  -0.00     0.00   0.00   0.00
    29   8     0.00  -0.00  -0.00     0.00   0.00   0.00    -0.00  -0.00  -0.00
                     79                     80                     81
                      A                      A                      A
 Frequencies --   3152.4796              3163.7435              3167.4914
 Red. masses --      1.1023                 1.1028                 1.1020
 Frc consts  --      6.4544                 6.5034                 6.5144
 IR Inten    --      3.2285                 0.3327                 0.0886
  Atom  AN      X      Y      Z        X      Y      Z        X      Y      Z
     1   1    -0.00   0.00  -0.00    -0.00   0.00  -0.00    -0.00   0.00   0.00
     2   1    -0.00   0.00  -0.00    -0.00  -0.00   0.00    -0.00  -0.00   0.00
     3  45     0.00   0.00   0.00     0.00   0.00  -0.00     0.00  -0.00   0.00
     4   6    -0.00  -0.00  -0.00     0.00   0.00  -0.00     0.00  -0.00   0.00
     5   8     0.00   0.00   0.00    -0.00   0.00   0.00    -0.00   0.00  -0.00
     6   6     0.00  -0.00   0.00     0.00  -0.00   0.00    -0.00  -0.00  -0.00
     7   6    -0.00   0.00  -0.00    -0.00   0.00   0.00    -0.00   0.00  -0.00
     8   1     0.00  -0.00  -0.00    -0.00  -0.00  -0.00     0.00   0.00   0.00
     9   1     0.00   0.00  -0.00     0.00   0.00  -0.00     0.00  -0.00   0.00
    10   1     0.00  -0.00  -0.00     0.00  -0.00  -0.00     0.00  -0.00  -0.00
    11   1    -0.00  -0.00   0.00     0.00   0.00  -0.00    -0.00  -0.00   0.00
    12   1     0.00   0.00   0.00    -0.00  -0.00  -0.00     0.00   0.00   0.00
    13   6     0.00  -0.00  -0.00    -0.00  -0.00   0.00     0.00  -0.00   0.00
    14   8     0.00   0.00   0.00    -0.00  -0.00   0.00     0.00   0.00  -0.00
    15  15    -0.00  -0.00  -0.00    -0.00  -0.00   0.00    -0.00  -0.00  -0.00
    16   6     0.00  -0.00  -0.00     0.00   0.00   0.00    -0.09  -0.03  -0.02
    17   6    -0.00   0.00  -0.00    -0.08  -0.02   0.03    -0.00  -0.00   0.00
    18   6    -0.01  -0.00  -0.09     0.00  -0.00  -0.00     0.00  -0.00  -0.00
    19   1     0.25   0.38   0.60     0.00   0.00   0.01     0.00   0.00   0.01
    20   1    -0.03   0.05  -0.01    -0.00   0.00   0.00    -0.00   0.00   0.00
    21   1    -0.10  -0.38   0.52     0.00   0.00  -0.00     0.00   0.00  -0.01
    22   1     0.01   0.02   0.04    -0.01  -0.01  -0.02     0.11   0.22   0.36
    23   1    -0.01  -0.00   0.00    -0.03  -0.01   0.00     0.81   0.27  -0.11
    24   1    -0.02   0.03   0.00    -0.00   0.01   0.00     0.12  -0.18  -0.03
    25   1     0.01   0.00  -0.00     0.81   0.23  -0.03     0.04   0.01  -0.00
    26   1    -0.01  -0.02   0.03     0.06   0.23  -0.41     0.00   0.01  -0.01
    27   1     0.02  -0.02   0.00     0.12  -0.18   0.01     0.00  -0.01   0.00
    28   6    -0.00  -0.00  -0.00    -0.00  -0.00  -0.00    -0.00  -0.00  -0.00
    29   8     0.00  -0.00  -0.00     0.00   0.00   0.00     0.00   0.00   0.00

 -------------------
 - Thermochemistry -
 -------------------
 Temperature   298.150 Kelvin.  Pressure   1.00000 Atm.
 Atom     1 has atomic number  1 and mass   1.00783
 Atom     2 has atomic number  1 and mass   1.00783
 Atom     3 has atomic number 45 and mass 102.90480
 Atom     4 has atomic number  6 and mass  12.00000
 Atom     5 has atomic number  8 and mass  15.99491
 Atom     6 has atomic number  6 and mass  12.00000
 Atom     7 has atomic number  6 and mass  12.00000
 Atom     8 has atomic number  1 and mass   1.00783
 Atom     9 has atomic number  1 and mass   1.00783
 Atom    10 has atomic number  1 and mass   1.00783
 Atom    11 has atomic number  1 and mass   1.00783
 Atom    12 has atomic number  1 and mass   1.00783
 Atom    13 has atomic number  6 and mass  12.00000
 Atom    14 has atomic number  8 and mass  15.99491
 Atom    15 has atomic number 15 and mass  30.97376
 Atom    16 has atomic number  6 and mass  12.00000
 Atom    17 has atomic number  6 and mass  12.00000
 Atom    18 has atomic number  6 and mass  12.00000
 Atom    19 has atomic number  1 and mass   1.00783
 Atom    20 has atomic number  1 and mass   1.00783
 Atom    21 has atomic number  1 and mass   1.00783
 Atom    22 has atomic number  1 and mass   1.00783
 Atom    23 has atomic number  1 and mass   1.00783
 Atom    24 has atomic number  1 and mass   1.00783
 Atom    25 has atomic number  1 and mass   1.00783
 Atom    26 has atomic number  1 and mass   1.00783
 Atom    27 has atomic number  1 and mass   1.00783
 Atom    28 has atomic number  6 and mass  12.00000
 Atom    29 has atomic number  8 and mass  15.99491
 Molecular mass:   293.98851 amu.
 Principal axes and moments of inertia in atomic units:
                           1         2         3
     Eigenvalues --  2949.543364160.557094988.42688
           X            0.99815  -0.05833  -0.01723
           Y            0.05833   0.99830  -0.00030
           Z            0.01722  -0.00070   0.99985
 This molecule is an asymmetric top.
 Rotational symmetry number  1.
 Warning -- assumption of classical behavior for rotation
           may cause significant error
 Rotational temperatures (Kelvin)      0.02937     0.02082     0.01736
 Rotational constants (GHZ):           0.61187     0.43377     0.36179
    1 imaginary frequencies ignored.
 Zero-point vibrational energy     583982.6 (Joules/Mol)
                                  139.57519 (Kcal/Mol)
 Warning -- explicit consideration of  28 degrees of freedom as
           vibrations may cause significant error
 Vibrational temperatures:     61.74    71.44    92.26    97.00   112.12
          (Kelvin)            122.18   134.42   141.28   239.35   251.36
                              264.67   287.92   319.43   325.58   332.86
                              353.01   380.96   387.59   398.19   479.96
                              515.28   525.31   586.90   603.76   658.33
                              720.07   740.45   835.18  1003.64  1021.37
                             1059.92  1095.05  1103.48  1154.91  1158.50
                             1172.37  1255.16  1260.33  1268.14  1400.07
                             1402.05  1409.64  1415.94  1489.52  1560.47
                             1596.82  1849.20  1916.13  1919.24  1944.65
                             1963.04  2040.68  2081.75  2089.04  2102.40
                             2106.51  2110.17  2119.30  2133.95  2148.82
                             2157.26  2500.28  2645.45  2908.91  3036.46
                             3094.68  4396.99  4400.73  4401.22  4404.09
                             4414.39  4470.49  4508.85  4520.66  4524.10
                             4526.31  4527.27  4535.72  4551.92  4557.31
 
 Zero-point correction=                           0.222427 (Hartree/Particle)
 Thermal correction to Energy=                    0.241165
 Thermal correction to Enthalpy=                  0.242109
 Thermal correction to Gibbs Free Energy=         0.174930
 Sum of electronic and zero-point Energies=           -991.986432
 Sum of electronic and thermal Energies=              -991.967694
 Sum of electronic and thermal Enthalpies=            -991.966750
 Sum of electronic and thermal Free Energies=         -992.033928
 
                     E (Thermal)             CV                S
                      KCal/Mol        Cal/Mol-Kelvin    Cal/Mol-Kelvin
 Total                  151.333             65.427            141.389
 Electronic               0.000              0.000              0.000
 Translational            0.889              2.981             42.932
 Rotational               0.889              2.981             32.482
 Vibrational            149.556             59.465             65.975
 Vibration     1          0.595              1.980              5.120
 Vibration     2          0.595              1.978              4.831
 Vibration     3          0.597              1.971              4.326
 Vibration     4          0.598              1.970              4.227
 Vibration     5          0.599              1.964              3.942
 Vibration     6          0.601              1.960              3.774
 Vibration     7          0.602              1.954              3.587
 Vibration     8          0.604              1.950              3.490
 Vibration     9          0.624              1.884              2.476
 Vibration    10          0.627              1.874              2.384
 Vibration    11          0.631              1.862              2.288
 Vibration    12          0.638              1.840              2.132
 Vibration    13          0.648              1.808              1.943
 Vibration    14          0.650              1.801              1.908
 Vibration    15          0.653              1.793              1.868
 Vibration    16          0.660              1.770              1.764
 Vibration    17          0.671              1.738              1.630
 Vibration    18          0.674              1.729              1.600
 Vibration    19          0.678              1.716              1.554
 Vibration    20          0.715              1.608              1.243
 Vibration    21          0.733              1.559              1.130
 Vibration    22          0.738              1.544              1.100
 Vibration    23          0.772              1.453              0.934
 Vibration    24          0.782              1.428              0.893
 Vibration    25          0.816              1.344              0.773
 Vibration    26          0.856              1.249              0.657
 Vibration    27          0.870              1.218              0.623
 Vibration    28          0.937              1.074              0.484
                       Q            Log10(Q)             Ln(Q)
 Total Bot       0.344899D-80        -80.462309       -185.271312
 Total V=0       0.703103D+22         21.847019         50.304620
 Vib (Bot)       0.621529D-95        -95.206539       -219.221156
 Vib (Bot)    1  0.482055D+01          0.683096          1.572887
 Vib (Bot)    2  0.416372D+01          0.619481          1.426408
 Vib (Bot)    3  0.321865D+01          0.507673          1.168961
 Vib (Bot)    4  0.306021D+01          0.485751          1.118484
 Vib (Bot)    5  0.264363D+01          0.422201          0.972154
 Vib (Bot)    6  0.242323D+01          0.384394          0.885101
 Vib (Bot)    7  0.219943D+01          0.342311          0.788200
 Vib (Bot)    8  0.209079D+01          0.320310          0.737541
 Vib (Bot)    9  0.121281D+01          0.083793          0.192940
 Vib (Bot)   10  0.115174D+01          0.061354          0.141273
 Vib (Bot)   11  0.109034D+01          0.037561          0.086487
 Vib (Bot)   12  0.996358D+00         -0.001584         -0.003648
 Vib (Bot)   13  0.890185D+00         -0.050520         -0.116326
 Vib (Bot)   14  0.871776D+00         -0.059595         -0.137223
 Vib (Bot)   15  0.850830D+00         -0.070157         -0.161543
 Vib (Bot)   16  0.797211D+00         -0.098427         -0.226636
 Vib (Bot)   17  0.731825D+00         -0.135593         -0.312214
 Vib (Bot)   18  0.717623D+00         -0.144103         -0.331810
 Vib (Bot)   19  0.695889D+00         -0.157460         -0.362566
 Vib (Bot)   20  0.558873D+00         -0.252687         -0.581833
 Vib (Bot)   21  0.512422D+00         -0.290372         -0.668606
 Vib (Bot)   22  0.500300D+00         -0.300770         -0.692548
 Vib (Bot)   23  0.434396D+00         -0.362114         -0.833798
 Vib (Bot)   24  0.418552D+00         -0.378251         -0.870955
 Vib (Bot)   25  0.372471D+00         -0.428907         -0.987596
 Vib (Bot)   26  0.328258D+00         -0.483784         -1.113954
 Vib (Bot)   27  0.315186D+00         -0.501433         -1.154593
 Vib (Bot)   28  0.262384D+00         -0.581063         -1.337946
 Vib (V=0)       0.126704D+08          7.102789         16.354776
 Vib (V=0)    1  0.534641D+01          0.728062          1.676425
 Vib (V=0)    2  0.469363D+01          0.671509          1.546207
 Vib (V=0)    3  0.375725D+01          0.574870          1.323687
 Vib (V=0)    4  0.360079D+01          0.556398          1.281153
 Vib (V=0)    5  0.319050D+01          0.503859          1.160178
 Vib (V=0)    6  0.297428D+01          0.473381          1.090001
 Vib (V=0)    7  0.275555D+01          0.440208          1.013617
 Vib (V=0)    8  0.264974D+01          0.423204          0.974462
 Vib (V=0)    9  0.181183D+01          0.258118          0.594340
 Vib (V=0)   10  0.175559D+01          0.244423          0.562804
 Vib (V=0)   11  0.169951D+01          0.230325          0.530343
 Vib (V=0)   12  0.161478D+01          0.208113          0.479197
 Vib (V=0)   13  0.152099D+01          0.182128          0.419364
 Vib (V=0)   14  0.150498D+01          0.177532          0.408782
 Vib (V=0)   15  0.148687D+01          0.172273          0.396673
 Vib (V=0)   16  0.144103D+01          0.158674          0.365361
 Vib (V=0)   17  0.138632D+01          0.141864          0.326654
 Vib (V=0)   18  0.137463D+01          0.138187          0.318187
 Vib (V=0)   19  0.135689D+01          0.132545          0.305196
 Vib (V=0)   20  0.124989D+01          0.096873          0.223058
 Vib (V=0)   21  0.121594D+01          0.084914          0.195521
 Vib (V=0)   22  0.120732D+01          0.081822          0.188402
 Vib (V=0)   23  0.116234D+01          0.065335          0.150439
 Vib (V=0)   24  0.115206D+01          0.061476          0.141554
 Vib (V=0)   25  0.112349D+01          0.050568          0.116436
 Vib (V=0)   26  0.109812D+01          0.040652          0.093604
 Vib (V=0)   27  0.109105D+01          0.037845          0.087142
 Vib (V=0)   28  0.106466D+01          0.027213          0.062659
 Electronic      0.100000D+01          0.000000          0.000000
 Translational   0.198130D+09          8.296949         19.104432
 Rotational      0.280079D+07          6.447281         14.845412
 ***** Axes restored to original set *****
 -------------------------------------------------------------------
 Center     Atomic                   Forces (Hartrees/Bohr)
 Number     Number              X              Y              Z
 -------------------------------------------------------------------
      1        1          -0.000008198   -0.000002143    0.000001911
      2        1          -0.000000534   -0.000003148    0.000001130
      3       45          -0.000003287   -0.000000058    0.000001055
      4        6          -0.000000436   -0.000005465    0.000001173
      5        8           0.000003326   -0.000004458    0.000001737
      6        6          -0.000002414   -0.000009165    0.000003527
      7        6           0.000000414   -0.000013095    0.000004268
      8        1          -0.000003907   -0.000009872    0.000004280
      9        1          -0.000005217   -0.000008353    0.000004184
     10        1          -0.000001562   -0.000015773    0.000005790
     11        1           0.000003243   -0.000013600    0.000004127
     12        1           0.000001576   -0.000012524    0.000004098
     13        6          -0.000007758    0.000001471    0.000000926
     14        8          -0.000008851    0.000001984    0.000000876
     15       15           0.000001499    0.000004185   -0.000001566
     16        6           0.000006414    0.000003923   -0.000002572
     17        6           0.000003661    0.000004650   -0.000002251
     18        6           0.000000243    0.000010692   -0.000003656
     19        1          -0.000000191    0.000011160   -0.000003571
     20        1           0.000003256    0.000012378   -0.000004912
     21        1          -0.000002346    0.000011544   -0.000003474
     22        1           0.000006025    0.000004200   -0.000002716
     23        1           0.000008215    0.000000571   -0.000001618
     24        1           0.000009191    0.000005877   -0.000003959
     25        1           0.000004874    0.000001343   -0.000001225
     26        1           0.000000916    0.000005423   -0.000002098
     27        1           0.000006389    0.000006629   -0.000003644
     28        6          -0.000005762    0.000005718   -0.000001250
     29        8          -0.000008781    0.000005906   -0.000000570
 -------------------------------------------------------------------
 Cartesian Forces:  Max     0.000015773 RMS     0.000005730
 FormGI is forming the generalized inverse of G from B-inverse, IUseBI=4.
 Leave Link  716 at Wed Oct  5 01:46:31 2022, MaxMem=  2952790016 cpu:               1.1 elap:               0.1
 (Enter /mnt/data/applications/G16/g16/l103.exe)

 GradGradGradGradGradGradGradGradGradGradGradGradGradGradGradGradGradGrad
 Berny optimization.
 Red2BG is reusing G-inverse.
 Internal  Forces:  Max     0.000000804 RMS     0.000000262
 Search for a saddle point.
 Step number   1 out of a maximum of    2
 All quantities printed in internal units (Hartrees-Bohrs-Radians)
 Swapping is turned off.
 Second derivative matrix not updated -- analytic derivatives used.
 ITU=  0
     Eigenvalues ---   -0.03980   0.00138   0.00160   0.00223   0.00225
     Eigenvalues ---    0.00255   0.00311   0.00697   0.01640   0.02010
     Eigenvalues ---    0.02204   0.02378   0.02796   0.02991   0.03490
     Eigenvalues ---    0.03616   0.03823   0.03982   0.04010   0.04021
     Eigenvalues ---    0.04052   0.04096   0.04170   0.04214   0.04437
     Eigenvalues ---    0.04555   0.04877   0.04969   0.06299   0.07071
     Eigenvalues ---    0.07679   0.07831   0.07942   0.08826   0.09726
     Eigenvalues ---    0.09752   0.10161   0.10875   0.11071   0.11144
     Eigenvalues ---    0.11194   0.11320   0.11422   0.12025   0.12264
     Eigenvalues ---    0.12286   0.12905   0.13518   0.14426   0.14608
     Eigenvalues ---    0.14709   0.14864   0.16012   0.16287   0.16572
     Eigenvalues ---    0.19247   0.19645   0.21771   0.22507   0.22640
     Eigenvalues ---    0.23729   0.25470   0.29662   0.31661   0.33581
     Eigenvalues ---    0.34145   0.34168   0.34174   0.34216   0.34262
     Eigenvalues ---    0.34445   0.34488   0.34637   0.34671   0.34869
     Eigenvalues ---    0.34960   0.35047   0.35237   0.82082   1.16760
     Eigenvalues ---    1.19560
 Eigenvectors required to have negative eigenvalues:
                          A5        A6        R3        D12       D11
   1                   -0.42555  -0.31963   0.26484   0.25746   0.25096
                          D13       R2        A11       A8        D16
   1                    0.25047   0.22630  -0.21929   0.20552  -0.17482
 Angle between quadratic step and forces=  64.87 degrees.
 Linear search not attempted -- option 19 set.
 Iteration  1 RMS(Cart)=  0.00011038 RMS(Int)=  0.00000001
 Iteration  2 RMS(Cart)=  0.00000001 RMS(Int)=  0.00000000
 ITry= 1 IFail=0 DXMaxC= 5.19D-04 DCOld= 1.00D+10 DXMaxT= 2.00D-02 DXLimC= 3.00D+00 Rises=F
 Variable       Old X    -DE/DX   Delta X   Delta X   Delta X     New X
                                 (Linear)    (Quad)   (Total)
    R1        3.00624  -0.00000   0.00000  -0.00000  -0.00000   3.00624
    R2        3.15074  -0.00000   0.00000  -0.00000  -0.00000   3.15074
    R3        4.11976  -0.00000   0.00000  -0.00001  -0.00001   4.11975
    R4        3.62674  -0.00000   0.00000  -0.00001  -0.00001   3.62674
    R5        4.52023  -0.00000   0.00000  -0.00000  -0.00000   4.52023
    R6        3.66768  -0.00000   0.00000   0.00000   0.00000   3.66768
    R7        2.28167   0.00000   0.00000   0.00000   0.00000   2.28167
    R8        2.86953   0.00000   0.00000  -0.00000  -0.00000   2.86953
    R9        2.86982  -0.00000   0.00000   0.00000   0.00000   2.86982
   R10        2.06383  -0.00000   0.00000  -0.00000  -0.00000   2.06383
   R11        2.06684   0.00000   0.00000   0.00000   0.00000   2.06685
   R12        2.06251  -0.00000   0.00000  -0.00000  -0.00000   2.06251
   R13        2.06189  -0.00000   0.00000   0.00000   0.00000   2.06189
   R14        2.06032   0.00000   0.00000  -0.00000  -0.00000   2.06032
   R15        2.15003  -0.00000   0.00000   0.00000   0.00000   2.15003
   R16        3.42729   0.00000   0.00000  -0.00000  -0.00000   3.42729
   R17        3.42927  -0.00000   0.00000   0.00000   0.00000   3.42927
   R18        3.43552   0.00000   0.00000   0.00000   0.00000   3.43552
   R19        2.06143   0.00000   0.00000   0.00000   0.00000   2.06143
   R20        2.05933   0.00000   0.00000   0.00000   0.00000   2.05933
   R21        2.06337  -0.00000   0.00000  -0.00000  -0.00000   2.06337
   R22        2.05893   0.00000   0.00000   0.00000   0.00000   2.05893
   R23        2.06197   0.00000   0.00000   0.00000   0.00000   2.06197
   R24        2.06320   0.00000   0.00000   0.00000   0.00000   2.06320
   R25        2.06190  -0.00000   0.00000  -0.00000  -0.00000   2.06190
   R26        2.06332   0.00000   0.00000  -0.00000  -0.00000   2.06332
   R27        2.06169   0.00000   0.00000   0.00000   0.00000   2.06169
   R28        2.14705   0.00000   0.00000  -0.00000  -0.00000   2.14705
    A1        1.50385  -0.00000   0.00000  -0.00001  -0.00001   1.50384
    A2        1.52520   0.00000   0.00000   0.00000   0.00000   1.52521
    A3        1.50699   0.00000   0.00000   0.00001   0.00001   1.50700
    A4        1.48057  -0.00000   0.00000   0.00001   0.00001   1.48058
    A5        0.73173  -0.00000   0.00000   0.00000   0.00000   0.73173
    A6        2.46328   0.00000   0.00000   0.00001   0.00001   2.46330
    A7        1.59814   0.00000   0.00000   0.00001   0.00001   1.59816
    A8        1.84880  -0.00000   0.00000  -0.00002  -0.00002   1.84878
    A9        1.73940   0.00000   0.00000   0.00001   0.00001   1.73941
   A10        1.59195   0.00000   0.00000  -0.00000  -0.00000   1.59195
   A11        2.57366  -0.00000   0.00000  -0.00001  -0.00001   2.57364
   A12        1.67036  -0.00000   0.00000  -0.00002  -0.00002   1.67034
   A13        1.94213   0.00000   0.00000   0.00001   0.00001   1.94214
   A14        1.66493  -0.00000   0.00000  -0.00000  -0.00000   1.66492
   A15        2.12243  -0.00000   0.00000   0.00000   0.00000   2.12243
   A16        2.01762  -0.00000   0.00000  -0.00000  -0.00000   2.01761
   A17        2.11733   0.00000   0.00000  -0.00000  -0.00000   2.11733
   A18        1.99097   0.00000   0.00000   0.00000   0.00000   1.99097
   A19        1.87448  -0.00000   0.00000   0.00002   0.00002   1.87450
   A20        1.85948  -0.00000   0.00000  -0.00002  -0.00002   1.85946
   A21        1.95005  -0.00000   0.00000   0.00001   0.00001   1.95005
   A22        1.94139  -0.00000   0.00000  -0.00001  -0.00001   1.94138
   A23        1.83854   0.00000   0.00000   0.00000   0.00000   1.83854
   A24        1.92078  -0.00000   0.00000   0.00000   0.00000   1.92078
   A25        1.94233  -0.00000   0.00000  -0.00000  -0.00000   1.94233
   A26        1.94388   0.00000   0.00000   0.00000   0.00000   1.94388
   A27        1.88739   0.00000   0.00000  -0.00000  -0.00000   1.88738
   A28        1.88847   0.00000   0.00000   0.00000   0.00000   1.88847
   A29        1.87902   0.00000   0.00000   0.00000   0.00000   1.87902
   A30        2.00593  -0.00000   0.00000  -0.00001  -0.00001   2.00592
   A31        2.01028  -0.00000   0.00000   0.00000   0.00000   2.01028
   A32        1.99957   0.00000   0.00000   0.00001   0.00001   1.99958
   A33        1.81592   0.00000   0.00000   0.00001   0.00001   1.81593
   A34        1.80519   0.00000   0.00000   0.00001   0.00001   1.80520
   A35        1.80045  -0.00000   0.00000  -0.00000  -0.00000   1.80044
   A36        1.90605  -0.00000   0.00000  -0.00000  -0.00000   1.90605
   A37        1.89655  -0.00000   0.00000  -0.00001  -0.00001   1.89654
   A38        1.94195   0.00000   0.00000   0.00001   0.00001   1.94196
   A39        1.89837   0.00000   0.00000  -0.00000  -0.00000   1.89837
   A40        1.90809  -0.00000   0.00000   0.00000   0.00000   1.90809
   A41        1.91230   0.00000   0.00000   0.00000   0.00000   1.91230
   A42        1.90100   0.00000   0.00000   0.00000   0.00000   1.90101
   A43        1.90900  -0.00000   0.00000  -0.00000  -0.00000   1.90900
   A44        1.94128  -0.00000   0.00000  -0.00000  -0.00000   1.94128
   A45        1.89839   0.00000   0.00000   0.00000   0.00000   1.89839
   A46        1.91046   0.00000   0.00000   0.00000   0.00000   1.91046
   A47        1.90323   0.00000   0.00000   0.00000   0.00000   1.90323
   A48        1.91305   0.00000   0.00000   0.00000   0.00000   1.91305
   A49        1.94251  -0.00000   0.00000  -0.00000  -0.00000   1.94251
   A50        1.91050  -0.00000   0.00000  -0.00000  -0.00000   1.91050
   A51        1.90183  -0.00000   0.00000   0.00000   0.00000   1.90183
   A52        1.88911  -0.00000   0.00000   0.00000   0.00000   1.88911
   A53        1.90603   0.00000   0.00000  -0.00000  -0.00000   1.90603
   A54        3.10200   0.00000   0.00000   0.00000   0.00000   3.10200
   A55        3.10371  -0.00000   0.00000   0.00000   0.00000   3.10371
   A56        3.19904  -0.00000   0.00000  -0.00001  -0.00001   3.19903
   A57        3.13410  -0.00000   0.00000   0.00001   0.00001   3.13410
   A58        3.16749  -0.00000   0.00000  -0.00001  -0.00001   3.16748
   A59        3.16946   0.00000   0.00000   0.00000   0.00000   3.16946
    D1       -3.08325  -0.00000   0.00000  -0.00002  -0.00002  -3.08327
    D2       -0.18085  -0.00000   0.00000  -0.00004  -0.00004  -0.18089
    D3        1.67858   0.00000   0.00000  -0.00001  -0.00001   1.67857
    D4       -1.70221   0.00000   0.00000  -0.00003  -0.00003  -1.70223
    D5       -1.58503   0.00000   0.00000  -0.00001  -0.00001  -1.58504
    D6        1.31737   0.00000   0.00000  -0.00003  -0.00003   1.31734
    D7        0.09040  -0.00000   0.00000  -0.00003  -0.00003   0.09037
    D8        2.99280  -0.00000   0.00000  -0.00005  -0.00005   2.99276
    D9        1.87066  -0.00000   0.00000  -0.00004  -0.00004   1.87062
   D10       -1.51012  -0.00000   0.00000  -0.00006  -0.00006  -1.51018
   D11        0.28535   0.00000   0.00000   0.00005   0.00005   0.28540
   D12       -1.82560   0.00000   0.00000   0.00005   0.00005  -1.82555
   D13        2.37297   0.00000   0.00000   0.00005   0.00005   2.37302
   D14        1.01728   0.00000   0.00000   0.00005   0.00005   1.01733
   D15       -1.09368   0.00000   0.00000   0.00005   0.00005  -1.09362
   D16        3.10490   0.00000   0.00000   0.00005   0.00005   3.10495
   D17        2.75971   0.00000   0.00000   0.00006   0.00006   2.75977
   D18        0.64876   0.00000   0.00000   0.00006   0.00006   0.64882
   D19       -1.43586   0.00000   0.00000   0.00006   0.00006  -1.43579
   D20       -1.56751   0.00000   0.00000   0.00007   0.00007  -1.56744
   D21        2.60472   0.00000   0.00000   0.00007   0.00007   2.60479
   D22        0.52011   0.00000   0.00000   0.00007   0.00007   0.52018
   D23       -3.03455  -0.00000   0.00000  -0.00020  -0.00020  -3.03476
   D24        1.07746  -0.00000   0.00000  -0.00022  -0.00022   1.07723
   D25       -0.88560  -0.00000   0.00000  -0.00023  -0.00023  -0.88583
   D26       -0.13140  -0.00000   0.00000  -0.00022  -0.00022  -0.13161
   D27       -2.30257  -0.00000   0.00000  -0.00024  -0.00024  -2.30281
   D28        2.01756  -0.00000   0.00000  -0.00025  -0.00025   2.01732
   D29       -3.14028  -0.00000   0.00000  -0.00002  -0.00002  -3.14030
   D30       -1.04830  -0.00000   0.00000  -0.00002  -0.00002  -1.04833
   D31        1.04856  -0.00000   0.00000  -0.00002  -0.00002   1.04854
   D32       -1.01012   0.00000   0.00000   0.00001   0.00001  -1.01011
   D33        1.08186   0.00000   0.00000   0.00001   0.00001   1.08187
   D34       -3.10446   0.00000   0.00000   0.00001   0.00001  -3.10445
   D35        1.03910   0.00000   0.00000   0.00002   0.00002   1.03912
   D36        3.13108  -0.00000   0.00000   0.00001   0.00001   3.13109
   D37       -1.05524  -0.00000   0.00000   0.00001   0.00001  -1.05523
   D38        1.02901   0.00000   0.00000  -0.00002  -0.00002   1.02899
   D39       -1.03938   0.00000   0.00000  -0.00002  -0.00002  -1.03940
   D40        3.13691   0.00000   0.00000  -0.00002  -0.00002   3.13689
   D41       -3.03995  -0.00000   0.00000  -0.00003  -0.00003  -3.03998
   D42        1.17484   0.00000   0.00000  -0.00002  -0.00002   1.17482
   D43       -0.93205  -0.00000   0.00000  -0.00002  -0.00002  -0.93207
   D44       -1.16343  -0.00000   0.00000  -0.00003  -0.00003  -1.16346
   D45        3.05136  -0.00000   0.00000  -0.00002  -0.00002   3.05134
   D46        0.94447  -0.00000   0.00000  -0.00002  -0.00002   0.94445
   D47        0.98644  -0.00000   0.00000  -0.00003  -0.00003   0.98642
   D48       -1.08629  -0.00000   0.00000  -0.00003  -0.00003  -1.08632
   D49        3.09355  -0.00000   0.00000  -0.00003  -0.00003   3.09352
   D50       -1.22506   0.00000   0.00000  -0.00002  -0.00002  -1.22508
   D51        2.98539   0.00000   0.00000  -0.00002  -0.00002   2.98537
   D52        0.88204   0.00000   0.00000  -0.00001  -0.00001   0.88203
   D53       -3.10511   0.00000   0.00000  -0.00002  -0.00002  -3.10514
   D54        1.10534   0.00000   0.00000  -0.00002  -0.00002   1.10532
   D55       -0.99801   0.00000   0.00000  -0.00002  -0.00002  -0.99803
   D56       -1.08725   0.00000   0.00000   0.00002   0.00002  -1.08724
   D57        3.09087   0.00000   0.00000   0.00001   0.00001   3.09088
   D58        0.98224   0.00000   0.00000   0.00002   0.00002   0.98226
   D59        1.10926  -0.00000   0.00000   0.00001   0.00001   1.10927
   D60       -0.99580  -0.00000   0.00000   0.00001   0.00001  -0.99579
   D61       -3.10443  -0.00000   0.00000   0.00001   0.00001  -3.10442
   D62        2.99741   0.00000   0.00000   0.00001   0.00001   2.99743
   D63        0.89235   0.00000   0.00000   0.00001   0.00001   0.89236
   D64       -1.21628   0.00000   0.00000   0.00002   0.00002  -1.21626
         Item               Value     Threshold  Converged?
 Maximum Force            0.000001     0.000450     YES
 RMS     Force            0.000000     0.000300     YES
 Maximum Displacement     0.000519     0.001800     YES
 RMS     Displacement     0.000110     0.001200     YES
 Predicted change in Energy=-4.222447D-10
 Optimization completed.
    -- Stationary point found.
                           ----------------------------
                           !   Optimized Parameters   !
                           ! (Angstroms and Degrees)  !
 --------------------------                            --------------------------
 ! Name  Definition              Value          Derivative Info.                !
 --------------------------------------------------------------------------------
 ! R1    R(1,3)                  1.5908         -DE/DX =    0.0                 !
 ! R2    R(2,3)                  1.6673         -DE/DX =    0.0                 !
 ! R3    R(3,4)                  2.1801         -DE/DX =    0.0                 !
 ! R4    R(3,13)                 1.9192         -DE/DX =    0.0                 !
 ! R5    R(3,15)                 2.392          -DE/DX =    0.0                 !
 ! R6    R(3,28)                 1.9409         -DE/DX =    0.0                 !
 ! R7    R(4,5)                  1.2074         -DE/DX =    0.0                 !
 ! R8    R(4,6)                  1.5185         -DE/DX =    0.0                 !
 ! R9    R(6,7)                  1.5186         -DE/DX =    0.0                 !
 ! R10   R(6,8)                  1.0921         -DE/DX =    0.0                 !
 ! R11   R(6,9)                  1.0937         -DE/DX =    0.0                 !
 ! R12   R(7,10)                 1.0914         -DE/DX =    0.0                 !
 ! R13   R(7,11)                 1.0911         -DE/DX =    0.0                 !
 ! R14   R(7,12)                 1.0903         -DE/DX =    0.0                 !
 ! R15   R(13,14)                1.1377         -DE/DX =    0.0                 !
 ! R16   R(15,16)                1.8136         -DE/DX =    0.0                 !
 ! R17   R(15,17)                1.8147         -DE/DX =    0.0                 !
 ! R18   R(15,18)                1.818          -DE/DX =    0.0                 !
 ! R19   R(16,22)                1.0909         -DE/DX =    0.0                 !
 ! R20   R(16,23)                1.0898         -DE/DX =    0.0                 !
 ! R21   R(16,24)                1.0919         -DE/DX =    0.0                 !
 ! R22   R(17,25)                1.0895         -DE/DX =    0.0                 !
 ! R23   R(17,26)                1.0911         -DE/DX =    0.0                 !
 ! R24   R(17,27)                1.0918         -DE/DX =    0.0                 !
 ! R25   R(18,19)                1.0911         -DE/DX =    0.0                 !
 ! R26   R(18,20)                1.0919         -DE/DX =    0.0                 !
 ! R27   R(18,21)                1.091          -DE/DX =    0.0                 !
 ! R28   R(28,29)                1.1362         -DE/DX =    0.0                 !
 ! A1    A(1,3,2)               86.1643         -DE/DX =    0.0                 !
 ! A2    A(1,3,4)               87.3878         -DE/DX =    0.0                 !
 ! A3    A(1,3,13)              86.344          -DE/DX =    0.0                 !
 ! A4    A(1,3,28)              84.8307         -DE/DX =    0.0                 !
 ! A5    A(2,3,4)               41.9248         -DE/DX =    0.0                 !
 ! A6    A(2,3,13)             141.1358         -DE/DX =    0.0                 !
 ! A7    A(2,3,15)              91.567          -DE/DX =    0.0                 !
 ! A8    A(2,3,28)             105.9284         -DE/DX =    0.0                 !
 ! A9    A(4,3,13)              99.6604         -DE/DX =    0.0                 !
 ! A10   A(4,3,15)              91.2119         -DE/DX =    0.0                 !
 ! A11   A(4,3,28)             147.4597         -DE/DX =    0.0                 !
 ! A12   A(13,3,15)             95.7044         -DE/DX =    0.0                 !
 ! A13   A(13,3,28)            111.2758         -DE/DX =    0.0                 !
 ! A14   A(15,3,28)             95.3933         -DE/DX =    0.0                 !
 ! A15   A(3,4,5)              121.6065         -DE/DX =    0.0                 !
 ! A16   A(3,4,6)              115.601          -DE/DX =    0.0                 !
 ! A17   A(5,4,6)              121.3143         -DE/DX =    0.0                 !
 ! A18   A(4,6,7)              114.0743         -DE/DX =    0.0                 !
 ! A19   A(4,6,8)              107.4            -DE/DX =    0.0                 !
 ! A20   A(4,6,9)              106.5405         -DE/DX =    0.0                 !
 ! A21   A(7,6,8)              111.7294         -DE/DX =    0.0                 !
 ! A22   A(7,6,9)              111.2336         -DE/DX =    0.0                 !
 ! A23   A(8,6,9)              105.3403         -DE/DX =    0.0                 !
 ! A24   A(6,7,10)             110.0527         -DE/DX =    0.0                 !
 ! A25   A(6,7,11)             111.2875         -DE/DX =    0.0                 !
 ! A26   A(6,7,12)             111.376          -DE/DX =    0.0                 !
 ! A27   A(10,7,11)            108.1393         -DE/DX =    0.0                 !
 ! A28   A(10,7,12)            108.2015         -DE/DX =    0.0                 !
 ! A29   A(11,7,12)            107.6597         -DE/DX =    0.0                 !
 ! A30   A(3,15,16)            114.9316         -DE/DX =    0.0                 !
 ! A31   A(3,15,17)            115.1806         -DE/DX =    0.0                 !
 ! A32   A(3,15,18)            114.567          -DE/DX =    0.0                 !
 ! A33   A(16,15,17)           104.0447         -DE/DX =    0.0                 !
 ! A34   A(16,15,18)           103.4298         -DE/DX =    0.0                 !
 ! A35   A(17,15,18)           103.1581         -DE/DX =    0.0                 !
 ! A36   A(15,16,22)           109.2087         -DE/DX =    0.0                 !
 ! A37   A(15,16,23)           108.664          -DE/DX =    0.0                 !
 ! A38   A(15,16,24)           111.2658         -DE/DX =    0.0                 !
 ! A39   A(22,16,23)           108.7687         -DE/DX =    0.0                 !
 ! A40   A(22,16,24)           109.3255         -DE/DX =    0.0                 !
 ! A41   A(23,16,24)           109.5665         -DE/DX =    0.0                 !
 ! A42   A(15,17,25)           108.9194         -DE/DX =    0.0                 !
 ! A43   A(15,17,26)           109.3779         -DE/DX =    0.0                 !
 ! A44   A(15,17,27)           111.2273         -DE/DX =    0.0                 !
 ! A45   A(25,17,26)           108.7698         -DE/DX =    0.0                 !
 ! A46   A(25,17,27)           109.4614         -DE/DX =    0.0                 !
 ! A47   A(26,17,27)           109.0468         -DE/DX =    0.0                 !
 ! A48   A(15,18,19)           109.6096         -DE/DX =    0.0                 !
 ! A49   A(15,18,20)           111.2978         -DE/DX =    0.0                 !
 ! A50   A(15,18,21)           109.4637         -DE/DX =    0.0                 !
 ! A51   A(19,18,20)           108.9667         -DE/DX =    0.0                 !
 ! A52   A(19,18,21)           108.2382         -DE/DX =    0.0                 !
 ! A53   A(20,18,21)           109.2073         -DE/DX =    0.0                 !
 ! A54   L(1,3,15,2,-1)        177.7313         -DE/DX =    0.0                 !
 ! A55   L(3,13,14,9,-1)       177.8295         -DE/DX =    0.0                 !
 ! A56   L(3,28,29,18,-1)      183.2916         -DE/DX =    0.0                 !
 ! A57   L(1,3,15,2,-2)        179.5704         -DE/DX =    0.0                 !
 ! A58   L(3,13,14,9,-2)       181.4839         -DE/DX =    0.0                 !
 ! A59   L(3,28,29,18,-2)      181.5967         -DE/DX =    0.0                 !
 ! D1    D(1,3,4,5)           -176.6571         -DE/DX =    0.0                 !
 ! D2    D(1,3,4,6)            -10.3619         -DE/DX =    0.0                 !
 ! D3    D(2,3,4,5)             96.1755         -DE/DX =    0.0                 !
 ! D4    D(2,3,4,6)            -97.5292         -DE/DX =    0.0                 !
 ! D5    D(13,3,4,5)           -90.8157         -DE/DX =    0.0                 !
 ! D6    D(13,3,4,6)            75.4796         -DE/DX =    0.0                 !
 ! D7    D(15,3,4,5)             5.1797         -DE/DX =    0.0                 !
 ! D8    D(15,3,4,6)           171.475          -DE/DX =    0.0                 !
 ! D9    D(28,3,4,5)           107.1812         -DE/DX =    0.0                 !
 ! D10   D(28,3,4,6)           -86.5236         -DE/DX =    0.0                 !
 ! D11   D(2,3,15,16)           16.3496         -DE/DX =    0.0                 !
 ! D12   D(2,3,15,17)         -104.5993         -DE/DX =    0.0                 !
 ! D13   D(2,3,15,18)          135.9612         -DE/DX =    0.0                 !
 ! D14   D(4,3,15,16)           58.2858         -DE/DX =    0.0                 !
 ! D15   D(4,3,15,17)          -62.663          -DE/DX =    0.0                 !
 ! D16   D(4,3,15,18)          177.8974         -DE/DX =    0.0                 !
 ! D17   D(13,3,15,16)         158.1198         -DE/DX =    0.0                 !
 ! D18   D(13,3,15,17)          37.171          -DE/DX =    0.0                 !
 ! D19   D(13,3,15,18)         -82.2686         -DE/DX =    0.0                 !
 ! D20   D(28,3,15,16)         -89.8117         -DE/DX =    0.0                 !
 ! D21   D(28,3,15,17)         149.2395         -DE/DX =    0.0                 !
 ! D22   D(28,3,15,18)          29.7999         -DE/DX =    0.0                 !
 ! D23   D(3,4,6,7)           -173.8672         -DE/DX =    0.0                 !
 ! D24   D(3,4,6,8)             61.7337         -DE/DX =    0.0                 !
 ! D25   D(3,4,6,9)            -50.741          -DE/DX =    0.0                 !
 ! D26   D(5,4,6,7)             -7.5284         -DE/DX =    0.0                 !
 ! D27   D(5,4,6,8)           -131.9275         -DE/DX =    0.0                 !
 ! D28   D(5,4,6,9)            115.5978         -DE/DX =    0.0                 !
 ! D29   D(4,6,7,10)          -179.925          -DE/DX =    0.0                 !
 ! D30   D(4,6,7,11)           -60.0633         -DE/DX =    0.0                 !
 ! D31   D(4,6,7,12)            60.0781         -DE/DX =    0.0                 !
 ! D32   D(8,6,7,10)           -57.8758         -DE/DX =    0.0                 !
 ! D33   D(8,6,7,11)            61.9859         -DE/DX =    0.0                 !
 ! D34   D(8,6,7,12)          -177.8727         -DE/DX =    0.0                 !
 ! D35   D(9,6,7,10)            59.5361         -DE/DX =    0.0                 !
 ! D36   D(9,6,7,11)           179.3978         -DE/DX =    0.0                 !
 ! D37   D(9,6,7,12)           -60.4608         -DE/DX =    0.0                 !
 ! D38   D(3,15,16,22)          58.958          -DE/DX =    0.0                 !
 ! D39   D(3,15,16,23)         -59.5522         -DE/DX =    0.0                 !
 ! D40   D(3,15,16,24)         179.7318         -DE/DX =    0.0                 !
 ! D41   D(17,15,16,22)       -174.1762         -DE/DX =    0.0                 !
 ! D42   D(17,15,16,23)         67.3135         -DE/DX =    0.0                 !
 ! D43   D(17,15,16,24)        -53.4025         -DE/DX =    0.0                 !
 ! D44   D(18,15,16,22)        -66.6595         -DE/DX =    0.0                 !
 ! D45   D(18,15,16,23)        174.8303         -DE/DX =    0.0                 !
 ! D46   D(18,15,16,24)         54.1143         -DE/DX =    0.0                 !
 ! D47   D(3,15,17,25)          56.5191         -DE/DX =    0.0                 !
 ! D48   D(3,15,17,26)         -62.2397         -DE/DX =    0.0                 !
 ! D49   D(3,15,17,27)         177.2474         -DE/DX =    0.0                 !
 ! D50   D(16,15,17,25)        -70.191          -DE/DX =    0.0                 !
 ! D51   D(16,15,17,26)        171.0502         -DE/DX =    0.0                 !
 ! D52   D(16,15,17,27)         50.5373         -DE/DX =    0.0                 !
 ! D53   D(18,15,17,25)       -177.9099         -DE/DX =    0.0                 !
 ! D54   D(18,15,17,26)         63.3314         -DE/DX =    0.0                 !
 ! D55   D(18,15,17,27)        -57.1816         -DE/DX =    0.0                 !
 ! D56   D(3,15,18,19)         -62.295          -DE/DX =    0.0                 !
 ! D57   D(3,15,18,20)         177.0938         -DE/DX =    0.0                 !
 ! D58   D(3,15,18,21)          56.2783         -DE/DX =    0.0                 !
 ! D59   D(16,15,18,19)         63.5561         -DE/DX =    0.0                 !
 ! D60   D(16,15,18,20)        -57.0551         -DE/DX =    0.0                 !
 ! D61   D(16,15,18,21)       -177.8706         -DE/DX =    0.0                 !
 ! D62   D(17,15,18,19)        171.739          -DE/DX =    0.0                 !
 ! D63   D(17,15,18,20)         51.1278         -DE/DX =    0.0                 !
 ! D64   D(17,15,18,21)        -69.6877         -DE/DX =    0.0                 !
 --------------------------------------------------------------------------------
 GradGradGradGradGradGradGradGradGradGradGradGradGradGradGradGradGradGrad

 Leave Link  103 at Wed Oct  5 01:46:31 2022, MaxMem=  2952790016 cpu:               0.8 elap:               0.1
 (Enter /mnt/data/applications/G16/g16/l9999.exe)

 ----------------------------------------------------------------------

 Electric dipole moment (input orientation):
 (Debye = 10**-18 statcoulomb cm , SI units = C m)
                  (au)            (Debye)         (10**-30 SI)
   Tot        0.147012D+01      0.373668D+01      0.124642D+02
   x         -0.106040D+01     -0.269527D+01     -0.899047D+01
   y          0.101824D+01      0.258811D+01      0.863300D+01
   z          0.106349D-03      0.270313D-03      0.901669D-03

 Dipole polarizability, Alpha (input orientation).
 (esu units = cm**3 , SI units = C**2 m**2 J**-1)
 Alpha(0;0):
               (au)            (10**-24 esu)      (10**-40 SI)
   iso        0.200225D+03      0.296703D+02      0.330126D+02
   aniso      0.357140D+02      0.529226D+01      0.588844D+01
   xx         0.217894D+03      0.322885D+02      0.359259D+02
   yx         0.512802D+01      0.759893D+00      0.845495D+00
   yy         0.203575D+03      0.301667D+02      0.335650D+02
   zx         0.372051D+01      0.551323D+00      0.613429D+00
   zy         0.155025D+01      0.229723D+00      0.255602D+00
   zz         0.179205D+03      0.265555D+02      0.295470D+02

 ----------------------------------------------------------------------

 Dipole orientation:
     1         -1.45693453         -0.74167179         -3.97204045
     1         -1.18237894          2.54507809         -1.36065880
    45         -0.88923019         -0.57395389         -1.02466036
     6          1.52268709          2.65860075         -1.86468592
     8          2.72984441          3.70517956         -0.23574075
     6          2.06313247          3.11282366         -4.64601638
     6          3.96582133          5.20301523         -5.14273126
     1          0.25736178          3.48736301         -5.57247556
     1          2.71198499          1.31015991         -5.42140769
     1          4.25856608          5.42522330         -7.17223591
     1          3.31101628          7.00635815         -4.38737356
     1          5.78560816          4.78445189         -4.27203462
     6          1.48518422         -3.26161390         -1.56494788
     8          2.89450391         -4.83151703         -1.97948484
    15         -0.08388900         -0.14619478          3.40263151
     6         -0.94693424          2.88843095          4.74147239
     6          3.18829773         -0.56809496          4.33786122
     6         -1.75994263         -2.39790985          5.38339625
     1         -3.79277805         -2.11827538          5.18138716
     1         -1.24662230         -2.17629981          7.36951709
     1         -1.30896580         -4.31585217          4.77621160
     1         -2.95953459          3.21572741          4.43845813
     1          0.11710537          4.36227585          3.77377516
     1         -0.54075719          2.95714941          6.76329790
     1          4.35843063          0.76570472          3.29336869
     1          3.79091253         -2.48458098          3.87349414
     1          3.43243369         -0.25758446          6.36289829
     6         -4.29814644         -1.86876351         -0.63143325
     8         -6.29280246         -2.65723233         -0.53395187

 Electric dipole moment (dipole orientation):
 (Debye = 10**-18 statcoulomb cm , SI units = C m)
                  (au)            (Debye)         (10**-30 SI)
   Tot        0.147012D+01      0.373668D+01      0.124642D+02
   x          0.000000D+00      0.000000D+00      0.000000D+00
   y          0.000000D+00      0.000000D+00      0.000000D+00
   z          0.147012D+01      0.373668D+01      0.124642D+02

 Dipole polarizability, Alpha (dipole orientation).
 (esu units = cm**3 , SI units = C**2 m**2 J**-1)
 Alpha(0;0):
               (au)            (10**-24 esu)      (10**-40 SI)
   iso        0.200225D+03      0.296703D+02      0.330126D+02
   aniso      0.357140D+02      0.529226D+01      0.588844D+01
   xx         0.200342D+03      0.296876D+02      0.330320D+02
   yx         0.183161D+02      0.271417D+01      0.301992D+01
   yy         0.194431D+03      0.288118D+02      0.320574D+02
   zx        -0.626111D+01     -0.927801D+00     -0.103232D+01
   zy        -0.419326D+01     -0.621378D+00     -0.691376D+00
   zz         0.205901D+03      0.305113D+02      0.339485D+02

 ----------------------------------------------------------------------
 1\1\GINC-KIMIK2161\Freq\RwB97XD\Gen\C8H16O3P1Rh1\DGARAY\05-Oct-2022\0\
 \#P Geom=AllCheck Guess=TCheck SCRF=Check GenChk RwB97XD/ChkBas Freq\\
 Auto-generated job for TS4t\\0,1\H,0.9501644898,-2.0451830452,-0.28442
 10414\H,0.8919727088,-0.1105200936,-1.3841824858\Rh,0.0136259383,-0.76
 86580097,-0.129089576\C,1.8011281326,0.4510902072,-0.3932969094\O,1.76
 25034371,1.6554058074,-0.3160589433\C,3.1200336849,-0.3003901429,-0.35
 35990816\C,4.3452271793,0.5960388098,-0.3934653292\H,3.1142218873,-1.0
 141901737,-1.1801661782\H,3.1041902522,-0.9093994243,0.5547472863\H,5.
 2529441361,-0.0092448583,-0.3632471008\H,4.3673856794,1.1963188172,-1.
 3043334489\H,4.3642439064,1.2809845719,0.4545851943\C,0.1121783693,-1.
 0790131529,1.7622744934\O,0.2131958258,-1.2906439204,2.875590695\P,-1.
 3587157173,1.1847021708,0.0216934028\C,-1.2866464515,2.2828082165,-1.4
 199261165\C,-0.9964788171,2.2763264247,1.4253447928\C,-3.1355262898,0.
 8476447403,0.2073237711\H,-3.5005931775,0.3132141266,-0.6711008189\H,-
 3.704716427,1.7723113726,0.3221077536\H,-3.2962841979,0.216237328,1.08
 24000503\H,-1.5954232659,1.7298294767,-2.3080999807\H,-0.2575289168,2.
 6152118935,-1.5540164162\H,-1.9370835587,3.1501412025,-1.2899991833\H,
 0.0518648605,2.5700695591,1.3830762601\H,-1.1728669133,1.7377511941,2.
 3577724\H,-1.6253624675,3.1685747405,1.4047998756\C,-1.3442059631,-1.8
 821938324,-0.9556714713\O,-2.0962493243,-2.5908500059,-1.428030894\\Ve
 rsion=AM64L-G16RevA.03\State=1-A\HF=-992.2088588\RMSD=2.352e-09\RMSF=5
 .730e-06\ZeroPoint=0.2224272\Thermal=0.2411647\Dipole=-1.0604024,1.018
 24,0.0001063\DipoleDeriv=-0.1548366,0.4712769,0.0571591,0.402666,-0.44
 1454,-0.0423814,0.0698053,-0.1046159,0.1392729,-0.0035811,-0.0812845,-
 0.1140148,-0.0656946,0.0990415,-0.047065,0.2624263,0.1873537,-0.057147
 4,-1.8151703,-1.0025279,-0.2807011,-0.7658871,-1.108527,-0.0146608,-0.
 4165642,-0.0228641,-2.0892877,1.9657294,0.2907636,-0.0067408,0.8069892
 ,1.8364915,-0.068862,-0.2564957,-0.1570059,0.5108002,-1.0099938,-0.061
 6752,0.0722726,-0.6708241,-1.6894654,0.1057492,0.0309935,-0.0096347,-0
 .3418081,-0.2807508,0.1661346,0.0133923,0.1375578,-0.1171541,0.0469193
 ,0.0117104,0.0797082,0.0587038,-0.0419747,-0.0886626,0.0147132,0.03728
 66,0.1088337,-0.0235022,0.0319733,-0.009634,0.1021146,-0.034569,-0.061
 4381,-0.035851,-0.0444531,0.0136497,-0.0693896,-0.014555,-0.0963724,-0
 .0032039,0.0015986,-0.0356395,0.0480122,-0.0750818,0.0253468,0.0622533
 ,0.0453873,0.0803235,-0.0230051,-0.180791,0.0534581,0.0080166,0.093350
 1,-0.0105282,0.0101005,-0.0051504,0.0075416,0.088486,0.0468163,0.00221
 4,-0.0315264,-0.0705524,-0.0013802,0.0918133,0.0225303,0.1001,-0.08205
 95,0.0699984,0.0071761,0.0304057,-0.0694659,-0.0185919,-0.0846704,-0.0
 179635,-0.1006794,-0.0598472,0.6861453,-0.0226211,0.2643842,-0.0110651
 ,0.7353423,-0.4952045,0.2638299,-0.5542702,2.8362854,-0.2695351,0.0341
 488,-0.2072941,-0.0098093,-0.3471411,0.385892,-0.0584663,0.5174708,-2.
 1498757,1.3510929,-0.1926794,0.0179331,-0.188655,1.2935303,-0.016891,-
 0.0383641,0.0332058,1.1355755,-0.345073,0.108073,-0.0274686,0.0631149,
 -0.3921652,0.1089382,0.0590887,0.005652,-0.294674,-0.3348736,0.0875845
 ,0.0167444,0.0445056,-0.365449,-0.0948356,-0.0496739,-0.0344877,-0.293
 0707,-0.4052609,-0.0125893,0.0172121,0.1348082,-0.3298124,0.001487,0.0
 167242,-0.0023772,-0.2179026,0.0547386,-0.0394697,-0.0379714,-0.040583
 ,0.055668,-0.0705133,-0.0328593,-0.0583049,-0.0028097,-0.0903936,0.143
 7871,0.0203656,0.0909733,-0.0285327,-0.0178546,0.0265494,-0.0215542,0.
 1036695,0.0712658,-0.0301141,0.0229147,-0.023994,0.0417822,0.0790413,0
 .0199214,0.0734115,-0.006179,0.0904566,-0.0085402,-0.0350752,-0.034215
 1,0.0514508,-0.0450959,-0.0338942,-0.0561173,-0.034641,0.0218285,-0.06
 34364,0.0337863,-0.0581867,0.1041281,0.0106367,0.0502423,-0.0165131,0.
 0801435,0.0323677,0.111474,0.0042048,0.1399466,-0.108332,0.0292468,-0.
 0274781,0.0737661,0.0559617,-0.0032697,-0.0570426,-0.0212918,-0.054769
 5,0.1004258,-0.0044989,-0.0335708,0.027525,0.0902158,0.0965928,-0.0023
 316,0.0087988,-0.0280838,0.0496635,0.0524353,0.0144175,0.055579,-0.049
 2064,0.0434741,0.0926327,-0.0023726,0.1269677,-0.110654,-0.046146,0.02
 95392,-0.0851106,0.0607469,1.588164,1.0856645,0.7272425,1.0783036,1.65
 07277,0.7324931,0.6161499,0.6374048,1.0475826,-1.1501959,-0.8943357,-0
 .5772504,-0.945149,-1.096895,-0.5754347,-0.5862537,-0.5495003,-0.60484
 05\Polar=217.8939008,5.1280151,203.5750983,3.7205116,1.5502508,179.205
 3193\Quadrupole=5.0390552,-3.2887896,-1.7502656,-7.9706087,-1.4361141,
 0.2135957\PG=C01 [X(C8H16O3P1Rh1)]\NImag=1\\0.07449304,-0.06265397,0.1
 0332072,-0.00917995,0.01000245,0.02112796,0.00264869,0.00106842,-0.004
 40704,0.03056288,-0.00037395,0.00004030,0.00169318,0.00119990,0.033359
 99,0.00092932,0.00168707,0.00179838,-0.04518318,-0.03435013,0.09286581
 ,-0.07491802,0.05064166,0.00611040,-0.00783738,0.00411194,0.06166969,0
 .27437508,0.04845989,-0.09306900,-0.00649130,0.00736840,-0.01235768,0.
 04235559,-0.04937143,0.31625634,0.00758589,-0.00919727,-0.03770539,0.0
 1183524,0.00998691,-0.07433481,0.00208606,-0.00231247,0.30741012,0.002
 92552,0.00068736,0.00223025,-0.01807861,0.00602476,-0.01440713,-0.0362
 7955,0.00858132,0.00465697,0.35343145,-0.00512149,-0.00290200,0.000715
 98,0.01416958,-0.00463863,-0.00147325,0.02793116,-0.02393352,-0.003967
 99,-0.09237053,0.83940357,-0.00183361,-0.00230161,0.00336624,0.0472333
 5,0.03390755,-0.00717034,-0.05753377,-0.03826360,0.00822903,0.01696848
 ,0.04277811,0.13033521,-0.00053925,-0.00051136,-0.00033196,0.00504782,
 -0.00834708,0.00046057,-0.00135986,-0.02415947,0.00361172,-0.09041261,
 0.01445097,-0.00937047,0.09585904,0.00002816,0.00059089,-0.00021230,-0
 .01667769,-0.02073986,-0.00620642,-0.02516315,-0.02575897,0.00506338,0
 .06214250,-0.70743212,-0.04595459,-0.03758439,0.79950176,0.00014975,0.
 00043320,-0.00022140,-0.01229076,-0.01770194,0.00005821,0.01134211,0.0
 0812187,0.00207595,-0.00415450,-0.04354624,-0.05523889,0.00552798,0.05
 531089,0.03445385,-0.00191853,-0.00008978,0.00023693,-0.00383507,0.003
 76753,0.00100274,-0.01568431,-0.00097707,0.00220907,-0.16502862,0.0379
 6255,-0.01085981,0.00496843,0.01615382,0.00250195,0.45353583,-0.000258
 96,-0.00067810,0.00033153,0.00121200,0.00563540,-0.00116564,-0.0119043
 2,0.00072080,0.00541088,0.02560164,-0.07985774,-0.00322394,0.04027669,
 -0.04869226,-0.00026022,0.02430882,0.54233120,0.00044922,0.00026953,-0
 .00019540,-0.01534477,-0.00404478,-0.00024740,0.01095495,0.00531459,-0
 .00234662,-0.00098000,-0.00482279,-0.07110109,0.00282323,0.00120761,0.
 02166098,-0.00062424,0.01252484,0.55828196,0.00057960,-0.00013677,-0.0
 0003307,0.00014494,0.00078888,0.00052265,-0.00306616,0.00054147,0.0010
 4126,-0.03337483,-0.01176835,0.00019993,0.00173299,-0.00497044,-0.0007
 5463,-0.15629427,-0.06173396,0.00356159,0.51633534,-0.00075570,0.00039
 195,0.00007112,0.00078234,-0.00092440,0.00023220,0.00344932,0.00035023
 ,-0.00131769,0.00807951,0.01193765,0.00051095,0.00190415,0.00085054,-0
 .00019607,-0.05852521,-0.12964793,0.00073602,-0.04467378,0.54903865,0.
 00003869,0.00003960,-0.00000923,-0.00144864,-0.00019094,-0.00006942,0.
 00132349,0.00064614,0.00096719,-0.00162354,-0.00009269,0.00146340,-0.0
 0037661,-0.00035923,-0.00201366,0.00376518,0.00097470,-0.08214337,0.00
 234514,0.00220445,0.57802557,-0.00022050,-0.00025571,0.00008271,-0.000
 03733,0.00056572,-0.00008215,-0.00275469,-0.00112527,-0.00002968,0.002
 86535,0.01917448,0.02305268,-0.00444266,0.00201452,-0.00343290,-0.0472
 9487,-0.00039891,0.00282852,-0.00055983,-0.01782433,-0.02146041,0.0547
 5522,-0.00034121,0.00002938,-0.00001766,-0.00121571,-0.00045119,0.0003
 3284,0.00015610,0.00095229,0.00045846,-0.00085521,-0.01531892,-0.01326
 643,0.00436101,-0.00099482,0.00146834,0.00012329,-0.15450024,-0.135941
 06,0.00039947,-0.01128273,-0.01326791,0.00098110,0.17063803,-0.0005199
 1,0.00048800,-0.00008334,-0.00035977,0.00000406,0.00034998,-0.00007278
 ,-0.00003446,0.00075585,-0.00411014,0.00287814,0.00052327,0.00048317,0
 .00011265,-0.00072019,0.00410712,-0.13449847,-0.19977724,-0.00028298,0
 .00285067,0.00307223,-0.00053439,0.14515119,0.21517212,-0.00011403,-0.
 00024126,-0.00016503,-0.00382972,-0.00162910,0.00009577,0.00059209,0.0
 0088184,-0.00077566,0.00217129,0.01556936,-0.02317851,-0.00307539,0.00
 166989,0.00329087,-0.04480498,0.00074027,-0.00281938,-0.00105477,-0.01
 576458,0.02326302,-0.00005860,-0.00128693,0.00164894,0.05330845,-0.000
 32935,-0.00024112,-0.00000982,0.00127483,0.00026147,0.00038924,-0.0025
 1230,-0.00041465,-0.00115311,0.00078056,-0.01283745,0.01454830,0.00329
 615,-0.00097368,-0.00213080,-0.00146718,-0.12113906,0.12541937,-0.0005
 5853,-0.01048994,0.01522736,-0.00123367,0.01140259,-0.01771998,0.00252
 555,0.13465816,0.00056110,-0.00040748,-0.00024109,-0.00046546,0.000145
 29,0.00005439,0.00082392,0.00041724,0.00122535,0.00184748,-0.00041081,
 -0.00083003,-0.00043246,-0.00057918,-0.00102867,-0.00065543,0.12315088
 ,-0.22886719,0.00003366,-0.00133743,0.00178437,-0.00117475,0.01389751,
 -0.02130992,-0.00117060,-0.13440179,0.24710848,0.00020133,-0.00004079,
 -0.00001863,-0.00015268,0.00029502,0.00017091,-0.00172684,-0.00027138,
 0.00047789,-0.00118014,-0.00340273,-0.00016960,0.00027090,-0.00083542,
 -0.00005033,-0.02225908,0.01591132,-0.00058112,-0.23027390,0.12488394,
 -0.00618713,0.00077214,0.00012221,-0.00065131,0.00079894,0.00018834,0.
 00060650,0.25110219,0.00015151,-0.00004463,0.00000329,-0.00019100,0.00
 023769,-0.00004318,-0.00085338,0.00011301,0.00033540,-0.00265958,-0.00
 414491,-0.00009206,0.00153896,0.00126193,0.00000378,-0.02028593,0.0117
 2673,-0.00045321,0.12644961,-0.13210741,0.00426131,0.00073769,0.000816
 38,-0.00021115,0.00079203,0.00076779,0.00012158,-0.13465217,0.14187214
 ,0.00000110,0.00000126,0.00001599,-0.00003513,-0.00004940,-0.00002318,
 0.00005684,0.00006095,-0.00007399,0.00022304,-0.00002665,0.00067763,0.
 00011300,0.00005395,0.00036499,0.00064956,-0.00064703,-0.00117678,-0.0
 0625912,0.00438664,-0.04850728,-0.00021158,0.00029028,0.00011262,0.000
 13688,-0.00039196,0.00011769,0.00672311,-0.00481059,0.04621940,-0.0001
 1937,0.00007974,0.00003074,0.00027631,0.00003116,0.00003220,-0.0002918
 7,-0.00001688,-0.00030956,0.00112914,-0.00183471,0.00067662,-0.0000276
 6,0.00130701,-0.00000584,-0.00086303,-0.01488471,0.02455830,-0.0473519
 1,-0.00080887,0.00087672,0.00099673,0.00048421,-0.00040171,-0.00433287
 ,-0.00305534,-0.00023029,0.00114594,0.01339356,-0.02342405,0.05025880,
 -0.00006205,0.00007244,0.00003443,-0.00012165,-0.00003778,0.00002288,-
 0.00036782,-0.00015953,-0.00020373,0.00144881,-0.00007624,-0.00035022,
 -0.00006887,0.00077963,-0.00004051,-0.00033826,-0.01135333,0.01668399,
 -0.00185450,-0.12660048,0.12228432,0.00058663,0.00009882,-0.00003127,-
 0.00350110,-0.00142765,-0.00049067,-0.00112514,-0.00957979,0.01460901,
 0.00509797,0.13609523,0.00003827,-0.00004458,-0.00002040,0.00022880,0.
 00003792,-0.00003303,-0.00000938,-0.00016809,0.00010614,-0.00048073,0.
 00170724,-0.00007606,-0.00064884,-0.00130698,0.00048685,0.00073228,-0.
 00098067,0.00100318,0.00272933,0.12267870,-0.23793924,0.00046972,0.000
 12860,0.00064399,-0.00023393,-0.00010511,0.00141037,-0.00036677,-0.001
 14132,0.00044803,-0.00214568,-0.13521173,0.25412888,-0.00013093,0.0000
 9379,0.00002781,-0.00015016,0.00000132,0.00002783,0.00027796,0.0002709
 0,0.00012530,0.00067706,-0.00178472,-0.00074120,-0.00037176,0.00141348
 ,0.00022474,-0.00010699,-0.01755303,-0.02325208,-0.04685574,-0.0006784
 8,-0.00015581,-0.00443230,-0.00287316,0.00064807,0.00110615,0.00054359
 ,0.00036935,0.00107392,0.01562302,0.02201837,-0.00092786,0.00016157,-0
 .00029393,0.04986764,-0.00006854,0.00008625,-0.00000604,0.00003608,0.0
 0001633,0.00003360,-0.00032759,-0.00011166,0.00036810,0.00124637,-0.00
 050670,-0.00005485,0.00049850,0.00094042,0.00044972,-0.00033970,-0.012
 97915,-0.01538770,-0.00211771,-0.15190152,-0.13158145,-0.00349429,-0.0
 0136738,0.00076483,0.00056629,0.00019058,0.00006495,-0.00103002,-0.010
 75929,-0.01346161,0.00017540,0.01216396,0.01434452,0.00480768,0.164196
 57,-0.00003369,0.00003768,0.00001417,0.00011576,0.00010862,0.00000817,
 -0.00012252,0.00010860,0.00000342,0.00037835,-0.00203019,-0.00015385,0
 .00096407,0.00131562,0.00037290,-0.00092250,0.00229556,0.00228961,-0.0
 0222231,-0.13194287,-0.21453117,0.00061090,0.00038575,0.00131076,-0.00
 052439,-0.00000237,0.00074422,0.00049742,0.00233077,0.00178468,0.00025
 043,-0.01726797,-0.02011204,0.00100483,0.14471273,0.22830103,0.0031547
 0,0.00038964,0.00775882,-0.00826635,-0.01006096,0.00377506,-0.02908022
 ,0.02593004,-0.01323913,-0.00282611,-0.01227556,0.02641152,0.00003142,
 0.00587875,-0.00508504,0.00109371,0.00191504,-0.00297473,0.00044269,-0
 .00057871,-0.00047661,0.00036962,-0.00053880,-0.00020359,-0.00126950,0
 .00058578,-0.00004167,0.00027946,0.00014173,0.00000284,0.00014381,0.00
 016624,-0.00004922,-0.00008985,0.00000062,0.00004419,0.08914738,0.0018
 8423,0.00231599,-0.00908993,-0.01168256,-0.00087864,0.00439843,0.02471
 776,-0.04791304,0.00233145,-0.00916796,-0.00817281,0.02045139,0.003906
 46,0.00776849,-0.00334122,0.00192903,0.00204622,-0.00340439,0.00070092
 ,-0.00096546,-0.00023072,0.00074186,-0.00022358,-0.00017526,-0.0005946
 0,0.00034590,0.00026549,0.00043961,0.00019240,-0.00005093,-0.00001430,
 0.00002170,0.00006984,-0.00015413,0.00008562,-0.00002291,-0.02524100,0
 .12304498,-0.00045377,0.00128286,-0.00090093,0.01336546,0.01096653,-0.
 01707651,0.00106684,0.00469538,-0.06972892,0.00665022,0.01775953,-0.01
 265068,-0.00605854,-0.01527058,0.00128246,-0.00392332,-0.00613553,0.00
 231667,-0.00153692,0.00197980,-0.00027746,-0.00005726,0.00021448,-0.00
 042057,0.00023710,0.00060195,0.00011010,-0.00098549,-0.00051243,0.0000
 8207,0.00012270,-0.00015500,-0.00008033,-0.00005559,-0.00053024,-0.000
 01655,0.09996941,-0.20930070,1.19500246,-0.00087538,-0.00029515,-0.002
 09514,0.00365809,0.00418320,-0.00240832,0.00968203,-0.00817177,-0.0007
 8757,0.00044250,0.00289168,-0.00895701,0.00009051,-0.00120088,0.001804
 85,-0.00019776,-0.00066846,0.00111433,-0.00009505,0.00017356,0.0001092
 5,-0.00010861,0.00020837,0.00006304,0.00031159,-0.00012780,-0.00004231
 ,-0.00004754,-0.00003622,-0.00000388,-0.00003324,-0.00003400,0.0000187
 5,0.00003774,0.00002826,-0.00001463,-0.04464219,0.01925974,-0.09537125
 ,0.02745731,-0.00067003,-0.00047625,0.00228335,0.00390180,-0.00004742,
 -0.00068412,-0.00790167,0.01352137,0.01467965,0.00418059,0.00486319,-0
 .00755356,-0.00157150,-0.00385832,0.00120811,-0.00089549,-0.00086752,0
 .00124714,-0.00028736,0.00042743,0.00010241,-0.00028391,0.00007128,0.0
 0001642,0.00015890,-0.00016828,-0.00002079,-0.00021360,-0.00008745,0.0
 0002619,-0.00000322,-0.00002140,-0.00003101,0.00005159,-0.00006144,0.0
 0000535,0.01947976,-0.07370881,0.19803011,-0.01906602,0.05804779,0.000
 53716,-0.00053030,0.00329315,-0.00089453,-0.00116341,-0.00030284,-0.00
 550968,0.01522356,-0.06656323,-0.01070413,-0.01468318,0.00688714,0.004
 53579,0.01257239,-0.00034743,0.00264236,0.00255514,-0.00128765,0.00084
 552,-0.00128555,-0.00005120,0.00028927,-0.00000531,0.00022903,0.000386
 82,0.00004718,-0.00027207,0.00069095,0.00028202,-0.00006157,-0.0000435
 7,0.00010336,0.00008842,-0.00000173,0.00035151,-0.00000772,-0.09573074
 ,0.19642481,-1.07241665,0.09985165,-0.20976802,1.12245242,0.00192276,0
 .00886697,0.00041671,-0.00001695,0.00202189,0.00189698,-0.04933129,0.0
 0899955,0.00114051,-0.00921245,0.00519164,0.00006031,0.00244037,-0.000
 78522,-0.00002398,0.00007648,-0.00054712,0.00034552,0.00012822,-0.0003
 5355,-0.00004302,0.00017883,-0.00003268,-0.00009077,0.00022516,0.00002
 076,-0.00001565,0.00026435,0.00002343,-0.00000128,-0.00001460,0.000098
 84,-0.00001219,-0.00007198,0.00006513,-0.00001118,-0.00055069,0.006952
 52,-0.00910237,0.00044016,-0.00242006,0.00599756,0.34547043,0.00903420
 ,-0.00513281,-0.00133229,0.00055303,-0.00026796,0.00135346,0.00819455,
 -0.05592686,-0.00269182,0.00731123,0.01399445,-0.00248126,-0.00047120,
 -0.01032447,-0.00013290,-0.00104506,-0.00142588,0.00060034,-0.00052128
 ,0.00059088,0.00014796,-0.00014558,-0.00007984,-0.00001973,0.00010301,
 -0.00030179,0.00008795,-0.00029893,-0.00017301,0.00000392,-0.00006651,
 -0.00007496,0.00005757,-0.00000179,-0.00007291,-0.00006318,0.00798346,
 -0.00580492,0.01444476,-0.00245024,0.00219999,-0.00857038,0.01123278,0
 .34490833,0.00021136,-0.00108399,0.00718241,0.00090645,-0.00476182,0.0
 0077246,0.00041300,-0.00046100,-0.04651981,0.00290769,0.00112573,0.005
 32005,-0.00037337,0.00007935,-0.00332804,-0.00007484,0.00029009,-0.000
 28848,0.00000145,0.00001383,0.00011357,0.00013792,0.00003717,0.0000578
 8,-0.00026812,-0.00009549,0.00011937,-0.00003686,0.00001047,-0.0000065
 0,0.00001981,0.00000457,-0.00003732,-0.00003118,-0.00004844,-0.0000154
 1,-0.00571645,0.00936968,0.00358511,0.00123690,-0.00220747,-0.00125304
 ,0.00146617,-0.00215092,0.36078042,-0.00202105,0.00110906,0.00124845,-
 0.00009550,-0.00049008,0.00001059,0.00361136,0.00541522,-0.00736905,0.
 00147035,0.00082307,0.00033787,-0.00044907,-0.00082680,-0.00050120,-0.
 00006990,0.00008572,0.00004128,0.00002150,0.00001084,0.00002103,0.0000
 0229,0.00002318,-0.00005260,-0.00003277,-0.00006348,0.00010457,-0.0000
 3976,-0.00000508,0.00000212,-0.00002428,-0.00003210,0.00002066,0.00000
 063,-0.00002607,-0.00001141,-0.00036138,0.00009683,0.00221503,0.000119
 18,-0.00007511,-0.00126117,-0.04823402,0.00424535,-0.00830178,0.553172
 48,0.00211668,-0.00161676,-0.00158482,-0.00014745,0.00094530,-0.000254
 27,-0.00154222,-0.00487208,0.00996463,-0.00217417,-0.00137241,-0.00050
 599,0.00102063,0.00155423,0.00107683,0.00015558,0.00004054,-0.00004827
 ,0.00001283,-0.00004916,-0.00004218,-0.00001564,-0.00003374,0.00005592
 ,0.00003244,0.00009795,-0.00014884,0.00005537,0.00001497,-0.00000133,0
 .00002975,0.00003737,-0.00002378,0.00000823,0.00003089,0.00001996,0.00
 006396,-0.00050063,-0.00300194,-0.00000649,0.00008839,0.00173124,-0.00
 619129,-0.09849278,0.06910466,-0.00455764,0.49929719,0.00060759,-0.000
 48080,-0.00061988,0.00027286,0.00051031,-0.00013080,-0.00040125,-0.001
 65629,0.00382993,-0.00108677,-0.00158597,-0.00062946,-0.00105648,0.001
 96031,0.00011647,0.00006010,0.00019801,0.00000159,0.00002361,-0.000001
 04,-0.00003929,-0.00002575,0.00003356,0.00003382,-0.00000371,0.0000213
 6,-0.00003939,0.00000854,0.00000808,0.00000534,-0.00000002,-0.00000014
 ,0.00000319,0.00001783,0.00001540,0.00001563,0.00004493,-0.00016444,-0
 .00135916,-0.00002139,0.00002386,0.00075594,0.00491460,0.05235080,-0.1
 2020152,0.00765309,0.06861464,0.45735379,-0.00204206,0.00127436,-0.000
 55077,0.00014260,0.00029973,-0.00012279,0.00406543,0.00508991,0.006093
 28,0.00152421,0.00108625,-0.00072755,-0.00028437,-0.00133105,0.0002089
 3,-0.00009158,-0.00009405,0.00010873,0.00000008,0.00003793,0.00001934,
 -0.00004122,-0.00002365,-0.00007683,0.00004651,-0.00000648,0.00006290,
 -0.00004159,-0.00001490,-0.00000194,-0.00001376,-0.00002717,0.00001319
 ,-0.00000854,-0.00002756,-0.00001867,0.00070457,-0.00161523,0.00224290
 ,-0.00037485,0.00064684,-0.00148742,-0.05086931,-0.00714478,-0.0066550
 4,0.00198286,0.00228624,0.00158864,0.54688702,0.00212467,-0.00176304,0
 .00087321,-0.00012786,-0.00042035,0.00001428,-0.00261157,-0.00457426,-
 0.00780571,-0.00197886,-0.00115790,0.00110235,0.00082095,0.00179130,-0
 .00078718,0.00009833,0.00013436,-0.00013541,0.00002052,-0.00007313,-0.
 00001957,0.00006909,0.00003936,0.00009986,-0.00006014,-0.00000436,-0.0
 0005623,0.00005768,0.00002118,-0.00000148,0.00001989,0.00003101,-0.000
 02179,0.00000647,0.00003014,0.00002136,-0.00096900,0.00155783,-0.00343
 769,0.00054029,-0.00057362,0.00194821,-0.02001141,-0.09817200,-0.06639
 966,0.00477636,0.00958885,0.01331381,-0.01768289,0.49988121,-0.0002171
 1,0.00029991,-0.00025563,0.00006420,0.00011027,0.00006620,-0.00033290,
 0.00040284,0.00212464,0.00049767,0.00135074,-0.00049324,0.00095818,-0.
 00175920,-0.00059205,-0.00004809,-0.00023805,0.00014977,-0.00002924,-0
 .00001166,-0.00002218,0.00000499,0.00000751,-0.00001520,0.00005339,-0.
 00005396,0.00002042,0.00000271,-0.00000680,0.00000501,-0.00001646,-0.0
 0000342,0.00001775,0.00000815,0.00001170,-0.00000180,0.00009428,-0.000
 21176,0.00035813,-0.00006973,0.00018240,-0.00031024,-0.01918305,-0.051
 78056,-0.11807364,-0.00516849,-0.01402488,-0.01721275,-0.02504303,-0.0
 6548353,0.46403372,-0.00025761,0.00162408,0.00008437,0.00007633,0.0000
 7535,-0.00002626,-0.00436554,-0.00163957,0.00059025,0.00036779,0.00043
 706,-0.00024226,-0.00024182,-0.00018876,0.00011634,-0.00015862,-0.0000
 7227,0.00002149,-0.00002626,0.00004569,0.00000532,-0.00000861,-0.00000
 595,-0.00002986,0.00001112,-0.00001783,0.00003833,-0.00004159,-0.00000
 693,0.00000150,-0.00000695,-0.00001686,0.00000888,0.00000159,-0.000013
 05,-0.00000666,0.00070274,-0.00069012,0.00173720,-0.00012882,0.0002179
 9,-0.00094476,-0.16645433,-0.02583926,0.01208581,-0.00158895,0.0006943
 0,0.00010768,-0.00658890,-0.00029634,0.00079101,0.41425240,0.00035024,
 -0.00351524,-0.00028699,-0.00015344,-0.00013294,0.00002906,0.01034931,
 0.00416694,-0.00037399,-0.00102400,-0.00197967,0.00058446,0.00070191,0
 .00152084,-0.00014988,0.00033977,0.00030411,-0.00008746,0.00008136,-0.
 00011328,-0.00002131,0.00000663,0.00001340,0.00008839,-0.00003873,0.00
 002771,-0.00009694,0.00007727,0.00003024,-0.00000183,0.00002258,0.0000
 3309,-0.00002200,0.00001004,0.00003186,0.00002052,-0.00141522,0.001240
 32,-0.00443302,0.00043228,-0.00051657,0.00255229,-0.00401160,-0.048600
 18,0.00049611,-0.01680876,-0.00391289,0.00259394,-0.01615930,-0.003197
 83,0.00072406,-0.02738334,0.54461349,0.00001905,-0.00025580,-0.0002941
 6,-0.00000469,0.00017179,0.00007223,0.00093982,0.00028009,0.00185199,-
 0.00015638,-0.00016347,-0.00030676,0.00004822,0.00002111,0.00051748,0.
 00003405,0.00001143,-0.00005017,0.00000702,-0.00001089,-0.00002344,0.0
 0000237,0.00000448,0.00000721,-0.00000151,-0.00000503,-0.00000812,0.00
 000460,0.00000183,0.00000424,-0.00000686,-0.00000257,0.00001007,0.0000
 1026,0.00001173,0.00000623,0.00007986,-0.00038279,-0.00047294,0.000016
 34,0.00003286,0.00031578,0.01239764,0.00255256,-0.05170146,0.02313783,
 0.00547938,-0.00118267,-0.02275095,-0.00520133,0.00311087,0.01422796,0
 .00279849,0.54764938,-0.00014220,-0.00008663,-0.00011086,-0.00003144,0
 .00001225,-0.00007056,0.00170196,0.00040354,0.00118475,-0.00025599,-0.
 00057784,0.00003969,-0.00001968,0.00044041,0.00012748,0.00004811,0.000
 05614,-0.00003764,0.00001600,-0.00002036,-0.00001038,0.00000368,0.0000
 0424,0.00000586,-0.00000473,0.00000905,-0.00000788,0.00000978,0.000007
 17,0.00000070,0.00000159,0.00000149,-0.00000014,0.00000478,0.00000600,
 0.00000499,-0.00008083,-0.00012583,-0.00051213,0.00005008,-0.00001487,
 0.00033097,-0.00659225,-0.01186158,-0.02155535,0.00165224,0.00060729,0
 .00002887,-0.00683795,-0.00104083,0.00153430,-0.07385648,-0.04722897,-
 0.08064353,0.07773640,-0.00003181,0.00002844,-0.00001258,-0.00001045,0
 .00003085,0.00000048,-0.00000617,-0.00012336,0.00021276,0.00002416,-0.
 00000745,-0.00004967,-0.00001763,-0.00004155,0.00006007,-0.00000388,-0
 .00000662,-0.00000620,-0.00000232,0.00000424,-0.00000317,-0.00000194,0
 .00000086,-0.00000203,-0.00000027,0.00000048,0.00000176,-0.00000289,-0
 .00000088,0.00000026,-0.00000107,-0.00000254,0.00000205,0.00000151,0.0
 0000002,0.00000055,0.00005727,-0.00003119,0.00016136,-0.00002541,0.000
 01880,-0.00008064,-0.00086998,-0.00402966,-0.00327200,0.00044785,-0.00
 000083,0.00006543,-0.00174432,0.00009172,0.00020883,-0.04374028,-0.111
 07884,-0.11071602,0.04823934,0.11805729,-0.00003233,0.00005251,-0.0000
 1001,-0.00001079,-0.00001018,-0.00004340,0.00024659,0.00024005,0.00030
 116,-0.00007433,-0.00011411,0.00006468,0.00003311,0.00012838,-0.000014
 99,0.00001334,0.00001378,-0.00001190,0.00000443,-0.00000539,-0.0000019
 3,0.00000224,-0.00000142,0.00000112,-0.00000290,0.00000333,-0.00000173
 ,0.00000299,0.00000145,-0.00000039,0.00000137,0.00000144,-0.00000069,-
 0.00000041,0.00000108,0.00000037,0.00000580,-0.00001702,-0.00025756,0.
 00000934,-0.00000653,0.00015393,0.00194397,0.00226967,0.00181382,-0.00
 037776,-0.00008263,0.00030444,0.00114478,0.00053602,0.00015535,-0.0744
 1555,-0.10884000,-0.22274750,0.08050652,0.11941780,0.24014864,-0.00027
 889,0.00134698,0.00012436,0.00005263,0.00001622,-0.00004743,-0.0024243
 7,-0.00144830,0.00007585,0.00045826,0.00054184,-0.00017137,-0.00032965
 ,-0.00041231,0.00004310,-0.00013547,-0.00008880,0.00002455,-0.00002699
 ,0.00004569,0.00000820,-0.00000548,-0.00000638,-0.00003379,0.00000954,
 -0.00001112,0.00003934,-0.00003568,-0.00000891,0.00000056,-0.00000669,
 -0.00001476,0.00000824,-0.00000112,-0.00001442,-0.00000760,0.00047757,
 -0.00057784,0.00176938,-0.00015860,0.00022047,-0.00102893,-0.01637767,
 0.02093029,0.00274094,0.00176597,0.00042966,-0.00071933,0.00213650,0.0
 0054074,0.00021109,-0.11665128,0.12771809,0.01515838,0.00611542,-0.010
 59698,-0.00036634,0.12275967,-0.00008763,0.00023280,0.00003382,0.00003
 693,-0.00000979,-0.00004993,0.00000199,0.00003505,0.00001320,-0.000091
 94,-0.00016175,0.00001853,-0.00009736,0.00013552,0.00002482,0.00000866
 ,0.00001457,-0.00000686,0.00000507,-0.00000476,-0.00000157,0.00000048,
 0.00000163,-0.00000286,-0.00000292,0.00000405,0.00000253,0.00000319,0.
 00000137,0.00000007,0.00000057,0.00000114,-0.00000008,-0.00000023,0.00
 000120,0.00000042,-0.00006187,-0.00012947,0.00004795,-0.00001709,0.000
 05022,-0.00006957,-0.00474545,0.00355079,0.00078114,0.00010761,0.00093
 358,-0.00029917,0.00008674,0.00094306,0.00025587,0.11872590,-0.2403949
 4,-0.02400654,0.00763493,-0.01155130,0.00019027,-0.13037133,0.25982867
 ,-0.00000661,-0.00011381,-0.00010009,-0.00007556,0.00002225,0.00000139
 ,0.00036436,0.00013799,0.00089718,-0.00005112,-0.00006506,0.00007560,0
 .00001130,0.00003360,-0.00004169,0.00001592,0.00001330,0.00000213,0.00
 000360,-0.00000555,0.00000002,-0.00000023,-0.00000181,0.00000093,-0.00
 000045,0.00000389,-0.00000470,0.00000408,0.00000118,-0.00000041,0.0000
 0172,0.00000246,-0.00000211,-0.00000114,0.,0.00000007,0.00014413,-0.00
 006202,-0.00020031,-0.00001513,0.00000677,0.00010857,0.00118599,-0.002
 14832,-0.00159431,-0.00008041,-0.00059862,-0.00007564,-0.00038789,0.00
 044448,-0.00014495,0.01471965,-0.02505510,-0.04914837,0.01475687,-0.02
 070426,-0.00146916,-0.01605755,0.02667111,0.04745364,-0.00009728,-0.00
 013487,0.00011295,0.00004381,-0.00006145,-0.00008943,0.00125321,0.0003
 5078,-0.00120443,-0.00015815,-0.00052418,0.00016023,-0.00000026,0.0004
 4801,-0.00010033,0.00004490,0.00006213,-0.00001024,0.00001568,-0.00001
 925,0.00000118,0.00000256,0.00000411,0.00000704,-0.00000854,0.00000999
 ,-0.00000664,0.00001082,0.00000697,-0.00000091,0.00000556,0.00000512,-
 0.00000637,-0.00000047,0.00000125,0.00000251,-0.00025277,0.00005790,0.
 00023108,0.00004614,-0.00000312,-0.00016540,-0.00185229,-0.01420949,0.
 02134243,-0.00721456,-0.00127460,-0.00009506,0.00135719,0.00058527,-0.
 00030784,-0.04721171,-0.02618268,0.03787243,0.00124709,0.00761466,-0.0
 0906298,0.00254259,0.00877218,-0.01448469,0.05028093,-0.00002822,0.000
 01202,0.00005643,-0.00000496,-0.00002922,-0.00000211,0.00016878,-0.000
 04920,-0.00045446,0.00006272,0.00000474,0.00001131,-0.00004211,-0.0000
 3907,-0.00005135,-0.00000696,-0.00000324,0.00000353,-0.00000152,0.0000
 0626,0.00000326,-0.00000181,0.00000091,-0.00000124,-0.00000152,0.00000
 092,0.00000273,-0.00000407,-0.00000053,-0.00000006,0.00000057,-0.00000
 132,-0.00000079,-0.00000022,-0.00000286,-0.00000096,-0.00011643,0.0001
 0321,0.00018873,-0.00000918,-0.00001208,-0.00012075,0.00004428,-0.0040
 0561,0.00290953,-0.00132961,0.00017077,0.00008452,0.00031153,-0.000037
 38,-0.00014186,-0.02193581,-0.13786064,0.12988838,0.00353983,0.0097900
 5,-0.01342838,-0.00572082,-0.01356075,0.02096314,0.02524675,0.14481453
 ,0.00003703,-0.00001611,-0.00004423,-0.00002646,0.00002159,0.00005094,
 -0.00056646,-0.00033115,0.00035001,0.00007370,0.00023518,-0.00005134,-
 0.00000445,-0.00022187,0.00000932,-0.00001981,-0.00003124,0.00000949,-
 0.00000808,0.00000877,0.00000113,-0.00000165,-0.00000170,-0.00000459,0
 .00000423,-0.00000203,0.00000317,-0.00000359,-0.00000340,0.00000013,-0
 .00000223,-0.00000194,0.00000166,-0.00000112,-0.00000173,-0.00000111,0
 .00025120,0.00001378,0.00024340,-0.00000602,-0.00001302,-0.00012351,-0
 .00109366,0.00038244,-0.00262095,0.00060282,-0.00022060,0.00039795,0.0
 0026511,-0.00000300,0.00024134,0.03230663,0.12851566,-0.22236317,0.005
 03506,0.01525743,-0.01862479,-0.00125002,-0.00366830,0.00423235,-0.035
 20529,-0.13990032,0.23804250,-0.00001656,0.00001313,-0.00000030,0.0000
 9876,0.00015443,0.00003962,0.00006205,0.00011126,0.00032097,-0.0004643
 9,-0.00101183,-0.00040538,-0.00055851,0.00097576,-0.00008437,0.0000233
 5,0.00011167,0.00002554,0.00001595,0.00000564,-0.00000716,-0.00002475,
 0.00003585,0.00000392,-0.00000525,0.00001154,0.00000211,0.00000012,0.0
 0000416,0.00000211,-0.00000405,-0.00001023,-0.00000079,0.00000807,0.00
 000208,0.00001143,-0.00005480,0.00000954,-0.00005992,0.00003400,-0.000
 02512,0.00008202,-0.00152837,0.00043653,0.00221849,-0.06629486,-0.0387
 3973,-0.06400072,0.00026808,-0.00022992,0.00073374,0.00004139,0.000374
 15,-0.00020818,-0.00018844,-0.00030483,0.00029041,0.00001145,0.0000087
 9,0.00005744,0.00008903,0.00002895,-0.00011270,0.06816523,-0.00003428,
 0.00003195,0.00012202,-0.00001869,-0.00013464,0.00006941,-0.00031223,0
 .00018197,-0.00098832,0.00021596,0.00028844,0.00013983,-0.00000927,-0.
 00014754,-0.00017870,-0.00002663,0.00001400,0.00002518,-0.00000171,0.0
 0001242,0.00000076,-0.00001035,0.00000208,-0.00000434,-0.00000663,-0.0
 0000844,0.00000668,-0.00000846,-0.00000098,0.00000021,-0.00000141,-0.0
 0000530,-0.00000040,-0.00000072,-0.00000615,0.00000069,0.00000949,0.00
 005244,0.00030126,-0.00002782,0.00003629,-0.00024500,0.00540286,0.0081
 5894,0.01275212,-0.03821291,-0.11284699,-0.11273832,-0.00077977,-0.002
 86610,0.00371661,0.00026358,0.00054363,-0.00094683,-0.00038499,-0.0001
 2074,0.00012318,-0.00004059,-0.00005502,-0.00002376,0.00033538,-0.0000
 2621,-0.00007822,0.04331676,0.12229654,-0.00006993,-0.00000846,-0.0001
 0971,0.00007648,0.00010276,0.00000115,0.00085413,-0.00006966,0.0016031
 1,-0.00035987,-0.00068916,-0.00025698,0.00001080,0.00047107,0.00008558
 ,0.00002861,0.00002326,0.00004008,0.00000900,-0.00001318,-0.00000692,-
 0.00000485,0.00000977,0.00000357,0.00001915,0.00000477,-0.00000951,0.0
 0000755,0.00000457,0.00000039,0.00000153,0.00000243,-0.00000033,0.0000
 0335,0.00000479,0.00000237,-0.00005173,-0.00016205,-0.00035823,0.00004
 800,-0.00000427,0.00028229,-0.00607124,-0.01222055,-0.01577449,-0.0660
 1560,-0.11914062,-0.22927237,0.00070932,0.00407947,-0.00390221,0.00009
 153,-0.00049068,0.00112497,0.00063094,0.00033165,-0.00007004,-0.000044
 59,0.00003647,-0.00004123,-0.00022884,0.00016329,0.00026999,0.06976045
 ,0.12447567,0.24364172,-0.00005742,0.00001996,-0.00000246,-0.00008832,
 -0.00017759,0.00011284,0.00000530,-0.00025889,-0.00010905,0.00035111,0
 .00123401,0.00004723,-0.00298372,-0.00034517,-0.00078751,0.00000582,-0
 .00015951,-0.00007755,-0.00001045,-0.00001940,-0.00000102,0.00006093,-
 0.00001069,-0.00000305,0.00002038,-0.00001721,0.00001521,0.00001814,-0
 .00000295,0.00000392,-0.00000818,0.00000610,0.00000391,-0.00000438,0.0
 0000487,-0.00000145,0.00003545,0.00005223,-0.00005797,-0.00000176,-0.0
 0003329,0.00012232,-0.00081450,-0.00045400,0.00078792,-0.29444047,-0.0
 8071345,0.03312643,0.00011296,0.00014039,0.00016595,0.00057975,0.00014
 845,-0.00040748,-0.00002137,0.00006209,-0.00003266,0.00017421,-0.00001
 742,-0.00012361,0.00025289,0.00002852,-0.00015255,-0.00598380,-0.00122
 563,0.00156242,0.31685690,-0.00016691,-0.00005772,0.00009926,-0.000009
 30,-0.00022650,-0.00027422,0.00105818,0.00084002,-0.00060991,0.0002332
 9,-0.00209707,0.00048515,-0.00048279,0.00146829,-0.00070631,-0.0000248
 7,0.00019752,0.00008228,0.00001120,0.00004032,-0.00000486,-0.00004630,
 0.00002146,0.00001962,-0.00003397,-0.00000525,-0.00000882,-0.00003232,
 0.00000347,0.00000115,0.00001359,0.00000129,0.00000248,0.00001040,-0.0
 0000564,-0.00000609,-0.00009449,-0.00012408,0.00037887,-0.00000972,0.0
 0008801,-0.00039469,-0.01497795,-0.00534967,-0.00022358,-0.08431291,-0
 .07172151,0.00908203,0.00042692,0.00045102,-0.00060720,0.00036552,-0.0
 0226932,0.00357803,0.00045815,0.00014060,-0.00006945,-0.00002953,0.000
 12747,0.00008201,-0.00138556,0.00015388,0.00018329,-0.01380104,-0.0054
 2234,0.00351368,0.08814089,0.07389297,0.00016757,0.00007919,-0.0000867
 6,-0.00006622,-0.00010136,0.00016851,-0.00114574,-0.00106119,0.0003832
 7,0.00046180,0.00241172,0.00007880,-0.00009426,-0.00197213,0.00003626,
 -0.00001237,-0.00033773,-0.00003213,-0.00003087,-0.00003498,0.00002395
 ,0.00006075,-0.00006215,-0.00001934,0.00004845,-0.00001252,0.00000093,
 0.00002434,-0.00000802,-0.00000546,0.00000137,0.00001860,-0.00000069,-
 0.00001804,0.00000444,-0.00001752,0.00020326,0.00013071,-0.00024848,-0
 .00004335,-0.00006399,0.00022450,0.02043657,0.00520949,-0.00240984,0.0
 3855858,0.01010988,-0.04614342,-0.00038495,-0.00088239,0.00106125,-0.0
 0020414,0.00374326,-0.00490268,-0.00017333,0.00005340,0.00016098,-0.00
 050776,-0.00013842,0.00006540,0.00185300,0.00043335,0.00006362,-0.0256
 9543,-0.00791721,0.00494624,-0.03612572,-0.01114036,0.04879475,-0.0000
 6414,-0.00007641,-0.00001850,0.00002116,0.00001119,-0.00013594,0.00061
 791,0.00002798,0.00022476,0.00003366,-0.00101262,0.00009287,-0.0004714
 0,0.00084575,-0.00046599,-0.00000316,0.00008733,0.00007592,-0.00000014
 ,0.00001381,0.00000190,-0.00001741,0.00001672,0.00000980,-0.00000016,-
 0.00001158,-0.00000076,-0.00001027,0.00000213,-0.00000054,0.00000616,0
 .00000142,0.,0.00000229,-0.00000219,-0.00000397,0.00001052,-0.00010157
 ,0.00014852,-0.00001976,0.00005253,-0.00014206,-0.00024670,-0.00254993
 ,0.00099957,-0.14207218,0.12830456,0.01988019,-0.00007883,-0.00015807,
 -0.00028597,0.00065879,-0.00049717,-0.00048433,-0.00005393,-0.00003498
 ,-0.00001190,0.00006710,0.00012492,0.00022327,0.00007115,0.00007305,-0
 .00006191,0.00579592,-0.00856603,-0.00042372,-0.01415094,0.02467568,0.
 00297837,0.14990665,0.00058843,-0.00048373,-0.00040905,-0.00007493,0.0
 0023866,-0.00004345,-0.00046555,-0.00095832,0.00260640,-0.00081916,-0.
 00090743,-0.00015420,-0.00001910,0.00086384,-0.00008303,0.00007131,0.0
 0003467,0.00003310,0.00000774,-0.00001474,-0.00001359,-0.00000909,0.00
 000610,0.00002237,0.00001239,0.00002291,-0.00004340,0.00002121,0.00000
 477,0.00000008,0.00000966,0.00001434,-0.00000771,0.00000180,0.00001132
 ,0.00000532,-0.00001498,-0.00005501,-0.00096057,0.00001168,-0.00000419
 ,0.00058591,0.00876036,-0.01369450,-0.00096750,0.13191363,-0.21780220,
 -0.03054919,-0.00056322,0.00105684,-0.00091480,0.00000283,0.00091573,-
 0.00088618,-0.00000320,-0.00005805,0.00002631,-0.00072157,-0.00005854,
 0.00027887,0.00011407,0.00040752,-0.00005633,0.00864943,-0.01098631,0.
 00010262,-0.00640133,0.00980057,0.00146898,-0.14118253,0.23052844,-0.0
 0087546,0.00061045,0.00053909,0.00005860,-0.00024816,0.00009703,0.0012
 7834,0.00161947,-0.00251859,0.00067948,0.00055521,-0.00004429,-0.00011
 997,-0.00071174,-0.00002267,-0.00005013,-0.00004806,0.00000177,-0.0000
 0417,0.00001041,0.00001382,0.00001086,0.00001474,-0.00002735,0.0000001
 2,-0.00002336,0.00005292,-0.00001490,-0.00000628,0.00000118,-0.0000148
 2,-0.00001634,0.00000815,-0.00000361,-0.00001001,-0.00000410,-0.000027
 08,0.00005053,0.00111373,0.00002817,-0.00003582,-0.00056141,-0.0125006
 6,0.01848845,-0.00106724,0.01556139,-0.02384822,-0.04510149,-0.0002881
 9,-0.00015742,0.00170431,-0.00066337,-0.00104366,0.00118737,0.00006581
 ,-0.00007014,-0.00002622,0.00062393,-0.00017643,-0.00003203,-0.0003674
 8,-0.00030842,0.00001154,0.01691202,-0.01963139,-0.00161292,0.00180897
 ,-0.00362159,-0.00174791,-0.02226912,0.02964778,0.04841807,-0.00006965
 ,-0.00001493,-0.00004624,-0.00007628,-0.00006665,0.00004971,0.00017379
 ,0.00012644,0.00009066,0.00022686,0.00088076,0.00000885,-0.00122356,-0
 .00025749,0.00070769,0.00003172,-0.00010019,0.00007849,-0.00001009,0.0
 0000415,0.00001131,0.00000301,-0.00001287,-0.00001399,0.00003676,0.000
 00554,-0.00001526,0.00000748,-0.00000688,-0.00000581,0.00000021,0.0000
 0245,-0.00000445,-0.00001057,-0.00000116,-0.00000400,0.00002188,-0.000
 00420,-0.00007873,0.00000361,-0.00004669,0.00012296,-0.00444957,-0.000
 98448,-0.00012088,0.00008311,0.00027322,-0.00007593,-0.30539732,-0.072
 66067,0.01065565,0.00041645,-0.00053173,-0.00069912,-0.00005433,-0.000
 09106,0.00018876,0.00032944,-0.00000448,0.00006594,0.00000859,0.000022
 77,0.00005259,0.00012019,0.00000054,-0.00000588,0.00005646,0.00002437,
 -0.00022934,-0.00005031,-0.00003780,-0.00000759,0.32611317,-0.00014161
 ,-0.00003336,-0.00002935,-0.00001075,0.00003713,-0.00011374,0.00110727
 ,0.00084145,0.00063432,0.00000327,-0.00192776,-0.00024592,-0.00007058,
 0.00126730,0.00067431,0.00003361,0.00016677,-0.00020732,0.00001157,0.0
 0002919,-0.00000397,-0.00001801,-0.00001122,0.00002330,-0.00004780,0.0
 0001386,-0.00001134,-0.00002707,0.00000171,0.00000059,0.00000422,-0.00
 000645,0.00001554,0.00001757,0.00001211,-0.00000737,-0.00028447,-0.000
 29722,0.00003384,0.00005847,0.00006612,-0.00009357,-0.01480797,-0.0048
 6845,0.00283005,0.00052096,0.00032510,0.00041760,-0.07588162,-0.065725
 25,0.00506156,-0.00044154,-0.00218677,-0.00385863,-0.00141687,0.000078
 94,0.00017080,0.00003641,0.00014951,-0.00002846,0.00042839,0.00015037,
 0.00002752,0.00006837,-0.00017432,0.00009212,-0.00000894,0.00030904,-0
 .00014306,0.00008494,-0.00001270,-0.00002920,0.07922020,0.06759155,-0.
 00014038,-0.00006307,-0.00000020,-0.00001917,-0.00000079,-0.00013517,0
 .00122075,0.00114703,0.00015420,-0.00043996,-0.00260393,0.00015358,0.0
 0031582,0.00196002,0.00014903,0.00001127,0.00035852,-0.00024341,0.0000
 3524,0.00004423,0.00001631,-0.00003349,0.00000775,0.00001323,-0.000094
 94,0.00007860,-0.00000461,-0.00002737,0.00000804,-0.00000331,0.0000136
 6,-0.00001184,-0.00001619,0.00000041,-0.00002010,0.00000969,0.00000135
 ,-0.00022779,0.00059849,-0.00005264,0.00012015,-0.00053920,-0.02025790
 ,-0.00434674,0.00132523,0.00051669,0.00076750,0.00087099,0.00513412,0.
 00354640,-0.04144942,-0.00095675,-0.00334763,-0.00473466,-0.00172636,-
 0.00051463,0.00044596,0.00050417,0.00012306,-0.00007872,0.00008865,-0.
 00012437,0.00009252,0.00022808,-0.00018805,0.00024049,0.00008848,0.000
 18576,-0.00060956,-0.00000209,-0.00006446,-0.00000885,-0.01056558,-0.0
 0344471,0.04440185,-0.00001294,0.00002040,-0.00000129,-0.00001647,0.00
 000981,-0.00002419,0.00000102,0.00010799,-0.00016146,-0.00025639,-0.00
 075099,0.00016871,-0.00041896,0.00079879,0.00037989,0.00000493,0.00011
 377,-0.00008042,0.00001484,0.00001208,0.00000487,-0.00000595,0.0000047
 3,-0.00000334,-0.00003443,0.00004113,0.00000073,-0.00000278,0.00000312
 ,-0.00000095,0.00000607,-0.00000269,-0.00001063,-0.00000466,-0.0000128
 7,0.00000613,0.00009910,0.00019038,0.00086949,-0.00011402,0.00004258,-
 0.00045909,-0.00117681,0.00292822,-0.00527142,-0.00027247,-0.00119366,
 -0.00167815,-0.05029208,-0.02014433,0.03811747,0.00018041,0.00041853,0
 .00048176,0.00016509,0.00004430,0.00011838,-0.00003955,0.00004860,-0.0
 0006024,-0.00032697,-0.00034818,-0.00027458,0.00035049,0.00024657,-0.0
 0053515,0.00006983,0.00004864,-0.00014689,0.00003691,-0.00025070,0.000
 30737,-0.00225111,-0.01418011,0.02720314,0.05133345,-0.00003455,0.0000
 4842,-0.00010525,-0.00000339,0.00003233,0.00006436,-0.00024071,0.00027
 796,0.00102608,0.00011175,0.00022262,-0.00011159,0.00007525,-0.0001326
 0,0.00008530,-0.00002395,-0.00000505,-0.00000696,-0.00000436,0.0000136
 4,0.00000522,-0.00000666,-0.00000204,-0.00000452,-0.00000529,0.0000007
 2,0.00000621,-0.00000803,-0.00000154,0.00000040,-0.00000211,-0.0000052
 4,-0.00000138,0.00000017,-0.00000588,0.00000128,0.00019580,-0.00025609
 ,-0.00057455,-0.00014224,-0.00041486,0.00058558,0.00342938,0.00762462,
 -0.01319737,-0.00138190,-0.00281065,-0.00334238,-0.02024778,-0.1089062
 2,0.11435951,0.00047501,0.00057514,0.00097318,0.00036729,-0.00000388,-
 0.00001233,-0.00006431,-0.00005964,0.00005620,-0.00040194,-0.00013166,
 -0.00010579,-0.00003565,0.00115489,-0.00111702,0.00003152,-0.00019828,
 0.00019090,-0.00020977,0.00004013,0.00000401,-0.00004958,-0.00484715,0
 .00698399,0.02388436,0.11888331,0.00007431,0.00000195,-0.00016459,0.00
 004160,0.00007905,0.00007014,-0.00050466,0.00002012,0.00167061,0.00017
 619,0.00060326,-0.00024845,0.00005540,-0.00051737,-0.00001160,-0.00003
 064,-0.00006287,0.00005084,-0.00001232,0.00000997,-0.00000082,-0.00000
 943,-0.00000013,-0.00000483,0.00001775,-0.00001819,0.00000485,-0.00000
 461,-0.00000536,0.00000085,-0.00000531,-0.00000276,0.00000494,0.000001
 24,0.00000131,-0.00000182,0.00022456,-0.00024060,-0.00060648,0.0001622
 1,0.00009191,0.00035107,0.00386985,0.01170853,-0.01595175,-0.00135089,
 -0.00400322,-0.00348039,0.04027638,0.12140957,-0.24788739,0.00014853,0
 .00044986,0.00127086,0.00029707,-0.00012235,0.00016480,-0.00005217,-0.
 00002775,-0.00005684,-0.00058303,-0.00026968,0.00004093,0.00016588,0.0
 0114194,-0.00113682,0.00000852,-0.00013119,0.00033186,-0.00002757,-0.0
 0021936,0.00042818,-0.00049524,-0.00107968,0.00057355,-0.04208402,-0.1
 2746187,0.26357015,0.00012295,-0.00018429,0.00005468,-0.00002377,-0.00
 002569,-0.00002664,0.00028977,-0.00016821,-0.00063739,-0.00013993,-0.0
 0101104,-0.00002162,-0.00022308,0.00084267,0.00052677,0.00004184,0.000
 08087,-0.00009671,0.00000183,0.00000706,-0.00000658,-0.00000256,-0.000
 00715,0.00001675,-0.00001683,0.00001027,-0.00001685,-0.00000832,0.0000
 0309,0.00000164,0.00000259,0.00000015,0.00000684,0.00001184,0.00000826
 ,-0.00000137,-0.00016682,0.00006457,-0.00022556,0.00004893,-0.00004240
 ,0.00017426,0.00176269,-0.00607884,-0.00101356,0.00015843,-0.00013500,
 0.00061762,-0.13509639,0.12729844,-0.00303930,0.00088351,-0.00036583,0
 .00046405,0.00013931,0.00015276,0.00002571,-0.00013130,0.00015362,-0.0
 0015270,-0.00005604,-0.00002405,-0.00001789,-0.00000999,-0.00019656,0.
 00010869,-0.00005642,0.00010818,0.00001478,0.00003990,0.00014882,0.000
 16120,-0.01401825,0.02585360,-0.00089508,0.00295749,-0.00567608,-0.000
 34985,0.14337612,0.00059158,-0.00052916,0.00021659,-0.00004916,-0.0000
 8845,-0.00001110,-0.00077104,-0.00081536,-0.00196607,-0.00076177,-0.00
 074716,0.00032298,0.00009783,0.00081772,0.00014521,0.00007207,0.000056
 02,-0.00006377,0.00001155,-0.00002408,-0.00000803,0.00001709,0.0000076
 4,0.00003091,-0.00001697,0.00001070,-0.00002736,0.00002200,0.00000653,
 -0.00000016,0.00000603,0.00001183,-0.00000501,0.00000279,0.00001343,0.
 00000619,-0.00036157,0.00067766,-0.00100153,0.00007707,-0.00010648,0.0
 0055315,0.00831211,-0.01363673,-0.00040292,-0.00033032,0.00115757,0.00
 103192,0.13202288,-0.22832294,0.00866844,0.00021280,0.00075995,0.00075
 414,0.00005557,0.00041575,0.00003493,-0.00079623,-0.00006121,-0.000097
 92,0.00004668,0.00001008,-0.00002823,-0.00020493,0.00001730,0.00029409
 ,-0.00002032,-0.00001116,0.00001767,0.00005375,0.00050421,-0.00051236,
 -0.00569094,0.00904689,-0.00039688,0.00789630,-0.01110109,-0.00139430,
 -0.14081736,0.24177703,0.00085254,-0.00064084,0.00017026,-0.00004180,-
 0.00009204,0.00004891,-0.00140229,-0.00145654,-0.00150881,-0.00073316,
 -0.00044291,0.00026818,0.00019426,0.00067818,-0.00004794,0.00004814,0.
 00005226,-0.00004648,0.00000744,-0.00002384,-0.00000796,0.00001564,0.0
 0001099,0.00004091,-0.00001835,-0.00001136,-0.00002661,0.00001801,0.00
 000836,0.00000043,0.00000733,0.00001115,-0.00000484,0.00000769,0.00001
 561,0.00000601,-0.00045289,0.00076091,-0.00179395,0.00024268,-0.000426
 47,0.00121194,0.01134382,-0.01807282,-0.00283047,0.00070280,0.00018681
 ,0.00161870,0.00109534,0.00251420,-0.04240322,0.00074274,0.00099686,0.
 00079498,0.00028990,0.00028283,-0.00005989,-0.00056486,0.00018729,0.00
 021423,-0.00000729,0.00008648,-0.00001698,-0.00019562,-0.00000923,0.00
 048934,0.00003728,0.00003244,-0.00004794,-0.00033172,0.00047766,-0.000
 50216,0.00039487,-0.00070214,-0.00128885,-0.01690741,0.02177287,0.0011
 1291,0.00429526,-0.00633472,0.04442486,-0.00474987,-0.00435022,-0.0038
 8083,-0.00284732,-0.00465242,-0.01344466,-0.04303676,0.01376287,0.0079
 3763,-0.01705825,-0.01840830,0.00194117,-0.00184893,0.00068642,0.00059
 224,-0.00026551,-0.00171590,-0.00091345,-0.00017937,0.00012020,-0.0001
 4178,0.00035924,0.00038436,0.00058894,-0.00005363,0.00038380,-0.000340
 64,0.00019408,-0.00006811,0.00000364,0.00009430,0.00011551,-0.00004367
 ,0.00005035,0.00012123,0.00003508,-0.01352676,-0.01307010,-0.02143436,
 0.00635582,0.00427646,0.00885621,0.00999767,-0.00299006,0.00182569,-0.
 00218501,0.00180870,0.00067863,-0.00251998,0.00199223,-0.00031423,-0.0
 0124764,0.00170433,0.00064323,-0.00095225,0.00072055,-0.00068349,-0.00
 106397,-0.00045434,-0.00009387,0.00003343,0.00019582,0.00037824,0.0001
 5721,0.00010562,-0.00017774,0.00009646,-0.00049944,0.00026579,-0.00007
 275,0.00071524,-0.00076446,0.00001028,-0.00038562,-0.00041209,0.000049
 69,-0.00013052,-0.00008967,0.00018600,0.00078635,0.00078863,0.58887226
 ,0.00669552,0.00376786,0.00301655,-0.00391698,-0.00136043,-0.01060568,
 0.00958072,-0.05811268,0.00021725,-0.02451890,-0.00561499,0.00381333,0
 .00356669,0.00437077,-0.00052931,0.00000855,-0.00204624,0.00000875,-0.
 00015367,0.00009460,-0.00019254,0.00026800,0.00022181,0.00012304,0.000
 18817,0.00048925,-0.00020865,0.00019688,-0.00011151,0.00000796,0.00003
 614,0.00010052,0.00002327,-0.00004579,0.00004384,-0.00003714,-0.014769
 39,0.00114852,-0.01296473,0.00594236,0.00023500,0.00844331,0.00410731,
 -0.01771194,-0.00678613,-0.00253374,0.00317221,0.00103314,-0.00092947,
 0.00062682,-0.00008995,-0.00169911,0.00279806,0.00019586,0.00018723,0.
 00023864,-0.00027622,-0.00180516,-0.00029455,0.00002456,0.00022602,0.0
 0024916,0.00022889,0.00011889,0.00000176,0.00020706,0.00007053,-0.0003
 7664,0.00019944,-0.00000325,0.00108531,-0.00101335,0.00004561,-0.00029
 334,-0.00020203,0.00009018,-0.00006015,-0.00001105,-0.00004342,0.00043
 275,0.00033343,0.47268441,0.53150866,0.00025969,-0.00087369,0.00416682
 ,0.01005775,0.00745115,0.00359602,-0.01528725,-0.01366066,-0.02645109,
 0.00171765,0.00359946,-0.01099367,-0.00005644,-0.00354623,0.00272452,-
 0.00021627,0.00009103,0.00270207,0.00003624,0.00018120,0.00018482,-0.0
 0058665,0.00017595,0.00003458,0.00010624,-0.00019366,-0.00015534,0.000
 05989,-0.00002461,0.00002625,0.00001775,0.00009462,-0.00007332,0.00003
 966,-0.00002139,-0.00000239,-0.02104264,-0.00772961,-0.04408826,0.0071
 9987,0.00262378,0.01529143,0.00337184,-0.00767033,0.00316675,-0.000990
 58,0.00116837,0.00043489,-0.00112126,0.00102660,-0.00040475,-0.0008818
 6,0.00195583,0.00017329,-0.00030479,0.00006263,-0.00018794,-0.00102703
 ,-0.00010250,-0.00012286,0.00034476,0.00003910,-0.00014809,-0.00005603
 ,0.00011245,-0.00023757,0.00003881,-0.00007932,0.00002328,0.00001826,0
 .00038581,-0.00061420,-0.00005397,-0.00014844,-0.00004008,0.00009411,-
 0.00014940,-0.00016331,0.00003578,0.00041319,0.00039802,0.32131478,0.3
 0145077,0.27454332,0.00259709,0.00183659,0.00232288,0.00260934,0.00231
 467,0.00527221,-0.02455208,-0.03882117,-0.02666511,0.00665147,0.009510
 48,-0.00318734,-0.00115927,-0.00506714,0.00019271,-0.00086338,-0.00038
 321,0.00078069,-0.00026989,0.00044633,0.00014407,-0.00035423,-0.000098
 56,-0.00014184,0.00005819,-0.00027503,0.00011144,-0.00032941,-0.000086
 14,0.00000428,-0.00004089,-0.00011508,0.00002787,0.00004729,-0.0000928
 2,-0.00001971,0.00445365,0.00203589,0.00928785,-0.00198011,0.00032396,
 -0.00709263,-0.00511331,0.00416035,0.00011724,0.00135584,-0.00120808,-
 0.00046666,0.00135074,-0.00111944,0.00016264,0.00066282,-0.00093417,-0
 .00018185,0.00020034,0.00012179,0.00053372,0.00076638,0.00023189,0.000
 03696,-0.00012654,-0.00014807,-0.00019816,-0.00010750,-0.00003209,0.00
 006718,-0.00007485,0.00033207,-0.00019621,0.00004397,-0.00046545,0.000
 47476,-0.00003198,0.00027409,0.00026197,-0.00004376,0.00009828,0.00007
 991,-0.00007350,-0.00046385,-0.00042896,-0.51484879,-0.45359434,-0.303
 08832,0.52917234,-0.00086485,-0.00042649,0.00003418,0.00281266,0.00191
 042,0.00429434,-0.03711758,-0.00910727,-0.02026636,0.00968628,0.005079
 96,-0.00406478,-0.00306345,-0.00634820,0.00077321,-0.00098296,-0.00022
 051,0.00045988,-0.00025592,0.00041104,0.00013625,-0.00029185,-0.000058
 31,-0.00002406,-0.00000832,-0.00028337,0.00007892,-0.00032100,-0.00006
 037,0.00000011,-0.00002291,-0.00011034,0.00000471,0.00006636,-0.000073
 98,0.00000406,0.00398488,-0.00154032,0.00719111,-0.00151844,0.00121081
 ,-0.00694931,-0.00377554,0.00711891,0.00225381,0.00141079,-0.00142229,
 -0.00054097,0.00070392,-0.00045030,-0.00003262,0.00084693,-0.00181540,
 -0.00031927,0.00073205,-0.00183976,-0.00034733,0.00090299,0.00033113,0
 .00016287,-0.00011853,-0.00011464,-0.00018956,-0.00007364,0.00000844,-
 0.00000389,-0.00007377,0.00032927,-0.00019552,0.00003034,-0.00049964,0
 .00051090,-0.00004425,0.00029698,0.00022597,-0.00006694,0.00006826,0.0
 0005027,0.00004357,-0.00027922,-0.00019541,-0.45383909,-0.46460310,-0.
 28663211,0.48121826,0.47248832,0.00084311,0.00073215,-0.00061204,-0.00
 358257,-0.00260429,-0.00051302,-0.01786262,-0.01482510,-0.00618790,-0.
 00010721,0.00099807,0.00280232,-0.00122274,-0.00235068,-0.00076561,-0.
 00062116,-0.00066573,-0.00069486,-0.00023340,0.00026718,-0.00002182,0.
 00007660,-0.00006378,0.00001946,-0.00005123,-0.00001482,0.00004234,-0.
 00020180,-0.00006375,-0.00000802,-0.00000586,-0.00008317,0.00003497,0.
 00002095,-0.00003246,-0.00000384,0.00608030,0.00054711,0.01826134,-0.0
 0201699,0.00013462,-0.00754785,-0.00238110,0.00402388,-0.00056280,0.00
 074615,-0.00074960,-0.00025444,0.00065432,-0.00053742,0.00011992,0.000
 54626,-0.00129830,-0.00016088,0.00031318,-0.00056560,-0.00018712,0.000
 54670,0.00016345,0.00006192,-0.00009000,-0.00002905,-0.00006323,-0.000
 02764,-0.00003824,0.00005801,-0.00004814,0.00015155,-0.00009189,0.0000
 1268,-0.00026841,0.00031426,-0.00000548,0.00016534,0.00010711,-0.00005
 281,0.00007536,0.00006855,-0.00000296,-0.00023906,-0.00021360,-0.30311
 495,-0.28640982,-0.22378321,0.32178844,0.30358057,0.21978193\\0.000008
 20,0.00000214,-0.00000191,0.00000053,0.00000315,-0.00000113,0.00000329
 ,0.00000006,-0.00000105,0.00000044,0.00000547,-0.00000117,-0.00000333,
 0.00000446,-0.00000174,0.00000241,0.00000917,-0.00000353,-0.00000041,0
 .00001309,-0.00000427,0.00000391,0.00000987,-0.00000428,0.00000522,0.0
 0000835,-0.00000418,0.00000156,0.00001577,-0.00000579,-0.00000324,0.00
 001360,-0.00000413,-0.00000158,0.00001252,-0.00000410,0.00000776,-0.00
 000147,-0.00000093,0.00000885,-0.00000198,-0.00000088,-0.00000150,-0.0
 0000418,0.00000157,-0.00000641,-0.00000392,0.00000257,-0.00000366,-0.0
 0000465,0.00000225,-0.00000024,-0.00001069,0.00000366,0.00000019,-0.00
 001116,0.00000357,-0.00000326,-0.00001238,0.00000491,0.00000235,-0.000
 01154,0.00000347,-0.00000602,-0.00000420,0.00000272,-0.00000822,-0.000
 00057,0.00000162,-0.00000919,-0.00000588,0.00000396,-0.00000487,-0.000
 00134,0.00000122,-0.00000092,-0.00000542,0.00000210,-0.00000639,-0.000
 00663,0.00000364,0.00000576,-0.00000572,0.00000125,0.00000878,-0.00000
 591,0.00000057\\\@


 TOM, TOM, THE BURGLAR'S SON
 STOLE A MACHINE AND AWAY HE RUN
 THE JOB WAS NEAT, BUT TOM GOT BEAT
 BY THE TIME HE GOT HOME IT WAS OBSOLETE.
 Job cpu time:       1 days  0 hours 18 minutes 10.0 seconds.
 Elapsed time:       0 days  2 hours  1 minutes 55.3 seconds.
 File lengths (MBytes):  RWF=    822 Int=      0 D2E=      0 Chk=     36 Scr=      1
 Normal termination of Gaussian 16 at Wed Oct  5 01:46:32 2022.
